<UPF version="2.0.1">
   <PP_INFO>
         UPF file from ATOMPAW code with following input
           He  2
           XC_LDA_X+XC_LDA_C_PW scalarrelativistic loggrid 2001
           1 0 0 0 0 0
           0 0 0
           v
           1
           1.3
           y
           3.0
           n
           y
           2.0
           n
           Vanderbilt
           2 0
           1.3
           1.3
           1.3
           PWSCFOUT
           UPFDX 1.25d-2 UPFXMIN -7. UPFZMESH 2.0
           END
  </PP_INFO>
  <!--                               -->
  <!-- END OF HUMAN READABLE SECTION -->
  <PP_HEADER generated="Generated using ATOMPAW code"
             author="   "
             date=" 11/30/2025, 12:23:02.467"
             element="He"
             pseudo_type="PAW"
             relativistic="scalar"
             is_ultrasoft="T"
             is_paw="T"
             is_coulomb="F"
             has_so="F"
             has_wfc="T"
             has_gipaw="T"
             paw_as_gipaw="T"
             core_correction="T"
             functional="SLA PW NOGX NOGC"
             z_valence=" 2.000"
             l_max="1"
             l_max_rho="2"
             mesh_size="   833"
             number_of_wfc="     3"
             number_of_proj=" 3"
                                    /> 
<PP_MESH dx=" 1.2500000000000E-02" mesh="   833" xmin="-7.0000000000000E+00" zmesh=" 2.0000000000000E+00">
 <PP_R type="real" size="   833" columns="3">
  4.55940982777258122E-04  4.61676014334511120E-04  4.67483183708291075E-04
  4.73363398280626986E-04  4.79317576847009929E-04  4.85346649759954443E-04
  4.91451559074369327E-04  4.97633258694755651E-04  5.03892714524255226E-04
  5.10230904615577296E-04  5.16648819323818512E-04  5.23147461461209262E-04
  5.29727846453805070E-04  5.36391002500148412E-04  5.43137970731928936E-04
  5.49969805376659114E-04  5.56887573922401624E-04  5.63892357284566164E-04
  5.70985249974803751E-04  5.78167360272028880E-04  5.85439810395587215E-04
  5.92803736680606419E-04  6.00260289755550421E-04  6.07810634722007344E-04
  6.15455951336740499E-04  6.23197434196024760E-04  6.31036292922307254E-04
  6.38973752353212210E-04  6.47011052732924001E-04  6.55149449905980037E-04
  6.63390215513495751E-04  6.71734637191863404E-04  6.80184018773946934E-04
  6.88739680492808540E-04  6.97402959187999388E-04  7.06175208514440815E-04
  7.15057799153937207E-04  7.24052119029347779E-04  7.33159573521451513E-04
  7.42381585688543419E-04  7.51719596488786184E-04  7.61175065005365785E-04
  7.70749468674475141E-04  7.80444303516166123E-04  7.90261084368108530E-04
  8.00201345122282157E-04  8.10266638964653348E-04  8.20458538617863022E-04
  8.30778636586966958E-04  8.41228545408270593E-04  8.51809897901286989E-04
  8.62524347423871177E-04  8.73373568130559838E-04  8.84359255234160339E-04
  8.95483125270634880E-04  9.06746916367307605E-04  9.18152388514453560E-04
  9.29701323840300504E-04  9.41395526889488672E-04  9.53236824905038258E-04
  9.65227068113854651E-04  9.77368130015833546E-04  9.89661907676598349E-04
  1.00211032202391953E-03  1.01471531814786701E-03  1.02747886560472946E-03
  1.04040295872476467E-03  1.05348961692381705E-03  1.06674088501885404E-03
  1.08015883354747725E-03  1.09374555909144255E-03  1.10750318460425845E-03
  1.12143385974290168E-03  1.13553976120370345E-03  1.14982309306246801E-03
  1.16428608711885689E-03  1.17893100324511645E-03  1.19376012973918672E-03
  1.20877578368225173E-03  1.22398031130079151E-03  1.23937608833317925E-03
  1.25496552040089927E-03  1.27075104338442916E-03  1.28673512380384999E-03
  1.30292025920424916E-03  1.31930897854596078E-03  1.33590384259972528E-03
  1.35270744434681334E-03  1.36972240938418419E-03  1.38695139633474430E-03
  1.40439709726275638E-03  1.42206223809448378E-03  1.43994957904412151E-03
  1.45806191504508384E-03  1.47640207618672330E-03  1.49497292815653016E-03
  1.51377737268790767E-03  1.53281834801357155E-03  1.55209882932465433E-03
  1.57162182923559018E-03  1.59139039825483344E-03  1.61140762526151317E-03
  1.63167663798807414E-03  1.65220060350899098E-03  1.67298272873563601E-03
  1.69402626091735582E-03  1.71533448814886725E-03  1.73691073988402681E-03
  1.75875838745606422E-03  1.78088084460436484E-03  1.80328156800786525E-03
  1.82596405782517175E-03  1.84893185824146601E-03  1.87218855802229016E-03
  1.89573779107430392E-03  1.91958323701308178E-03  1.94372862173806515E-03
  1.96817771801474162E-03  1.99293434606414525E-03  2.01800237415977919E-03
  2.04338571923203330E-03  2.06908834748021839E-03  2.09511427499228971E-03
  2.12146756837237015E-03  2.14815234537616990E-03  2.17517277555438456E-03
  2.20253308090420305E-03  2.23023753652900085E-03  2.25829047130633297E-03
  2.28669626856433652E-03  2.31545936676662290E-03  2.34458426020580550E-03
  2.37407549970573882E-03  2.40393769333259498E-03  2.43417550711488156E-03
  2.46479366577252593E-03  2.49579695345510848E-03  2.52719021448940704E-03
  2.55897835413632785E-03  2.59116633935736231E-03  2.62375919959069231E-03
  2.65676202753703777E-03  2.69017997995541023E-03  2.72401827846886465E-03
  2.75828221038038578E-03  2.79297712949904981E-03  2.82810845697655400E-03
  2.86368168215429255E-03  2.89970236342107328E-03  2.93617612908162601E-03
  2.97310867823604710E-03  3.01050578167027941E-03  3.04837328275781895E-03
  3.08671709837275363E-03  3.12554321981428065E-03  3.16485771374287348E-03
  3.20466672312819155E-03  3.24497646820894351E-03  3.28579324746480946E-03
  3.32712343860058681E-03  3.36897349954273350E-03  3.41134996944841363E-03
  3.45425946972726609E-03  3.49770870507600841E-03  3.54170446452605923E-03
  3.58625362250434947E-03  3.63136313990744574E-03  3.67704006518921808E-03
  3.72329153546217210E-03  3.77012477761263457E-03  3.81754710942998083E-03
  3.86556594075003522E-03  3.91418877461288672E-03  3.96342320843525147E-03
  4.01327693519757701E-03  4.06375774464610550E-03  4.11487352451001508E-03
  4.16663226173390449E-03  4.21904204372576877E-03  4.27211105962066982E-03
  4.32584760156031704E-03  4.38026006598871403E-03  4.43535695496412915E-03
  4.49114687748756233E-03  4.54763855084790777E-03  4.60484080198407010E-03
  4.66276256886416322E-03  4.72141290188210581E-03  4.78080096527175660E-03
  4.84093603853884193E-03  4.90182751791091390E-03  4.96348491780550585E-03
  5.02591787231679299E-03  5.08913613672093857E-03  5.15314958900037028E-03
  5.21796823138725215E-03  5.28360219192632735E-03  5.35006172605746386E-03
  5.41735721821808101E-03  5.48549918346573871E-03  5.55449826912115304E-03
  5.62436525643183246E-03  5.69511106225668862E-03  5.76674674077181596E-03
  5.83928348519772121E-03  5.91273262954830885E-03  5.98710565040181091E-03
  6.06241416869404953E-03  6.13866995153422405E-03  6.21588491404354102E-03
  6.29407112121699915E-03  6.37324078980853418E-03  6.45340629023993632E-03
  6.53458014853374597E-03  6.61677504827046410E-03  6.70000383257041403E-03
  6.78427950610046692E-03  6.86961523710607168E-03  6.95602435946881571E-03
  7.04352037478986163E-03  7.13211695449962775E-03  7.22182794199393956E-03
  7.31266735479711109E-03  7.40464938675220678E-03  7.49778841023885159E-03
  7.59209897841897283E-03  7.68759582751071639E-03  7.78429387909104504E-03
  7.88220824242725007E-03  7.98135421683780419E-03  8.08174729408293706E-03
  8.18340316078521382E-03  8.28633770088062736E-03  8.39056699810048628E-03
  8.49610733848453308E-03  8.60297521292569152E-03  8.71118731974675729E-03
  8.82076056730958166E-03  8.93171207665702585E-03  9.04405918418814923E-03
  9.15781944436708933E-03  9.27301063246594240E-03  9.38965074734220487E-03
  9.50775801425112789E-03  9.62735088769346541E-03  9.74844805429899743E-03
  9.87106843574639056E-03  9.99523119171971501E-03  1.01209557229021956E-02
  1.02482616740076291E-02  1.03771689368498711E-02  1.05076976534510154E-02
  1.06398682191885877E-02  1.07737012859823855E-02  1.09092177655213864E-02
  1.10464388325312215E-02  1.11853859280828007E-02  1.13260807629424858E-02
  1.14685453209644652E-02  1.16128018625257876E-02  1.17588729280045535E-02
  1.19067813413019398E-02  1.20565502134084377E-02  1.22082029460150177E-02
  1.23617632351696993E-02  1.25172550749800739E-02  1.26747027613624726E-02
  1.28341308958382170E-02  1.29955643893776736E-02  1.31590284662926570E-02
  1.33245486681777426E-02  1.34921508579012427E-02  1.36618612236462846E-02
  1.38337062830027890E-02  1.40077128871109111E-02  1.41839082248565503E-02
  1.43623198271197166E-02  1.45429755710762380E-02  1.47259036845536449E-02
  1.49111327504418550E-02  1.50986917111592504E-02  1.52886098731750478E-02
  1.54809169115884462E-02  1.56756428747654442E-02  1.58728181890339763E-02
  1.60724736634380340E-02  1.62746404945517155E-02  1.64793502713536828E-02
  1.66866349801630398E-02  1.68965270096372785E-02  1.71090591558330160E-02
  1.73242646273305129E-02  1.75421770504225194E-02  1.77628304743684823E-02
  1.79862593767148339E-02  1.82124986686821172E-02  1.84415837006200074E-02
  1.86735502675308106E-02  1.89084346146625414E-02  1.91462734431723305E-02
  1.93871039158610044E-02  1.96309636629799084E-02  1.98778907881106588E-02
  2.01279238741189255E-02  2.03811019891831126E-02  2.06374646928987743E-02
  2.08970520424599585E-02  2.11599045989181583E-02  2.14260634335200935E-02
  2.16955701341251875E-02  2.19684668117037102E-02  2.22447961069167609E-02
  2.25246011967789109E-02  2.28079258014047027E-02  2.30948141908400607E-02
  2.33853111919794902E-02  2.36794621955704644E-02  2.39773131633057371E-02
  2.42789106350049869E-02  2.45843017358867919E-02  2.48935341839319722E-02
  2.52066562973396885E-02  2.55237170020772078E-02  2.58447658395246950E-02
  2.61698529742162046E-02  2.64990292016779143E-02  2.68323459563650675E-02
  2.71698553196987463E-02  2.75116100282036154E-02  2.78576634817482120E-02
  2.82080697518886855E-02  2.85628835903176462E-02  2.89221604374192420E-02
  2.92859564309317644E-02  2.96543284147193741E-02  3.00273339476539863E-02
  3.04050313126089863E-02  3.07874795255661179E-02  3.11747383448367152E-02
  3.15668682803992018E-02  3.19639306033537990E-02  3.23659873554962771E-02
  3.27731013590121800E-02  3.31853362262927998E-02  3.36027563698748921E-02
  3.40254270125051120E-02  3.44534141973312918E-02  3.48867847982218329E-02
  3.53256065302147981E-02  3.57699479600986289E-02  3.62198785171257490E-02
  3.66754685038610667E-02  3.71367891071669523E-02  3.76039124093262012E-02
  3.80769113993051772E-02  3.85558599841583707E-02  3.90408330005765844E-02
  3.95319062265803434E-02  4.00291563933602712E-02  4.05326611972666381E-02
  4.10424993119494139E-02  4.15587504006512815E-02  4.20814951286552011E-02
  4.26108151758884182E-02  4.31467932496852682E-02  4.36895130977102142E-02
  4.42390595210436569E-02  4.47955183874323565E-02  4.53589766447062559E-02
  4.59295223343644671E-02  4.65072446053317670E-02  4.70922337278883441E-02
  4.76845811077748274E-02  4.82843793004744115E-02  4.88917220256750440E-02
  4.95067041819131706E-02  5.01294218614018738E-02  5.07599723650455428E-02
  5.13984542176431983E-02  5.20449671832833444E-02  5.26996122809321940E-02
  5.33624918002181051E-02  5.40337093174146563E-02  5.47133697116244655E-02
  5.54015791811669558E-02  5.60984452601718947E-02  5.68040768353818837E-02
  5.75185841631662143E-02  5.82420788867484829E-02  5.89746740536512618E-02
  5.97164841333598373E-02  6.04676250352083472E-02  6.12282141264909735E-02
  6.19983702508006135E-02  6.27782137465986295E-02  6.35678664660178222E-02
  6.43674517939021168E-02  6.51770946670858498E-02  6.59969215939151116E-02
  6.68270606740152262E-02  6.76676416183063650E-02  6.85187957692712374E-02
  6.93806561214776463E-02  7.02533573423590740E-02  7.11370357932568087E-02
  7.20318295507266504E-02  7.29378784281137088E-02  7.38553239973984282E-02
  7.47843096113175454E-02  7.57249804257632969E-02  7.66774834224642488E-02
  7.76419674319515085E-02  7.86185831568138316E-02  7.96074831952451462E-02
  8.06088220648883969E-02  8.16227562269792178E-02  8.26494441107932798E-02
  8.36890461384012796E-02  8.47417247497350701E-02  8.58076444279693845E-02
  8.68869717252225837E-02  8.79798752885807833E-02  8.90865258864492471E-02
  9.02070964352354177E-02  9.13417620263673458E-02  9.24906999536521668E-02
  9.36540897409785522E-02  9.48321131703676601E-02  9.60249543103770808E-02
  9.72327995448617893E-02  9.84558376020970433E-02  9.96942595842676138E-02
  1.00948258997327733E-01  1.02218031781237034E-01  1.03503776340576337E-01
  1.04805693575548933E-01  1.06123986913371576E-01  1.07458862340060329E-01
  1.08810528432616474E-01  1.10179196391616954E-01  1.11565080074214937E-01
  1.12968396027555470E-01  1.14389363522611254E-01  1.15828204588444436E-01
  1.17285144046898854E-01  1.18760409547729096E-01  1.20254231604171119E-01
  1.21766843628960397E-01  1.23298481970803273E-01  1.24849385951306804E-01
  1.26419797902373260E-01  1.28009963204065075E-01  1.29620130322945809E-01
  1.31250550850903674E-01  1.32901479544463325E-01  1.34573174364591958E-01
  1.36265896517006352E-01  1.37979910492986607E-01  1.39715484110703697E-01
  1.41472888557066467E-01  1.43252398430095074E-01  1.45054291781827716E-01
  1.46878850161766467E-01  1.48726358660870334E-01  1.50597105956101096E-01
  1.52491384355529669E-01  1.54409489844009984E-01  1.56351722129426940E-01
  1.58318384689526664E-01  1.60309784819335360E-01  1.62326233679174897E-01
  1.64368046343282115E-01  1.66435541849039831E-01  1.68529043246827187E-01
  1.70648877650496883E-01  1.72795376288487290E-01  1.74968874555577747E-01
  1.77169712065294416E-01  1.79398232702975863E-01  1.81654784679505688E-01
  1.83939720585721223E-01  1.86253397447506547E-01  1.88596176781578528E-01
  1.90968424651974528E-01  1.93370511727250671E-01  1.95802813338399551E-01
  1.98265709537496504E-01  2.00759585157083392E-01  2.03284829870299610E-01
  2.05841838251769299E-01  2.08431009839254278E-01  2.11052749196082801E-01
  2.13707465974363409E-01  2.16395574978993699E-01  2.19117496232474701E-01
  2.21873655040540019E-01  2.24664482058610893E-01  2.27490413359086846E-01
  2.30351890499482986E-01  2.33249360591424260E-01  2.36183276370507428E-01
  2.39154096267042121E-01  2.42162284477681317E-01  2.45208311037953153E-01
  2.48292651895704847E-01  2.51415788985470567E-01  2.54578210303774699E-01
  2.57780409985382153E-01  2.61022888380508078E-01  2.64306152132998740E-01
  2.67630714259495195E-01  2.70997094229593671E-01  2.74405818047013306E-01
  2.77857418331785788E-01  2.81352434403477958E-01  2.84891412365461616E-01
  2.88474905190243436E-01  2.92103472805868014E-01  2.95777682183407609E-01
  2.99498107425552829E-01  3.03265329856316823E-01  3.07079938111869011E-01
  3.10942528232510174E-01  3.14853703755805125E-01  3.18814075810886777E-01
  3.22824263213946139E-01  3.26884892564923757E-01  3.30996598345417115E-01
  3.35160023017819775E-01  3.39375817125707302E-01  3.43644639395486229E-01
  3.47967156839321112E-01  3.52344044859356831E-01  3.56775987353251389E-01
  3.61263676821036217E-01  3.65807814473321058E-01  3.70409110340859105E-01
  3.75068283385491030E-01  3.79786061612484405E-01  3.84563182184285424E-01
  3.89400391535702606E-01  3.94298445490538441E-01  3.99258109379688697E-01
  4.04280158160726377E-01  4.09365376538991077E-01  4.14514559090200352E-01
  4.19728510384603848E-01  4.25008045112699240E-01  4.30353988212529071E-01
  4.35767174998579088E-01  4.41248451292297894E-01  4.46798673554258008E-01
  4.52418709017979981E-01  4.58109435825439004E-01  4.63871743164276595E-01
  4.69706531406738070E-01  4.75614712250357174E-01  4.81597208860411075E-01
  4.87654956014166530E-01  4.93788900246940887E-01  5.00000000000000222E-01
  5.06289225770317430E-01  5.12657560262214651E-01  5.19105998540912772E-01
  5.25635548188012280E-01  5.32247229458929882E-01  5.38942075442315982E-01
  5.45721132221476113E-01  5.52585459037824078E-01  5.59536128456390447E-01
  5.66574226533413383E-01  5.73700852986036347E-01  5.80917121364141753E-01
  5.88224159224345455E-01  5.95623108306179261E-01  6.03115124710490558E-01
  6.10701379080085149E-01  6.18383056782642604E-01  6.26161358095932430E-01
  6.34037498395359944E-01  6.42012708343871030E-01  6.50088234084245764E-01
  6.58265337433811104E-01  6.66545296081601624E-01  6.74929403788001814E-01
  6.83418970586898489E-01  6.92015322990375936E-01  7.00719804195986895E-01
  7.09533774296628894E-01  7.18458610493062477E-01  7.27495707309100959E-01
  7.36646476809508011E-01  7.45912348820635507E-01  7.55294771153836586E-01
  7.64795209831689693E-01  7.74415149317066898E-01  7.84156092745084687E-01
  7.94019562157971981E-01  8.04007098742891779E-01  8.14120263072755312E-01
  8.24360635350064430E-01  8.34729815653821761E-01  8.45229424189546052E-01
  8.55861101542432556E-01  8.66626508933697970E-01  8.77527328480149693E-01
  8.88565263457019583E-01  8.99742038564104729E-01  9.11059400195254887E-01
  9.22519116711250309E-01  9.34122978716111607E-01  9.45872799336885173E-01
  9.57770414506948442E-01  9.69817683252877427E-01  9.82016487984923914E-01
  9.94368734791146403E-01  1.00687635373523876E+00  1.01954129915810809E+00
  1.03236554998324359E+00  1.04535111002592829E+00  1.05850000830633784E+00
  1.07181429936658001E+00  1.08529606359172170E+00  1.09894740753485132E+00
  1.11277046424623438E+00  1.12676739360660472E+00  1.14094038266465225E+00
  1.15529164597875256E+00  1.16982342596299604E+00  1.18453799323757036E+00
  1.19943764698354949E+00  1.21452471530214456E+00  1.22980155557847537E+00
  1.24527055484991589E+00  1.26093413017907463E+00  1.27679472903146407E+00
  1.29285482965792364E+00  1.30911694148185109E+00  1.32558360549130394E+00
  1.34225739463603566E+00  1.35914091422952321E+00  1.37623680235605272E+00
  1.39354773028292578E+00  1.41107640287785085E+00  1.42882555903158259E+00
  1.44679797208588101E+00  1.46499645026685132E+00  1.48342383712373427E+00
  1.50208301197321736E+00  1.52097689034933259E+00  1.54010842445901641E+00
  1.55948060364339680E+00  1.57909645484488448E+00  1.59895904308013859E+00
  1.61907147191898115E+00  1.63943688396933762E+00  1.66005846136827451E+00
  1.68093942627921522E+00  1.70208304139541045E+00  1.72349261044973812E+00
  1.74517147873092138E+00  1.76712303360623557E+00  1.78935070505079019E+00
  1.81185796618347195E+00  1.83464833380962311E+00  1.85772536897055285E+00
  1.88109267749995590E+00  1.90475391058733123E+00  1.92871276534848812E+00
  1.95297298540322695E+00  1.97753836146028950E+00  2.00241273190966318E+00
  2.02759998342233816E+00  2.05310405155760733E+00  2.07892892137800489E+00
  2.10507862807198132E+00  2.13155725758440973E+00  2.15836894725502315E+00
  2.18551788646488010E+00  2.21300831729096803E+00  2.24084453516903359E+00
  2.26903088956475241E+00  2.29757178465334544E+00  2.32647168000773652E+00
  2.35573509129537184E+00  2.38536659098380266E+00  2.41537080905514046E+00
  2.44575243372950357E+00  2.47651621219755880E+00  2.50766695136228090E+00
  2.53920951859004163E+00  2.57114884247114395E+00  2.60348991358992565E+00
  2.63623778530454711E+00  2.66939757453658943E+00  2.70297446257058471E+00
  2.73697369586360084E+00  2.77140058686501289E+00  2.80626051484658001E+00
  2.84155892674297306E+00  2.87730133800286669E+00  2.91349333345073802E+00
  2.95014056815950987E+00  2.98724876833416353E+00  3.02482373220647460E+00
  3.06287133094099451E+00  3.10139750955243398E+00  3.14040828783458359E+00
  3.17990976130091774E+00  3.21990810213703105E+00  3.26040956016505756E+00
  3.30142046382021492E+00  3.34294722113963649E+00  3.38499632076363977E+00
  3.42757433294959091E+00  3.47068791059851911E+00  3.51434379029464816E+00
  3.55854879335799934E+00  3.60330982691023571E+00  3.64863388495391749E+00
  3.69452804946532654E+00  3.74099949150104161E+00  3.78805547231842432E+00
  3.83570334451021688E+00  3.88395055315338888E+00  3.93280463697244764E+00
  3.98227322951738838E+00  4.03236406035643746E+00  4.08308495628382762E+00
  4.13444384254273700E+00  4.18644874406363421E+00  4.23910778671818900E+00
  4.29242919858894822E+00  4.34642131125500430E+00  4.40109256109380631E+00
  4.45645149059937040E+00  4.51250674971706367E+00  4.56926709719516388E+00
  4.62674140195344918E+00  4.68493864446896779E+00  4.74386791817926490E+00
  4.80353843090325405E+00  4.86395950627994367E+00  4.92514058522529474E+00
  4.98709122740736355E+00  5.04982111274002854E+00  5.11334004289550226E+00
  5.17765794283584757E+00  5.24278486236378960E+00  5.30873097769300539E+00
  5.37550659303818001E+00  5.44312214222507240E+00  5.51158819032080238E+00
  5.58091543528468659E+00  5.65111470963979468E+00  5.72219698216556338E+00
  5.79417335961169844E+00  5.86705508843360679E+00  5.94085355654970293E+00
  6.01558029512076953E+00  6.09124698035173928E+00  6.16786543531613063E+00
  6.24544763180340645E+00  6.32400569218961639E+00  6.40355189133152081E+00
  6.48409865848457034E+00  6.56565857924501195E+00  6.64824439751639407E+00
  6.73186901750084843E+00  6.81654550571538209E+00  6.90228709303355092E+00
  6.98910717675282012E+00  7.07701932268790390E+00  7.16603726729046819E+00
  7.25617491979546259E+00  7.34744636439447429E+00  7.43986586243642201E+00
  7.53344785465589606E+00  7.62820696342958282E+00  7.72415799506101308E+00
  7.82131594209408920E+00  7.91969598565571253E+00  8.01931349782783798E+00
  8.12018404404942196E+00  8.22232338554853115E+00  8.32574748180507562E+00
  8.43047249304452073E+00  8.53651478276293041E+00  8.64389092028382500E+00
  8.75261768334714496E+00  8.86271206073082496E+00  8.97419125490532466E+00
  9.08707268472153373E+00  9.20137398813252716E+00  9.31711302494950822E+00
  9.43430787963244555E+00  9.55297686411582880E+00  9.67313852066990876E+00
  9.79481162479800105E+00  9.91801518817016614E+00  1.00427684615938375E+01
  1.01690909380218102E+01  1.02970023555980177E+01  1.04265227007417085E+01
  1.05576722112703134E+01  1.06904713795616768E+01  1.08249409557560341E+01
  1.09611019509982359E+01  1.10989756407208233E+01  1.12385835679683126E+01
  1.13799475467633684E+01  1.15230896655152950E+01  1.16680322904713609E+01
  1.18147980692116139E+01  1.19634099341875757E+01  1.21138911063054948E+01
  1.22662650985546815E+01  1.24205557196814240E+01  1.25767870779091879E+01
  1.27349835847055477E+01  1.28951699585965365E+01  1.30573712290289894E+01
  1.32216127402814010E+01  1.33879201554240677E+01  1.35563194603289539E+01
  1.37268369677300566E+01  1.38994993213348401E+01  1.40743334999873273E+01
  1.42513668218836465E+01  1.44306269488405174E+01  1.46121418906174760E+01
  1.47959400092934850E+01  1.49820500236985126E+01
                               </PP_R> 
 <PP_RAB type="real" size="   833" columns="3">
  5.69926228471572652E-06  5.77095017918138967E-06  5.84353979635363878E-06
  5.91704247850783732E-06  5.99146971058762462E-06  6.06683312199943054E-06
  6.14314448842961693E-06  6.22041573368444580E-06  6.29865893155319101E-06
  6.37788630769471688E-06  6.45811024154773156E-06  6.53934326826511628E-06
  6.62159808067256372E-06  6.70488753125185566E-06  6.78922463414911204E-06
  6.87462256720823926E-06  6.96109467403002064E-06  7.04865446605707705E-06
  7.13731562468504740E-06  7.22709200340036168E-06  7.31799762994484052E-06
  7.41004670850758091E-06  7.50325362194438077E-06  7.59763293402509180E-06
  7.69319939170925658E-06  7.78996792745030916E-06  7.88795366152884169E-06
  7.98717190441515297E-06  8.08763815916155069E-06  8.18936812382475046E-06
  8.29237769391869689E-06  8.39668296489829288E-06  8.50230023467433701E-06
  8.60924600616010776E-06  8.71753698984999269E-06  8.82719010643050985E-06
  8.93822248942421610E-06  9.05065148786684791E-06  9.16449466901814527E-06
  9.27976982110679410E-06  9.39649495610982764E-06  9.51468831256707299E-06
  9.63436835843093926E-06  9.75555379395207755E-06  9.87826355460135662E-06
  1.00025168140285270E-05  1.01283329870581679E-05  1.02557317327232885E-05
  1.03847329573370876E-05  1.05153568176033828E-05  1.06476237237660880E-05
  1.07815543427983904E-05  1.09171696016319980E-05  1.10544906904270042E-05
  1.11935390658829363E-05  1.13343364545913454E-05  1.14769048564306705E-05
  1.16212665480037577E-05  1.17674440861186094E-05  1.19154603113129789E-05
  1.20653383514231838E-05  1.22171016251979200E-05  1.23707738459574794E-05
  1.25263790252989955E-05  1.26839414768483390E-05  1.28434858200591193E-05
  1.30050369840595594E-05  1.31686202115477145E-05  1.33342610627356769E-05
  1.35019854193434670E-05  1.36718194886430332E-05  1.38437898075532306E-05
  1.40179232467862709E-05  1.41942470150462941E-05  1.43727886632808515E-05
  1.45535760889857121E-05  1.47366375405639570E-05  1.49220016217398353E-05
  1.51096972960281476E-05  1.52997538912598953E-05  1.54922011041647406E-05
  1.56870690050112429E-05  1.58843880423053659E-05  1.60841890475481242E-05
  1.62865032400531138E-05  1.64913622318245104E-05  1.66987980324965660E-05
  1.69088430543351687E-05  1.71215301173023037E-05  1.73368924541843058E-05
  1.75549637157844561E-05  1.77757779761810472E-05  1.79993697380515209E-05
  1.82257739380635480E-05  1.84550259523340440E-05  1.86871616019566284E-05
  1.89222171585988485E-05  1.91602293501696471E-05  1.94012353665581791E-05
  1.96452728654448785E-05  1.98923799781854201E-05  2.01425953157689146E-05
  2.03959579748509287E-05  2.06525075438623879E-05  2.09122841091954515E-05
  2.11753282614669484E-05  2.14416811018608413E-05  2.17113842485503357E-05
  2.19844798432008027E-05  2.22610105575545618E-05  2.25410196000983183E-05
  2.28245507228146489E-05  2.31116482280183272E-05  2.34023569752786290E-05
  2.36967223884288011E-05  2.39947904626635230E-05  2.42966077717258157E-05
  2.46022214751842709E-05  2.49116793258018176E-05  2.52250296769972419E-05
  2.55423214904004162E-05  2.58636043435027312E-05  2.61889284374036220E-05
  2.65183446046546289E-05  2.68519043172021264E-05  2.71896596944298070E-05
  2.75316635113025395E-05  2.78779692066125133E-05  2.82286308913291635E-05
  2.85837033570542065E-05  2.89432420845827882E-05  2.93073032525725715E-05
  2.96759437463217353E-05  3.00492211666574400E-05  3.04271938389360202E-05
  3.08099208221565782E-05  3.11974619181888587E-05  3.15898776811175880E-05
  3.19872294267040995E-05  3.23895792419670315E-05  3.27969899948836539E-05
  3.32095253442129761E-05  3.36272497494426319E-05  3.40502284808608121E-05
  3.44785276297548263E-05  3.49122141187381213E-05  3.53513557122069237E-05
  3.57960210269286596E-05  3.62462795427634200E-05  3.67022016135203278E-05
  3.71638584779505887E-05  3.76313222708784940E-05  3.81046660344727382E-05
  3.85839637296594230E-05  3.90692902476785136E-05  3.95607214217859240E-05
  4.00583340391023971E-05  4.05622058526117939E-05  4.10724155933101209E-05
  4.15890429825073351E-05  4.21121687442841701E-05  4.26418746181051744E-05
  4.31782433715908301E-05  4.37213588134501065E-05  4.42713058065757445E-05
  4.48281702813043683E-05  4.53920392488430758E-05  4.59630008148652314E-05
  4.65411441932771512E-05  4.71265597201579335E-05  4.77193388678747617E-05
  4.83195742593754403E-05  4.89273596826610840E-05  4.95427901054406488E-05
  5.01659616899697154E-05  5.07969718080763188E-05  5.14359190563751912E-05
  5.20829032716738075E-05  5.27380255465721096E-05  5.34013882452583769E-05
  5.40730950195039657E-05  5.47532508248589254E-05  5.54419619370516198E-05
  5.61393359685945304E-05  5.68454818855988498E-05  5.75605100248008803E-05
  5.82845321108020416E-05  5.90176612735263280E-05  5.97600120658969575E-05
  6.05117004817355269E-05  6.12728439738864292E-05  6.20435614725688259E-05
  6.28239734039599124E-05  6.36142017090117348E-05  6.44143698625046339E-05
  6.52246028923406492E-05  6.60450273990790946E-05  6.68757715757183009E-05
  6.77169652277260207E-05  6.85687397933217339E-05  6.94312283640144184E-05
  7.03045657053979139E-05  7.11888882782086077E-05  7.20843342596477076E-05
  7.29910435649715151E-05  7.39091578693538607E-05  7.48388206300226391E-05
  7.57801771086756218E-05  7.67333743941778088E-05  7.76985614255442655E-05
  7.86758890152124948E-05  7.96655098726066773E-05  8.06675786279992122E-05
  8.16822518566718246E-05  8.27096881033808040E-05  8.37500479071301836E-05
  8.48034938262558419E-05  8.58701904638259068E-05  8.69503044933601991E-05
  8.80440046848732704E-05  8.91514619312453577E-05  9.02728492749242499E-05
  9.14083419349638940E-05  9.25581173344025874E-05  9.37223551279856476E-05
  9.49012372302371685E-05  9.60949478438839657E-05  9.73036734886380684E-05
  9.85276030303406286E-05  9.97669277104725632E-05  1.01021841176036724E-04
  1.02292539509815175E-04  1.03579221261007853E-04  1.04882087476256087E-04
  1.06201341731056669E-04  1.07537190161571152E-04  1.08889841496834474E-04
  1.10259507091369779E-04  1.11646400958212834E-04  1.13050739802351876E-04
  1.14472743054588628E-04  1.15912632905824291E-04  1.17370634341777561E-04
  1.18846975178139107E-04  1.20341886096168328E-04  1.21855600678737468E-04
  1.23388355446829893E-04  1.24940389896496443E-04  1.26511946536277440E-04
  1.28103270925095363E-04  1.29714611710623383E-04  1.31346220668137692E-04
  1.32998352739857346E-04  1.34671266074779829E-04  1.36365222069017336E-04
  1.38080485406640263E-04  1.39817324101035025E-04  1.41576009536781088E-04
  1.43356816512055831E-04  1.45160023281572362E-04  1.46985911600056919E-04
  1.48834766766274258E-04  1.50706877667605493E-04  1.52602536825187737E-04
  1.54522040439621252E-04  1.56465688437250946E-04  1.58433784517030907E-04
  1.60426636197977734E-04  1.62444554867220941E-04  1.64487855828658212E-04
  1.66556858352221788E-04  1.68651885723765540E-04  1.70773265295578569E-04
  1.72921328537534885E-04  1.75096411088886394E-04  1.77298852810706895E-04
  1.79528997838996468E-04  1.81787194638452992E-04  1.84073796056920562E-04
  1.86389159380523204E-04  1.88733646389490636E-04  1.91107623414688103E-04
  1.93511461394855588E-04  1.95945535934568068E-04  1.98410227362924704E-04
  2.00905920792975425E-04  2.03433006181896454E-04  2.05991878391921035E-04
  2.08582937252038014E-04  2.11206587620465982E-04  2.13863239447912706E-04
  2.16553307841631416E-04  2.19277213130281498E-04  2.22035380929606039E-04
  2.24828242208935440E-04  2.27656233358526476E-04  2.30519796257750104E-04
  2.33419378344135138E-04  2.36355432683281778E-04  2.39328418039654132E-04
  2.42338798948262565E-04  2.45387045787248844E-04  2.48473634851383246E-04
  2.51599048426486590E-04  2.54763774864788896E-04  2.57968308661234668E-04
  2.61213150530749481E-04  2.64498807486476990E-04  2.67825792919001201E-04
  2.71194626676564854E-04  2.74605835146296388E-04  2.78059951336459522E-04
  2.81557514959736408E-04  2.85099072517558773E-04  2.88685177385500770E-04
  2.92316389899743660E-04  2.95993277444630838E-04  2.99716414541321735E-04
  3.03486382937562357E-04  3.07303771698584898E-04  3.11169177299149675E-04
  3.15083203716746128E-04  3.19046462525965141E-04  3.23059572994058720E-04
  3.27123162177702601E-04  3.31237865020973972E-04  3.35404324454563344E-04
  3.39623191496234340E-04  3.43895125352545225E-04  3.48220793521852661E-04
  3.52600871898608602E-04  3.57036044878970577E-04  3.61527005467740569E-04
  3.66074455386647098E-04  3.70679105183992219E-04  3.75341674345674851E-04
  3.80062891407612351E-04  3.84843494069576485E-04  3.89684229310458972E-04
  3.94585853504990022E-04  3.99549132541922498E-04  4.04574841943703496E-04
  4.09663766987652261E-04  4.14816702828659997E-04  4.20034454623436184E-04
  4.25317837656313921E-04  4.30667677466641191E-04  4.36084809977772944E-04
  4.41570081627684987E-04  4.47124349501232883E-04  4.52748481464071895E-04
  4.58443356298263356E-04  4.64209863839586926E-04  4.70048905116577536E-04
  4.75961392491314737E-04  4.81948249801979667E-04  4.88010412507207305E-04
  4.94148827832254270E-04  5.00364454917003368E-04  5.06658264965833020E-04
  5.13031241399367673E-04  5.19484380008141018E-04  5.26018689108190057E-04
  5.32635189698605293E-04  5.39334915621065875E-04  5.46118913721377699E-04
  5.52988244013045689E-04  5.59943979842904434E-04  5.66987208058828220E-04
  5.74119029179555903E-04  5.81340557566647109E-04  5.88652921598604344E-04
  5.96057263847185408E-04  6.03554741255930187E-04  6.11146525320938137E-04
  6.18833802273914676E-04  6.26617773267523466E-04  6.34499654563069285E-04
  6.42480677720540022E-04  6.50562089791041826E-04  6.58745153511652469E-04
  6.67031147502726400E-04  6.75421366467683290E-04  6.83917121395305840E-04
  6.92519739764586991E-04  7.01230565752148749E-04  7.10050960442273611E-04
  7.18982302039577765E-04  7.28025986084356079E-04  7.37183425670640859E-04
  7.46456051666997988E-04  7.55845312940104383E-04  7.65352676581137212E-04
  7.74979628135007734E-04  7.84727671832482912E-04  7.94598330825222778E-04
  8.04593147423776460E-04  8.14713683338573122E-04  8.24961519923938895E-04
  8.35338258425190349E-04  8.45845520228829650E-04  8.56484947115890511E-04
  8.67258201518470622E-04  8.78166966779488490E-04  8.89212947415710130E-04
  9.00397869384083217E-04  9.11723480351421425E-04  9.23191549967480375E-04
  9.34803870141469404E-04  9.46562255322041255E-04  9.58468542780803131E-04
  9.70524592899393922E-04  9.82732289460172895E-04  9.95093539940564327E-04
  1.00761027581110500E-03  1.02028445283724035E-03  1.03311805138491604E-03
  1.04611307673001599E-03  1.05927155937168838E-03  1.07259555534961739E-03
  1.08608714656528238E-03  1.09974844110725988E-03  1.11358157358061572E-03
  1.12758870544044272E-03  1.14177202532959182E-03  1.15613374942065221E-03
  1.17067612176223186E-03  1.18540141462959584E-03  1.20031192887971351E-03
  1.21540999431077237E-03  1.23069797002621321E-03  1.24617824480334526E-03
  1.26185323746659680E-03  1.27772539726546310E-03  1.29379720425720421E-03
  1.31007116969436175E-03  1.32654983641714475E-03  1.34323577925075412E-03
  1.36013160540770606E-03  1.37723995489521210E-03  1.39456350092768684E-03
  1.41210495034444351E-03  1.42986704403264085E-03  1.44785255735555549E-03
  1.46606430058623580E-03  1.48450511934661387E-03  1.50317789505213903E-03
  1.52208554536200497E-03  1.54123102463504108E-03  1.56061732439133523E-03
  1.58024747377966579E-03  1.60012454005081361E-03  1.62025162903682270E-03
  1.64063188563629610E-03  1.66126849430579164E-03  1.68216467955739960E-03
  1.70332370646257949E-03  1.72474888116233268E-03  1.74644355138379634E-03
  1.76841110696333089E-03  1.79065498037618846E-03  1.81317864727284657E-03
  1.83598562702208101E-03  1.85907948326087926E-03  1.88246382445126379E-03
  1.90614230444412095E-03  1.93011862305012493E-03  1.95439652661783675E-03
  1.97897980861908322E-03  2.00387231024169200E-03  2.02907792098968622E-03
  2.05460057929102635E-03  2.08044427311299780E-03  2.10661304058534001E-03
  2.13311097063121095E-03  2.15994220360609139E-03  2.18711093194472184E-03
  2.21462140081618011E-03  2.24247790878719837E-03  2.27068480849382118E-03
  2.29924650732151554E-03  2.32816746809383184E-03  2.35745220976973186E-03
  2.38710530814968160E-03  2.41713139659063348E-03  2.44753516672999464E-03
  2.47832136921870630E-03  2.50949481446354275E-03  2.54106037337874539E-03
  2.57302297814711659E-03  2.60538762299067882E-03  2.63815936495103527E-03
  2.67134332467954287E-03  2.70494468723742141E-03  2.73896870290593402E-03
  2.77342068800675049E-03  2.80830602573263650E-03  2.84363016698858592E-03
  2.87939863124353750E-03  2.91561700739280351E-03  2.95229095463134293E-03
  2.98942620333802686E-03  3.02702855597101680E-03  3.06510388797441450E-03
  3.10365814869631093E-03  3.14269736231838218E-03  3.18222762879718374E-03
  3.22225512481727700E-03  3.26278610475635132E-03  3.30382690166248442E-03
  3.34538392824369020E-03  3.38746367786992107E-03  3.43007272558766649E-03
  3.47321772914732261E-03  3.51690543004347465E-03  3.56114265456827046E-03
  3.60593631487804303E-03  3.65129341007335018E-03  3.69722102729259537E-03
  3.74372634281941062E-03  3.79081662320396046E-03  3.83849922639836272E-03
  3.88678160290637734E-03  3.93567129694756459E-03  3.98517594763608471E-03
  4.03530329017432691E-03  4.08606115706154713E-03  4.13745747931771376E-03
  4.18950028772274718E-03  4.24219771407134162E-03  4.29555799244357803E-03
  4.34958946049151390E-03  4.40430056074196056E-03  4.45969984191564237E-03
  4.51579596026295289E-03  4.57259768091651357E-03  4.63011387926073881E-03
  4.68835354231863805E-03  4.74732577015605541E-03  4.80703977730356780E-03
  4.86750489419628292E-03  4.92873056863173120E-03  4.99072636724610941E-03
  5.05350197700907972E-03  5.11706720673738881E-03  5.18143198862750474E-03
  5.24660637980754827E-03  5.31260056390874067E-03  5.37942485265661356E-03
  5.44708968748223912E-03  5.51560564115372368E-03  5.58498341942822562E-03
  5.65523386272475011E-03  5.72636794781798773E-03  5.79839678955345814E-03
  5.87133164258422588E-03  5.94518390312946503E-03  6.01996511075513895E-03
  6.09568695017708231E-03  6.17236125308676109E-03  6.25000000000000295E-03
  6.32861532212896857E-03  6.40821950327768314E-03  6.48882498176140982E-03
  6.57044435235015420E-03  6.65309036823662388E-03  6.73677594302895047E-03
  6.82151415276845141E-03  6.90731823797280115E-03  6.99420160570488059E-03
  7.08217783166766729E-03  7.17126066232545451E-03  7.26146401705177191E-03
  7.35280199030431854E-03  7.44528885382724111E-03  7.53893905888113232E-03
  7.63376723850106489E-03  7.72978820978303255E-03  7.82701697619915537E-03
  7.92546872994199895E-03  8.02515885429838823E-03  8.12610292605307240E-03
  8.22831671792263915E-03  8.33181620102002064E-03  8.43661754735002337E-03
  8.54273713233623215E-03  8.65019153737969955E-03  8.75899755244983688E-03
  8.86917217870786083E-03  8.98073263116328131E-03  9.09369634136376198E-03
  9.20808096011885117E-03  9.32390436025794418E-03  9.44118463942295733E-03
  9.55994012289612151E-03  9.68018936646333761E-03  9.80195115931355859E-03
  9.92524452697465115E-03  1.00500887342861479E-02  1.01765032884094421E-02
  1.03045079418758057E-02  1.04341226956727734E-02  1.05653678023693263E-02
  1.06982637692804080E-02  1.08328313616712253E-02  1.09690916060018722E-02
  1.11070657932127448E-02  1.12467754820513091E-02  1.13882425024406861E-02
  1.15314889588906296E-02  1.16765372339513954E-02  1.18234099917110657E-02
  1.19721301813368562E-02  1.21227210406609689E-02  1.22752060998115500E-02
  1.24296091848893307E-02  1.25859544216904845E-02  1.27442662394763526E-02
  1.29045693747905452E-02  1.30668888753241036E-02  1.32312501038292230E-02
  1.33976787420822512E-02  1.35662007948965223E-02  1.37368425941856425E-02
  1.39096308030779298E-02  1.40845924200825590E-02  1.42617547833081542E-02
  1.44411455747344084E-02  1.46227928245374512E-02  1.48067249154696309E-02
  1.49929705872943689E-02  1.51815589412768077E-02  1.53725194447309425E-02
  1.55658819356239500E-02  1.57616766272384336E-02  1.59599341128933009E-02
  1.61606853707240462E-02  1.63639617685231407E-02  1.65697950686412993E-02
  1.67782174329504478E-02  1.69892614278690408E-02  1.72029600294506604E-02
  1.74193466285365722E-02  1.76384550359731350E-02  1.78603194878947831E-02
  1.80849746510735147E-02  1.83124556283356422E-02  1.85427979640466790E-02
  1.87760376496652198E-02  1.90122111293666574E-02  1.92513553057377072E-02
  1.94935075455424621E-02  1.97387056855610581E-02  1.99869880385017337E-02
  2.02383933989872672E-02  2.04929610496167210E-02  2.07507307671034313E-02
  2.10117428284901930E-02  2.12760380174426313E-02  2.15436576306217292E-02
  2.18146434841365172E-02  2.20890379200779467E-02  2.23668838131348795E-02
  2.26482245772934021E-02  2.29331041726202889E-02  2.32215671121319134E-02
  2.35136584687494488E-02  2.38094238823416404E-02  2.41089095668561015E-02
  2.44121623175403389E-02  2.47192295182536194E-02  2.50301591488707904E-02
  2.53449997927792277E-02  2.56638006444700924E-02  2.59866115172250611E-02
  2.63134828508997665E-02  2.66444657198051243E-02  2.69796118406877908E-02
  2.73189735808110033E-02  2.76626039661371018E-02  2.80105566896129213E-02
  2.83628861195594079E-02  2.87196473081668194E-02  2.90808960000967093E-02
  2.94466886411921501E-02  2.98170823872975360E-02  3.01921351131892585E-02
  3.05719054216187953E-02  3.09564526524694870E-02  3.13458368920285155E-02
  3.17401189823755189E-02  3.21393605308893035E-02  3.25436239198740734E-02
  3.29529723163068389E-02  3.33674696817073679E-02  3.37871807821323103E-02
  3.42121711982950119E-02  3.46425073358126653E-02  3.50782564355822529E-02
  3.55194865842871632E-02  3.59662667250358337E-02  3.64186666681342239E-02
  3.68767571019938747E-02  3.73406096041770455E-02  3.78102966525809339E-02
  3.82858916367624369E-02  3.87674688694054290E-02  3.92551035979323004E-02
  3.97488720162614759E-02  4.02488512767128909E-02  4.07551195020632237E-02
  4.12677557977526865E-02  4.17868402642454576E-02  4.23124540095455026E-02
  4.28446791618698891E-02  4.33835988824814930E-02  4.39292973786831048E-02
  4.44818599169749945E-02  4.50413728363779492E-02  4.56079235619239742E-02
  4.61816006183165817E-02  4.67624936437630243E-02  4.73506934039803068E-02
  4.79462918063777166E-02  4.85493819144173638E-02  4.91600579621555983E-02
  4.97784153689673561E-02  5.04045507544554697E-02  5.10385619535478480E-02
  5.16805480317842139E-02  5.23306093007954304E-02  5.29888473339773652E-02
  5.36553649823618556E-02  5.43302663906875538E-02  5.50136570136725844E-02
  5.57056436324921342E-02  5.64063343714633000E-02  5.71158387149395541E-02
  5.78342675244181148E-02  5.85617330558620974E-02  5.92983489772408168E-02
  6.00442303862906770E-02  6.07994938284993000E-02  6.15642573153161871E-02
  6.23386403425920457E-02  6.31227639092503540E-02  6.39167505361937782E-02
  6.47207242854481030E-02  6.55348107795473700E-02  6.63591372211625730E-02
  6.71938324129772585E-02  6.80390267778134133E-02  6.88948523790100381E-02
  6.97614429410585851E-02  7.06389338704974390E-02  7.15274622770695478E-02
  7.24271669951462305E-02  7.33381886054200877E-02  7.42606694568712922E-02
  7.51947536890096302E-02  7.61405872543967494E-02  7.70983179414516384E-02
  7.80680953975425862E-02  7.90500711523702132E-02  8.00443986416440184E-02
  8.10512332310571321E-02  8.20707322405626605E-02  8.31030549689549258E-02
  8.41483627187606109E-02  8.52068188214422789E-02  8.62785886629193893E-02
  8.73638397094102515E-02  8.84627415335988015E-02  8.95754658411308524E-02
  9.07021864974432851E-02  9.18430795549309287E-02  9.29983232804552779E-02
  9.41680981831987118E-02  9.53525870428697936E-02  9.65519749382626746E-02
  9.77664492761761150E-02  9.89961998206964067E-02  1.00241418722847975E-01
  1.01502300550617777E-01  1.02779042319356639E-01  1.04071843522563448E-01
  1.05380906163056509E-01  1.06706434784536633E-01  1.08048636503547818E-01
  1.09407721041839323E-01  1.10783900759135315E-01  1.12177390686316561E-01
  1.13588408559019180E-01  1.15017174851656592E-01  1.16463912811868853E-01
  1.17928848495405580E-01  1.19412210801447871E-01  1.20914231508373868E-01
  1.22435145309975013E-01  1.23975189852127077E-01  1.25534605769922980E-01
  1.27113636725272622E-01  1.28712529444975216E-01  1.30331533759271367E-01
  1.31970902640878934E-01  1.33630892244520960E-01  1.35311761946950437E-01
  1.37013774387477943E-01  1.38737195509010286E-01  1.40482294599603902E-01
  1.42249344334542116E-01  1.44038620818941199E-01  1.45850403630892023E-01
  1.47684975865145174E-01  1.49542624177344707E-01  1.51423638828818707E-01
  1.53328313731933535E-01  1.55256946496017817E-01  1.57209838473864855E-01
  1.59187294808819352E-01  1.61189624482456717E-01  1.63217140362862390E-01
  1.65270159253517512E-01  1.67349001942800862E-01  1.69453993254111923E-01
  1.71585462096625729E-01  1.73743741516685507E-01  1.75929168749841602E-01
  1.78142085273545581E-01  1.80382836860506490E-01  1.82651773632718450E-01
  1.84949250116168584E-01  1.87275625296231429E-01
                             </PP_RAB> 
                                  </PP_MESH>
 <PP_NLCC type="real" size="   833" columns="3">
  0.00000000000000000E+00  0.00000000000000000E+00  0.00000000000000000E+00
  0.00000000000000000E+00  0.00000000000000000E+00  0.00000000000000000E+00
  0.00000000000000000E+00  0.00000000000000000E+00  0.00000000000000000E+00
  0.00000000000000000E+00  0.00000000000000000E+00  0.00000000000000000E+00
  0.00000000000000000E+00  0.00000000000000000E+00  0.00000000000000000E+00
  0.00000000000000000E+00  0.00000000000000000E+00  0.00000000000000000E+00
  0.00000000000000000E+00  0.00000000000000000E+00  0.00000000000000000E+00
  0.00000000000000000E+00  0.00000000000000000E+00  0.00000000000000000E+00
  0.00000000000000000E+00  0.00000000000000000E+00  0.00000000000000000E+00
  0.00000000000000000E+00  0.00000000000000000E+00  0.00000000000000000E+00
  0.00000000000000000E+00  0.00000000000000000E+00  0.00000000000000000E+00
  0.00000000000000000E+00  0.00000000000000000E+00  0.00000000000000000E+00
  0.00000000000000000E+00  0.00000000000000000E+00  0.00000000000000000E+00
  0.00000000000000000E+00  0.00000000000000000E+00  0.00000000000000000E+00
  0.00000000000000000E+00  0.00000000000000000E+00  0.00000000000000000E+00
  0.00000000000000000E+00  0.00000000000000000E+00  0.00000000000000000E+00
  0.00000000000000000E+00  0.00000000000000000E+00  0.00000000000000000E+00
  0.00000000000000000E+00  0.00000000000000000E+00  0.00000000000000000E+00
  0.00000000000000000E+00  0.00000000000000000E+00  0.00000000000000000E+00
  0.00000000000000000E+00  0.00000000000000000E+00  0.00000000000000000E+00
  0.00000000000000000E+00  0.00000000000000000E+00  0.00000000000000000E+00
  0.00000000000000000E+00  0.00000000000000000E+00  0.00000000000000000E+00
  0.00000000000000000E+00  0.00000000000000000E+00  0.00000000000000000E+00
  0.00000000000000000E+00  0.00000000000000000E+00  0.00000000000000000E+00
  0.00000000000000000E+00  0.00000000000000000E+00  0.00000000000000000E+00
  0.00000000000000000E+00  0.00000000000000000E+00  0.00000000000000000E+00
  0.00000000000000000E+00  0.00000000000000000E+00  0.00000000000000000E+00
  0.00000000000000000E+00  0.00000000000000000E+00  0.00000000000000000E+00
  0.00000000000000000E+00  0.00000000000000000E+00  0.00000000000000000E+00
  0.00000000000000000E+00  0.00000000000000000E+00  0.00000000000000000E+00
  0.00000000000000000E+00  0.00000000000000000E+00  0.00000000000000000E+00
  0.00000000000000000E+00  0.00000000000000000E+00  0.00000000000000000E+00
  0.00000000000000000E+00  0.00000000000000000E+00  0.00000000000000000E+00
  0.00000000000000000E+00  0.00000000000000000E+00  0.00000000000000000E+00
  0.00000000000000000E+00  0.00000000000000000E+00  0.00000000000000000E+00
  0.00000000000000000E+00  0.00000000000000000E+00  0.00000000000000000E+00
  0.00000000000000000E+00  0.00000000000000000E+00  0.00000000000000000E+00
  0.00000000000000000E+00  0.00000000000000000E+00  0.00000000000000000E+00
  0.00000000000000000E+00  0.00000000000000000E+00  0.00000000000000000E+00
  0.00000000000000000E+00  0.00000000000000000E+00  0.00000000000000000E+00
  0.00000000000000000E+00  0.00000000000000000E+00  0.00000000000000000E+00
  0.00000000000000000E+00  0.00000000000000000E+00  0.00000000000000000E+00
  0.00000000000000000E+00  0.00000000000000000E+00  0.00000000000000000E+00
  0.00000000000000000E+00  0.00000000000000000E+00  0.00000000000000000E+00
  0.00000000000000000E+00  0.00000000000000000E+00  0.00000000000000000E+00
  0.00000000000000000E+00  0.00000000000000000E+00  0.00000000000000000E+00
  0.00000000000000000E+00  0.00000000000000000E+00  0.00000000000000000E+00
  0.00000000000000000E+00  0.00000000000000000E+00  0.00000000000000000E+00
  0.00000000000000000E+00  0.00000000000000000E+00  0.00000000000000000E+00
  0.00000000000000000E+00  0.00000000000000000E+00  0.00000000000000000E+00
  0.00000000000000000E+00  0.00000000000000000E+00  0.00000000000000000E+00
  0.00000000000000000E+00  0.00000000000000000E+00  0.00000000000000000E+00
  0.00000000000000000E+00  0.00000000000000000E+00  0.00000000000000000E+00
  0.00000000000000000E+00  0.00000000000000000E+00  0.00000000000000000E+00
  0.00000000000000000E+00  0.00000000000000000E+00  0.00000000000000000E+00
  0.00000000000000000E+00  0.00000000000000000E+00  0.00000000000000000E+00
  0.00000000000000000E+00  0.00000000000000000E+00  0.00000000000000000E+00
  0.00000000000000000E+00  0.00000000000000000E+00  0.00000000000000000E+00
  0.00000000000000000E+00  0.00000000000000000E+00  0.00000000000000000E+00
  0.00000000000000000E+00  0.00000000000000000E+00  0.00000000000000000E+00
  0.00000000000000000E+00  0.00000000000000000E+00  0.00000000000000000E+00
  0.00000000000000000E+00  0.00000000000000000E+00  0.00000000000000000E+00
  0.00000000000000000E+00  0.00000000000000000E+00  0.00000000000000000E+00
  0.00000000000000000E+00  0.00000000000000000E+00  0.00000000000000000E+00
  0.00000000000000000E+00  0.00000000000000000E+00  0.00000000000000000E+00
  0.00000000000000000E+00  0.00000000000000000E+00  0.00000000000000000E+00
  0.00000000000000000E+00  0.00000000000000000E+00  0.00000000000000000E+00
  0.00000000000000000E+00  0.00000000000000000E+00  0.00000000000000000E+00
  0.00000000000000000E+00  0.00000000000000000E+00  0.00000000000000000E+00
  0.00000000000000000E+00  0.00000000000000000E+00  0.00000000000000000E+00
  0.00000000000000000E+00  0.00000000000000000E+00  0.00000000000000000E+00
  0.00000000000000000E+00  0.00000000000000000E+00  0.00000000000000000E+00
  0.00000000000000000E+00  0.00000000000000000E+00  0.00000000000000000E+00
  0.00000000000000000E+00  0.00000000000000000E+00  0.00000000000000000E+00
  0.00000000000000000E+00  0.00000000000000000E+00  0.00000000000000000E+00
  0.00000000000000000E+00  0.00000000000000000E+00  0.00000000000000000E+00
  0.00000000000000000E+00  0.00000000000000000E+00  0.00000000000000000E+00
  0.00000000000000000E+00  0.00000000000000000E+00  0.00000000000000000E+00
  0.00000000000000000E+00  0.00000000000000000E+00  0.00000000000000000E+00
  0.00000000000000000E+00  0.00000000000000000E+00  0.00000000000000000E+00
  0.00000000000000000E+00  0.00000000000000000E+00  0.00000000000000000E+00
  0.00000000000000000E+00  0.00000000000000000E+00  0.00000000000000000E+00
  0.00000000000000000E+00  0.00000000000000000E+00  0.00000000000000000E+00
  0.00000000000000000E+00  0.00000000000000000E+00  0.00000000000000000E+00
  0.00000000000000000E+00  0.00000000000000000E+00  0.00000000000000000E+00
  0.00000000000000000E+00  0.00000000000000000E+00  0.00000000000000000E+00
  0.00000000000000000E+00  0.00000000000000000E+00  0.00000000000000000E+00
  0.00000000000000000E+00  0.00000000000000000E+00  0.00000000000000000E+00
  0.00000000000000000E+00  0.00000000000000000E+00  0.00000000000000000E+00
  0.00000000000000000E+00  0.00000000000000000E+00  0.00000000000000000E+00
  0.00000000000000000E+00  0.00000000000000000E+00  0.00000000000000000E+00
  0.00000000000000000E+00  0.00000000000000000E+00  0.00000000000000000E+00
  0.00000000000000000E+00  0.00000000000000000E+00  0.00000000000000000E+00
  0.00000000000000000E+00  0.00000000000000000E+00  0.00000000000000000E+00
  0.00000000000000000E+00  0.00000000000000000E+00  0.00000000000000000E+00
  0.00000000000000000E+00  0.00000000000000000E+00  0.00000000000000000E+00
  0.00000000000000000E+00  0.00000000000000000E+00  0.00000000000000000E+00
  0.00000000000000000E+00  0.00000000000000000E+00  0.00000000000000000E+00
  0.00000000000000000E+00  0.00000000000000000E+00  0.00000000000000000E+00
  0.00000000000000000E+00  0.00000000000000000E+00  0.00000000000000000E+00
  0.00000000000000000E+00  0.00000000000000000E+00  0.00000000000000000E+00
  0.00000000000000000E+00  0.00000000000000000E+00  0.00000000000000000E+00
  0.00000000000000000E+00  0.00000000000000000E+00  0.00000000000000000E+00
  0.00000000000000000E+00  0.00000000000000000E+00  0.00000000000000000E+00
  0.00000000000000000E+00  0.00000000000000000E+00  0.00000000000000000E+00
  0.00000000000000000E+00  0.00000000000000000E+00  0.00000000000000000E+00
  0.00000000000000000E+00  0.00000000000000000E+00  0.00000000000000000E+00
  0.00000000000000000E+00  0.00000000000000000E+00  0.00000000000000000E+00
  0.00000000000000000E+00  0.00000000000000000E+00  0.00000000000000000E+00
  0.00000000000000000E+00  0.00000000000000000E+00  0.00000000000000000E+00
  0.00000000000000000E+00  0.00000000000000000E+00  0.00000000000000000E+00
  0.00000000000000000E+00  0.00000000000000000E+00  0.00000000000000000E+00
  0.00000000000000000E+00  0.00000000000000000E+00  0.00000000000000000E+00
  0.00000000000000000E+00  0.00000000000000000E+00  0.00000000000000000E+00
  0.00000000000000000E+00  0.00000000000000000E+00  0.00000000000000000E+00
  0.00000000000000000E+00  0.00000000000000000E+00  0.00000000000000000E+00
  0.00000000000000000E+00  0.00000000000000000E+00  0.00000000000000000E+00
  0.00000000000000000E+00  0.00000000000000000E+00  0.00000000000000000E+00
  0.00000000000000000E+00  0.00000000000000000E+00  0.00000000000000000E+00
  0.00000000000000000E+00  0.00000000000000000E+00  0.00000000000000000E+00
  0.00000000000000000E+00  0.00000000000000000E+00  0.00000000000000000E+00
  0.00000000000000000E+00  0.00000000000000000E+00  0.00000000000000000E+00
  0.00000000000000000E+00  0.00000000000000000E+00  0.00000000000000000E+00
  0.00000000000000000E+00  0.00000000000000000E+00  0.00000000000000000E+00
  0.00000000000000000E+00  0.00000000000000000E+00  0.00000000000000000E+00
  0.00000000000000000E+00  0.00000000000000000E+00  0.00000000000000000E+00
  0.00000000000000000E+00  0.00000000000000000E+00  0.00000000000000000E+00
  0.00000000000000000E+00  0.00000000000000000E+00  0.00000000000000000E+00
  0.00000000000000000E+00  0.00000000000000000E+00  0.00000000000000000E+00
  0.00000000000000000E+00  0.00000000000000000E+00  0.00000000000000000E+00
  0.00000000000000000E+00  0.00000000000000000E+00  0.00000000000000000E+00
  0.00000000000000000E+00  0.00000000000000000E+00  0.00000000000000000E+00
  0.00000000000000000E+00  0.00000000000000000E+00  0.00000000000000000E+00
  0.00000000000000000E+00  0.00000000000000000E+00  0.00000000000000000E+00
  0.00000000000000000E+00  0.00000000000000000E+00  0.00000000000000000E+00
  0.00000000000000000E+00  0.00000000000000000E+00  0.00000000000000000E+00
  0.00000000000000000E+00  0.00000000000000000E+00  0.00000000000000000E+00
  0.00000000000000000E+00  0.00000000000000000E+00  0.00000000000000000E+00
  0.00000000000000000E+00  0.00000000000000000E+00  0.00000000000000000E+00
  0.00000000000000000E+00  0.00000000000000000E+00  0.00000000000000000E+00
  0.00000000000000000E+00  0.00000000000000000E+00  0.00000000000000000E+00
  0.00000000000000000E+00  0.00000000000000000E+00  0.00000000000000000E+00
  0.00000000000000000E+00  0.00000000000000000E+00  0.00000000000000000E+00
  0.00000000000000000E+00  0.00000000000000000E+00  0.00000000000000000E+00
  0.00000000000000000E+00  0.00000000000000000E+00  0.00000000000000000E+00
  0.00000000000000000E+00  0.00000000000000000E+00  0.00000000000000000E+00
  0.00000000000000000E+00  0.00000000000000000E+00  0.00000000000000000E+00
  0.00000000000000000E+00  0.00000000000000000E+00  0.00000000000000000E+00
  0.00000000000000000E+00  0.00000000000000000E+00  0.00000000000000000E+00
  0.00000000000000000E+00  0.00000000000000000E+00  0.00000000000000000E+00
  0.00000000000000000E+00  0.00000000000000000E+00  0.00000000000000000E+00
  0.00000000000000000E+00  0.00000000000000000E+00  0.00000000000000000E+00
  0.00000000000000000E+00  0.00000000000000000E+00  0.00000000000000000E+00
  0.00000000000000000E+00  0.00000000000000000E+00  0.00000000000000000E+00
  0.00000000000000000E+00  0.00000000000000000E+00  0.00000000000000000E+00
  0.00000000000000000E+00  0.00000000000000000E+00  0.00000000000000000E+00
  0.00000000000000000E+00  0.00000000000000000E+00  0.00000000000000000E+00
  0.00000000000000000E+00  0.00000000000000000E+00  0.00000000000000000E+00
  0.00000000000000000E+00  0.00000000000000000E+00  0.00000000000000000E+00
  0.00000000000000000E+00  0.00000000000000000E+00  0.00000000000000000E+00
  0.00000000000000000E+00  0.00000000000000000E+00  0.00000000000000000E+00
  0.00000000000000000E+00  0.00000000000000000E+00  0.00000000000000000E+00
  0.00000000000000000E+00  0.00000000000000000E+00  0.00000000000000000E+00
  0.00000000000000000E+00  0.00000000000000000E+00  0.00000000000000000E+00
  0.00000000000000000E+00  0.00000000000000000E+00  0.00000000000000000E+00
  0.00000000000000000E+00  0.00000000000000000E+00  0.00000000000000000E+00
  0.00000000000000000E+00  0.00000000000000000E+00  0.00000000000000000E+00
  0.00000000000000000E+00  0.00000000000000000E+00  0.00000000000000000E+00
  0.00000000000000000E+00  0.00000000000000000E+00  0.00000000000000000E+00
  0.00000000000000000E+00  0.00000000000000000E+00  0.00000000000000000E+00
  0.00000000000000000E+00  0.00000000000000000E+00  0.00000000000000000E+00
  0.00000000000000000E+00  0.00000000000000000E+00  0.00000000000000000E+00
  0.00000000000000000E+00  0.00000000000000000E+00  0.00000000000000000E+00
  0.00000000000000000E+00  0.00000000000000000E+00  0.00000000000000000E+00
  0.00000000000000000E+00  0.00000000000000000E+00  0.00000000000000000E+00
  0.00000000000000000E+00  0.00000000000000000E+00  0.00000000000000000E+00
  0.00000000000000000E+00  0.00000000000000000E+00  0.00000000000000000E+00
  0.00000000000000000E+00  0.00000000000000000E+00  0.00000000000000000E+00
  0.00000000000000000E+00  0.00000000000000000E+00  0.00000000000000000E+00
  0.00000000000000000E+00  0.00000000000000000E+00  0.00000000000000000E+00
  0.00000000000000000E+00  0.00000000000000000E+00  0.00000000000000000E+00
  0.00000000000000000E+00  0.00000000000000000E+00  0.00000000000000000E+00
  0.00000000000000000E+00  0.00000000000000000E+00  0.00000000000000000E+00
  0.00000000000000000E+00  0.00000000000000000E+00  0.00000000000000000E+00
  0.00000000000000000E+00  0.00000000000000000E+00  0.00000000000000000E+00
  0.00000000000000000E+00  0.00000000000000000E+00  0.00000000000000000E+00
  0.00000000000000000E+00  0.00000000000000000E+00  0.00000000000000000E+00
  0.00000000000000000E+00  0.00000000000000000E+00  0.00000000000000000E+00
  0.00000000000000000E+00  0.00000000000000000E+00  0.00000000000000000E+00
  0.00000000000000000E+00  0.00000000000000000E+00  0.00000000000000000E+00
  0.00000000000000000E+00  0.00000000000000000E+00  0.00000000000000000E+00
  0.00000000000000000E+00  0.00000000000000000E+00  0.00000000000000000E+00
  0.00000000000000000E+00  0.00000000000000000E+00  0.00000000000000000E+00
  0.00000000000000000E+00  0.00000000000000000E+00  0.00000000000000000E+00
  0.00000000000000000E+00  0.00000000000000000E+00  0.00000000000000000E+00
  0.00000000000000000E+00  0.00000000000000000E+00  0.00000000000000000E+00
  0.00000000000000000E+00  0.00000000000000000E+00  0.00000000000000000E+00
  0.00000000000000000E+00  0.00000000000000000E+00  0.00000000000000000E+00
  0.00000000000000000E+00  0.00000000000000000E+00  0.00000000000000000E+00
  0.00000000000000000E+00  0.00000000000000000E+00  0.00000000000000000E+00
  0.00000000000000000E+00  0.00000000000000000E+00  0.00000000000000000E+00
  0.00000000000000000E+00  0.00000000000000000E+00  0.00000000000000000E+00
  0.00000000000000000E+00  0.00000000000000000E+00  0.00000000000000000E+00
  0.00000000000000000E+00  0.00000000000000000E+00  0.00000000000000000E+00
  0.00000000000000000E+00  0.00000000000000000E+00  0.00000000000000000E+00
  0.00000000000000000E+00  0.00000000000000000E+00  0.00000000000000000E+00
  0.00000000000000000E+00  0.00000000000000000E+00  0.00000000000000000E+00
  0.00000000000000000E+00  0.00000000000000000E+00  0.00000000000000000E+00
  0.00000000000000000E+00  0.00000000000000000E+00  0.00000000000000000E+00
  0.00000000000000000E+00  0.00000000000000000E+00  0.00000000000000000E+00
  0.00000000000000000E+00  0.00000000000000000E+00  0.00000000000000000E+00
  0.00000000000000000E+00  0.00000000000000000E+00  0.00000000000000000E+00
  0.00000000000000000E+00  0.00000000000000000E+00  0.00000000000000000E+00
  0.00000000000000000E+00  0.00000000000000000E+00  0.00000000000000000E+00
  0.00000000000000000E+00  0.00000000000000000E+00  0.00000000000000000E+00
  0.00000000000000000E+00  0.00000000000000000E+00  0.00000000000000000E+00
  0.00000000000000000E+00  0.00000000000000000E+00  0.00000000000000000E+00
  0.00000000000000000E+00  0.00000000000000000E+00  0.00000000000000000E+00
  0.00000000000000000E+00  0.00000000000000000E+00  0.00000000000000000E+00
  0.00000000000000000E+00  0.00000000000000000E+00  0.00000000000000000E+00
  0.00000000000000000E+00  0.00000000000000000E+00  0.00000000000000000E+00
  0.00000000000000000E+00  0.00000000000000000E+00  0.00000000000000000E+00
  0.00000000000000000E+00  0.00000000000000000E+00  0.00000000000000000E+00
  0.00000000000000000E+00  0.00000000000000000E+00  0.00000000000000000E+00
  0.00000000000000000E+00  0.00000000000000000E+00  0.00000000000000000E+00
  0.00000000000000000E+00  0.00000000000000000E+00  0.00000000000000000E+00
  0.00000000000000000E+00  0.00000000000000000E+00  0.00000000000000000E+00
  0.00000000000000000E+00  0.00000000000000000E+00  0.00000000000000000E+00
  0.00000000000000000E+00  0.00000000000000000E+00  0.00000000000000000E+00
  0.00000000000000000E+00  0.00000000000000000E+00  0.00000000000000000E+00
  0.00000000000000000E+00  0.00000000000000000E+00  0.00000000000000000E+00
  0.00000000000000000E+00  0.00000000000000000E+00  0.00000000000000000E+00
  0.00000000000000000E+00  0.00000000000000000E+00  0.00000000000000000E+00
  0.00000000000000000E+00  0.00000000000000000E+00  0.00000000000000000E+00
  0.00000000000000000E+00  0.00000000000000000E+00  0.00000000000000000E+00
  0.00000000000000000E+00  0.00000000000000000E+00  0.00000000000000000E+00
  0.00000000000000000E+00  0.00000000000000000E+00  0.00000000000000000E+00
  0.00000000000000000E+00  0.00000000000000000E+00  0.00000000000000000E+00
  0.00000000000000000E+00  0.00000000000000000E+00  0.00000000000000000E+00
  0.00000000000000000E+00  0.00000000000000000E+00  0.00000000000000000E+00
  0.00000000000000000E+00  0.00000000000000000E+00  0.00000000000000000E+00
  0.00000000000000000E+00  0.00000000000000000E+00  0.00000000000000000E+00
  0.00000000000000000E+00  0.00000000000000000E+00  0.00000000000000000E+00
  0.00000000000000000E+00  0.00000000000000000E+00  0.00000000000000000E+00
  0.00000000000000000E+00  0.00000000000000000E+00  0.00000000000000000E+00
  0.00000000000000000E+00  0.00000000000000000E+00  0.00000000000000000E+00
  0.00000000000000000E+00  0.00000000000000000E+00  0.00000000000000000E+00
  0.00000000000000000E+00  0.00000000000000000E+00  0.00000000000000000E+00
  0.00000000000000000E+00  0.00000000000000000E+00  0.00000000000000000E+00
  0.00000000000000000E+00  0.00000000000000000E+00  0.00000000000000000E+00
  0.00000000000000000E+00  0.00000000000000000E+00  0.00000000000000000E+00
  0.00000000000000000E+00  0.00000000000000000E+00  0.00000000000000000E+00
  0.00000000000000000E+00  0.00000000000000000E+00  0.00000000000000000E+00
  0.00000000000000000E+00  0.00000000000000000E+00  0.00000000000000000E+00
  0.00000000000000000E+00  0.00000000000000000E+00  0.00000000000000000E+00
  0.00000000000000000E+00  0.00000000000000000E+00  0.00000000000000000E+00
  0.00000000000000000E+00  0.00000000000000000E+00  0.00000000000000000E+00
  0.00000000000000000E+00  0.00000000000000000E+00  0.00000000000000000E+00
  0.00000000000000000E+00  0.00000000000000000E+00  0.00000000000000000E+00
  0.00000000000000000E+00  0.00000000000000000E+00  0.00000000000000000E+00
  0.00000000000000000E+00  0.00000000000000000E+00  0.00000000000000000E+00
  0.00000000000000000E+00  0.00000000000000000E+00  0.00000000000000000E+00
  0.00000000000000000E+00  0.00000000000000000E+00  0.00000000000000000E+00
  0.00000000000000000E+00  0.00000000000000000E+00  0.00000000000000000E+00
  0.00000000000000000E+00  0.00000000000000000E+00  0.00000000000000000E+00
  0.00000000000000000E+00  0.00000000000000000E+00  0.00000000000000000E+00
  0.00000000000000000E+00  0.00000000000000000E+00  0.00000000000000000E+00
  0.00000000000000000E+00  0.00000000000000000E+00  0.00000000000000000E+00
  0.00000000000000000E+00  0.00000000000000000E+00  0.00000000000000000E+00
  0.00000000000000000E+00  0.00000000000000000E+00  0.00000000000000000E+00
  0.00000000000000000E+00  0.00000000000000000E+00  0.00000000000000000E+00
  0.00000000000000000E+00  0.00000000000000000E+00  0.00000000000000000E+00
  0.00000000000000000E+00  0.00000000000000000E+00  0.00000000000000000E+00
  0.00000000000000000E+00  0.00000000000000000E+00  0.00000000000000000E+00
  0.00000000000000000E+00  0.00000000000000000E+00  0.00000000000000000E+00
  0.00000000000000000E+00  0.00000000000000000E+00  0.00000000000000000E+00
  0.00000000000000000E+00  0.00000000000000000E+00  0.00000000000000000E+00
  0.00000000000000000E+00  0.00000000000000000E+00
                             </PP_NLCC> 
 <PP_LOCAL type="real" size="   833" columns="3">
 -7.68913947235916506E+00 -7.68913946083659550E+00 -7.68913944902232949E+00
 -7.68913943690898272E+00 -7.68913942448898435E+00 -7.68913941175457172E+00
 -7.68913939869778673E+00 -7.68913938531046703E+00 -7.68913937158424599E+00
 -7.68913935751054289E+00 -7.68913934308056124E+00 -7.68913932828528157E+00
 -7.68913931311545618E+00 -7.68913929756160197E+00 -7.68913928161400140E+00
 -7.68913926526268554E+00 -7.68913924849743591E+00 -7.68913923130777022E+00
 -7.68913921368294329E+00 -7.68913919561193993E+00 -7.68913917708346339E+00
 -7.68913915808593629E+00 -7.68913913860748366E+00 -7.68913911863593125E+00
 -7.68913909815879482E+00 -7.68913907716327483E+00 -7.68913905563625022E+00
 -7.68913903356426598E+00 -7.68913901093352337E+00 -7.68913898772987636E+00
 -7.68913896393882546E+00 -7.68913893954550076E+00 -7.68913891453465403E+00
 -7.68913888889065156E+00 -7.68913886259746704E+00 -7.68913883563866474E+00
 -7.68913880799739502E+00 -7.68913877965638104E+00 -7.68913875059790719E+00
 -7.68913872080381022E+00 -7.68913869025546948E+00 -7.68913865893379000E+00
 -7.68913862681919635E+00 -7.68913859389161303E+00 -7.68913856013045827E+00
 -7.68913852551463162E+00 -7.68913849002249883E+00 -7.68913845363187320E+00
 -7.68913841632000850E+00 -7.68913837806358469E+00 -7.68913833883868847E+00
 -7.68913829862080433E+00 -7.68913825738479240E+00 -7.68913821510487949E+00
 -7.68913817175464054E+00 -7.68913812730697810E+00 -7.68913808173410995E+00
 -7.68913803500755044E+00 -7.68913798709809537E+00 -7.68913793797579981E+00
 -7.68913788760995676E+00 -7.68913783596908562E+00 -7.68913778302091266E+00
 -7.68913772873233903E+00 -7.68913767306943097E+00 -7.68913761599740209E+00
 -7.68913755748057426E+00 -7.68913749748237318E+00 -7.68913743596529997E+00
 -7.68913737289089649E+00 -7.68913730821974362E+00 -7.68913724191142034E+00
 -7.68913717392447360E+00 -7.68913710421641206E+00 -7.68913703274366700E+00
 -7.68913695946156217E+00 -7.68913688432429066E+00 -7.68913680728488913E+00
 -7.68913672829520500E+00 -7.68913664730586621E+00 -7.68913656426624836E+00
 -7.68913647912444720E+00 -7.68913639182724129E+00 -7.68913630232006895E+00
 -7.68913621054698915E+00 -7.68913611645062822E+00 -7.68913601997217278E+00
 -7.68913592105131993E+00 -7.68913581962623827E+00 -7.68913571563352871E+00
 -7.68913560900819171E+00 -7.68913549968358190E+00 -7.68913538759136106E+00
 -7.68913527266146346E+00 -7.68913515482205590E+00 -7.68913503399948173E+00
 -7.68913491011821382E+00 -7.68913478310081810E+00 -7.68913465286790476E+00
 -7.68913451933806602E+00 -7.68913438242783798E+00 -7.68913424205164198E+00
 -7.68913409812173221E+00 -7.68913395054814153E+00 -7.68913379923862994E+00
 -7.68913364409861533E+00 -7.68913348503112282E+00 -7.68913332193672616E+00
 -7.68913315471347758E+00 -7.68913298325685002E+00 -7.68913280745966787E+00
 -7.68913262721204926E+00 -7.68913244240131721E+00 -7.68913225291195523E+00
 -7.68913205862551763E+00 -7.68913185942055399E+00 -7.68913165517254615E+00
 -7.68913144575382113E+00 -7.68913123103347207E+00 -7.68913101087728368E+00
 -7.68913078514763537E+00 -7.68913055370342846E+00 -7.68913031639998223E+00
 -7.68913007308896557E+00 -7.68912982361828057E+00 -7.68912956783199153E+00
 -7.68912930557019614E+00 -7.68912903666895886E+00 -7.68912876096019104E+00
 -7.68912847827154167E+00 -7.68912818842630141E+00 -7.68912789124328633E+00
 -7.68912758653671968E+00 -7.68912727411612629E+00 -7.68912695378621169E+00
 -7.68912662534672631E+00 -7.68912628859235969E+00 -7.68912594331259580E+00
 -7.68912558929159484E+00 -7.68912522630804673E+00 -7.68912485413504498E+00
 -7.68912447253992326E+00 -7.68912408128413905E+00 -7.68912368012309866E+00
 -7.68912326880603203E+00 -7.68912284707579818E+00 -7.68912241466875734E+00
 -7.68912197131458885E+00 -7.68912151673613398E+00 -7.68912105064920759E+00
 -7.68912057276243566E+00 -7.68912008277705716E+00 -7.68911958038675625E+00
 -7.68911906527745437E+00 -7.68911853712711846E+00 -7.68911799560556464E+00
 -7.68911744037425304E+00 -7.68911687108605246E+00 -7.68911628738506003E+00
 -7.68911568890634722E+00 -7.68911507527575555E+00 -7.68911444610964434E+00
 -7.68911380101465713E+00 -7.68911313958747833E+00 -7.68911246141458093E+00
 -7.68911176607195657E+00 -7.68911105312487031E+00 -7.68911032212756940E+00
 -7.68910957262301409E+00 -7.68910880414258813E+00 -7.68910801620581008E+00
 -7.68910720832002781E+00 -7.68910637998011470E+00 -7.68910553066814639E+00
 -7.68910465985308811E+00 -7.68910376699044473E+00 -7.68910285152194017E+00
 -7.68910191287515410E+00 -7.68910095046315334E+00 -7.68909996368417037E+00
 -7.68909895192116366E+00 -7.68909791454148372E+00 -7.68909685089643968E+00
 -7.68909576032092623E+00 -7.68909464213297955E+00 -7.68909349563335898E+00
 -7.68909232010511534E+00 -7.68909111481313534E+00 -7.68908987900368945E+00
 -7.68908861190394877E+00 -7.68908731272150270E+00 -7.68908598064387316E+00
 -7.68908461483800121E+00 -7.68908321444970611E+00 -7.68908177860318531E+00
 -7.68908030640043449E+00 -7.68907879692070217E+00 -7.68907724921990976E+00
 -7.68907566233005912E+00 -7.68907403525861177E+00 -7.68907236698789820E+00
 -7.68907065647444732E+00 -7.68906890264835763E+00 -7.68906710441260977E+00
 -7.68906526064238705E+00 -7.68906337018436581E+00 -7.68906143185600133E+00
 -7.68905944444476930E+00 -7.68905740670742599E+00 -7.68905531736920800E+00
 -7.68905317512305242E+00 -7.68905097862876286E+00 -7.68904872651216831E+00
 -7.68904641736428029E+00 -7.68904404974037625E+00 -7.68904162215913001E+00
 -7.68903913310165077E+00 -7.68903658101054610E+00 -7.68903396428894670E+00
 -7.68903128129948588E+00 -7.68902853036329414E+00 -7.68902570975892985E+00
 -7.68902281772130536E+00 -7.68901985244057595E+00 -7.68901681206100296E+00
 -7.68901369467978579E+00 -7.68901049834588068E+00 -7.68900722105875012E+00
 -7.68900386076712294E+00 -7.68900041536769763E+00 -7.68899688270383930E+00
 -7.68899326056418353E+00 -7.68898954668128454E+00 -7.68898573873017455E+00
 -7.68898183432690097E+00 -7.68897783102702803E+00 -7.68897372632409315E+00
 -7.68896951764804104E+00 -7.68896520236359660E+00 -7.68896077776861553E+00
 -7.68895624109237197E+00 -7.68895158949381674E+00 -7.68894682005978503E+00
 -7.68894192980318358E+00 -7.68893691566107051E+00 -7.68893177449275989E+00
 -7.68892650307781533E+00 -7.68892109811404723E+00 -7.68891555621540057E+00
 -7.68890987390984026E+00 -7.68890404763714574E+00 -7.68889807374669054E+00
 -7.68889194849509305E+00 -7.68888566804389928E+00 -7.68887922845713856E+00
 -7.68887262569882601E+00 -7.68886585563042857E+00 -7.68885891400825017E+00
 -7.68885179648073347E+00 -7.68884449858573582E+00 -7.68883701574766754E+00
 -7.68882934327463285E+00 -7.68882147635543678E+00 -7.68881341005655283E+00
 -7.68880513931898513E+00 -7.68879665895508158E+00 -7.68878796364522454E+00
 -7.68877904793447708E+00 -7.68876990622910927E+00 -7.68876053279306060E+00
 -7.68875092174428598E+00 -7.68874106705103966E+00 -7.68873096252802046E+00
 -7.68872060183246386E+00 -7.68870997846009185E+00 -7.68869908574099270E+00
 -7.68868791683536124E+00 -7.68867646472915389E+00 -7.68866472222963182E+00
 -7.68865268196074325E+00 -7.68864033635847655E+00 -7.68862767766598676E+00
 -7.68861469792866092E+00 -7.68860138898905987E+00 -7.68858774248168153E+00
 -7.68857374982763098E+00 -7.68855940222913148E+00 -7.68854469066388457E+00
 -7.68852960587932266E+00 -7.68851413838664755E+00 -7.68849827845477307E+00
 -7.68848201610407767E+00 -7.68846534110000324E+00 -7.68844824294648177E+00
 -7.68843071087917895E+00 -7.68841273385860280E+00 -7.68839430056296180E+00
 -7.68837539938091297E+00 -7.68835601840405225E+00 -7.68833614541924693E+00
 -7.68831576790075122E+00 -7.68829487300211945E+00 -7.68827344754790865E+00
 -7.68825147802513698E+00 -7.68822895057456002E+00 -7.68820585098165843E+00
 -7.68818216466744886E+00 -7.68815787667901329E+00 -7.68813297167975929E+00
 -7.68810743393948570E+00 -7.68808124732410736E+00 -7.68805439528516654E+00
 -7.68802686084901943E+00 -7.68799862660577382E+00 -7.68796967469788584E+00
 -7.68793998680848834E+00 -7.68790954414938899E+00 -7.68787832744874944E+00
 -7.68784631693843323E+00 -7.68781349234100642E+00 -7.68777983285639177E+00
 -7.68774531714816955E+00 -7.68770992332948477E+00 -7.68767362894860096E+00
 -7.68763641097404005E+00 -7.68759824577933237E+00 -7.68755910912732165E+00
 -7.68751897615410140E+00 -7.68747782135243529E+00 -7.68743561855478408E+00
 -7.68739234091583956E+00 -7.68734796089458960E+00 -7.68730245023586534E+00
 -7.68725577995141585E+00 -7.68720792030043132E+00 -7.68715884076954747E+00
 -7.68710851005225848E+00 -7.68705689602781028E+00 -7.68700396573946332E+00
 -7.68694968537217438E+00 -7.68689402022962831E+00 -7.68683693471066665E+00
 -7.68677839228499504E+00 -7.68671835546826632E+00 -7.68665678579642364E+00
 -7.68659364379932697E+00 -7.68652888897364406E+00 -7.68646247975496077E+00
 -7.68639437348908139E+00 -7.68632452640253838E+00 -7.68625289357225228E+00
 -7.68617942889429884E+00 -7.68610408505181297E+00 -7.68602681348192895E+00
 -7.68594756434180493E+00 -7.68586628647362602E+00 -7.68578292736862334E+00
 -7.68569743313000941E+00 -7.68560974843486910E+00 -7.68551981649491989E+00
 -7.68542757901608553E+00 -7.68533297615694622E+00 -7.68523594648590347E+00
 -7.68513642693708654E+00 -7.68503435276499758E+00 -7.68492965749772772E+00
 -7.68482227288884268E+00 -7.68471212886777089E+00 -7.68459915348875011E+00
 -7.68448327287820376E+00 -7.68436441118053004E+00 -7.68424249050224617E+00
 -7.68411743085444066E+00 -7.68398915009346073E+00 -7.68385756385977725E+00
 -7.68372258551496579E+00 -7.68358412607679053E+00 -7.68344209415219837E+00
 -7.68329639586830737E+00 -7.68314693480120425E+00 -7.68299361190253283E+00
 -7.68283632542375106E+00 -7.68267497083806195E+00 -7.68250944075983000E+00
 -7.68233962486143085E+00 -7.68216540978753049E+00 -7.68198667906655697E+00
 -7.68180331301936281E+00 -7.68161518866494752E+00 -7.68142217962317009E+00
 -7.68122415601425068E+00 -7.68102098435504832E+00 -7.68081252745199539E+00
 -7.68059864429042971E+00 -7.68037918992036150E+00 -7.68015401533850195E+00
 -7.67992296736631896E+00 -7.67968588852406508E+00 -7.67944261690066998E+00
 -7.67919298601921163E+00 -7.67893682469786931E+00 -7.67867395690628740E+00
 -7.67840420161698844E+00 -7.67812737265174938E+00 -7.67784327852285386E+00
 -7.67755172226881299E+00 -7.67725250128446479E+00 -7.67694540714531204E+00
 -7.67663022542573703E+00 -7.67630673551084808E+00 -7.67597471040196755E+00
 -7.67563391651519922E+00 -7.67528411347290618E+00 -7.67492505388805757E+00
 -7.67455648314079397E+00 -7.67417813914711111E+00 -7.67378975211950731E+00
 -7.67339104431891084E+00 -7.67298172979779025E+00 -7.67256151413425158E+00
 -7.67213009415631575E+00 -7.67168715765637454E+00 -7.67123238309548672E+00
 -7.67076543929661359E+00 -7.67028598512694515E+00 -7.66979366916872163E+00
 -7.66928812937763471E+00 -7.66876899272910073E+00 -7.66823587485141278E+00
 -7.66768837964511363E+00 -7.66712609888868712E+00 -7.66654861182946679E+00
 -7.66595548475908384E+00 -7.66534627057365014E+00 -7.66472050831709062E+00
 -7.66407772270736309E+00 -7.66341742364539691E+00 -7.66273910570497119E+00
 -7.66204224760367669E+00 -7.66132631165419031E+00 -7.66059074319410982E+00
 -7.65983496999487024E+00 -7.65905840164811735E+00 -7.65826042892819725E+00
 -7.65744042313131423E+00 -7.65659773538892541E+00 -7.65573169595473502E+00
 -7.65484161346541914E+00 -7.65392677417199341E+00 -7.65298644114232562E+00
 -7.65201985343350000E+00 -7.65102622523134102E+00 -7.65000474495815119E+00
 -7.64895457434581605E+00 -7.64787484747260304E+00 -7.64676466976452307E+00
 -7.64562311695705521E+00 -7.64444923401736709E+00 -7.64324203402610625E+00
 -7.64200049701471684E+00 -7.64072356875959979E+00 -7.63941015952992242E+00
 -7.63805914278629761E+00 -7.63666935383182643E+00 -7.63523958841002770E+00
 -7.63376860124963663E+00 -7.63225510455545475E+00 -7.63069776643962161E+00
 -7.62909520929551288E+00 -7.62744600810970574E+00 -7.62574868870897049E+00
 -7.62400172594398828E+00 -7.62220354180275628E+00 -7.62035250345433113E+00
 -7.61844692122114076E+00 -7.61648504647344815E+00 -7.61446506944899326E+00
 -7.61238511699128395E+00 -7.61024325020433423E+00 -7.60803746202496622E+00
 -7.60576567470426035E+00 -7.60342573720052251E+00 -7.60101542247959561E+00
 -7.59853242471699453E+00 -7.59597435640516760E+00 -7.59333874535721609E+00
 -7.59062303160749341E+00 -7.58782456420777240E+00 -7.58494059791146658E+00
 -7.58196828974955395E+00 -7.57890469549127044E+00 -7.57574676598783103E+00
 -7.57249134340008467E+00 -7.56913515730269548E+00 -7.56567482066748820E+00
 -7.56210682572182691E+00 -7.55842753967942294E+00 -7.55463320034517061E+00
 -7.55071991158917655E+00 -7.54668363869138670E+00 -7.54252020355521147E+00
 -7.53822527978971912E+00 -7.53379438766049603E+00 -7.52922288890970126E+00
 -7.52450598144653515E+00 -7.51963869390740580E+00 -7.51461588009254466E+00
 -7.50943221327496335E+00 -7.50408218039072938E+00 -7.49856007611391462E+00
 -7.49285999681393555E+00 -7.48697583441565229E+00 -7.48090127015167194E+00
 -7.47462976822661318E+00 -7.46815456940406985E+00 -7.46146868450767453E+00
 -7.45456488787983051E+00 -7.44743571077800315E+00 -7.44007343474224037E+00
 -7.43247008495913786E+00 -7.42461742360128252E+00 -7.41650694322152404E+00
 -7.40812986016850150E+00 -7.39947710807512937E+00 -7.39053933146941944E+00
 -7.38130687946563135E+00 -7.37176979966881341E+00 -7.36191783223865226E+00
 -7.35174040418964569E+00 -7.34122662401251080E+00 -7.33036527654235393E+00
 -7.31914481828483865E+00 -7.30755337311421016E+00 -7.29557872845723487E+00
 -7.28320833209574925E+00 -7.27042928946637268E+00 -7.25722836177981723E+00
 -7.24359196482129164E+00 -7.22950616860392170E+00 -7.21495669806484852E+00
 -7.19992893461870409E+00 -7.18440791904501808E+00 -7.16837835548512192E+00
 -7.15182461681261117E+00 -7.13473075162456638E+00 -7.11708049258718578E+00
 -7.09885726681871443E+00 -7.08004420794635969E+00 -7.06062417024826505E+00
 -7.04057974516555163E+00 -7.01989327982612377E+00 -6.99854689852488665E+00
 -6.97652252658125338E+00 -6.95380191721288377E+00 -6.93036668169317860E+00
 -6.90619832234748987E+00 -6.88127826963930112E+00 -6.85558792244904591E+00
 -6.82910869252123298E+00 -6.80182205321812194E+00 -6.77370959208550527E+00
 -6.74475306879423275E+00 -6.71493447712351887E+00 -6.68423611242291127E+00
 -6.65264064437523128E+00 -6.62013119460149202E+00 -6.58669142090642890E+00
 -6.55230560628488234E+00 -6.51695875468898667E+00 -6.48063669279575016E+00
 -6.44332617748909620E+00 -6.40501501086911240E+00 -6.36569216031301366E+00
 -6.32534788614597598E+00 -6.28397387526219919E+00 -6.24156338074360573E+00
 -6.19811136888071168E+00 -6.15361467059893563E+00 -6.10807214015661870E+00
 -6.06148481828240282E+00 -6.01385610020459183E+00 -5.96519190895108942E+00
 -5.91550087061724916E+00 -5.86479449413219722E+00 -5.81308735144446320E+00
 -5.76039725873995323E+00 -5.70674545736748851E+00 -5.65215679112944613E+00
 -5.59665988099017664E+00 -5.54028729221906602E+00 -5.48307569381482462E+00
 -5.42506600680587425E+00 -5.36630353807302374E+00 -5.30683809772174353E+00
 -5.24672409507772208E+00 -5.18602061036922990E+00 -5.12479143720871200E+00
 -5.06310509172872614E+00 -5.00103478204263130E+00 -4.93865833470770355E+00
 -4.87605806931173547E+00 -4.81332061737341821E+00 -4.75053667830203175E+00
 -4.68780070226751455E+00 -4.62521049988650024E+00 -4.56286676080909093E+00
 -4.50087248413148622E+00 -4.43933230633706177E+00 -4.37835171826574943E+00
 -4.31803617543009821E+00 -4.25849007546702740E+00 -4.19981562230430594E+00
 -4.14211155288455313E+00 -4.08547173466907321E+00 -4.02998364458916036E+00
 -3.97572670802212969E+00 -3.92277054934960168E+00 -3.87117312862105445E+00
 -3.82097881951339957E+00 -3.77221645622092172E+00 -3.72489737291603795E+00
 -3.67901354336218800E+00 -3.63453583844992112E+00 -3.59141255331147180E+00
 -3.54956829465003398E+00 -3.50890338103505384E+00 -3.46929397006635298E+00
 -3.43059309601585483E+00 -3.39263293669983712E+00 -3.35522861019832463E+00
 -3.31818391700390558E+00 -3.28129948319122411E+00 -3.24438390903259410E+00
 -3.20726851426773818E+00 -3.16982657126348366E+00 -3.13199787822661113E+00
 -3.09382020333402430E+00 -3.05549518533921516E+00 -3.01753878948477405E+00
 -2.98005435690732368E+00 -2.94303552884706976E+00 -2.90647655422215356E+00
 -2.87037172272603547E+00 -2.83471539242183379E+00 -2.79950199232636399E+00
 -2.76472602006668078E+00 -2.73038204180440713E+00 -2.69646469146166634E+00
 -2.66296866898831697E+00 -2.62988874098849212E+00 -2.59721973832760433E+00
 -2.56495655655988353E+00 -2.53309415456319176E+00 -2.50162755350822863E+00
 -2.47055183705045911E+00 -2.43986214916273481E+00 -2.40955369480346926E+00
 -2.37962173811462829E+00 -2.35006160206586401E+00 -2.32086866809284809E+00
 -2.29203837437495306E+00 -2.26356621647214062E+00 -2.23544774531947699E+00
 -2.20767856741044000E+00 -2.18025434387695327E+00 -2.15317078935266348E+00
 -2.12642367231774232E+00 -2.10000881317199806E+00 -2.07392208473726525E+00
 -2.04815941088033560E+00 -2.02271676598923511E+00 -1.99759017486431634E+00
 -1.97277571110417838E+00 -1.94826949768035185E+00 -1.92406770528815274E+00
 -1.90016655235204990E+00 -1.87656230441663219E+00 -1.85325127300596271E+00
 -1.83022981602146007E+00 -1.80749433606872767E+00 -1.78504128081593127E+00
 -1.76286714194281746E+00 -1.74096845453806126E+00 -1.71934179713532487E+00
 -1.69798379025150137E+00 -1.67689109687767046E+00 -1.65606042113121421E+00
 -1.63548850814624203E+00 -1.61517214367427009E+00 -1.59510815300041653E+00
 -1.57529340133995888E+00 -1.55572479240400607E+00 -1.53639926864592491E+00
 -1.51731381045331437E+00 -1.49846543552760436E+00 -1.47985119899600348E+00
 -1.46146819211466727E+00 -1.44331354267794909E+00 -1.42538441391465387E+00
 -1.40767800431367296E+00 -1.39019154736228434E+00 -1.37292231055097802E+00
 -1.35586759574228388E+00 -1.33902473794839239E+00 -1.32239110549671901E+00
 -1.30596409940003877E+00 -1.28974115275705081E+00 -1.27371973089773705E+00
 -1.25789733024718986E+00 -1.24227147866409982E+00 -1.22683973453089301E+00
 -1.21159968655072325E+00 -1.19654895357386670E+00 -1.18168518370426878E+00
 -1.16700605463028895E+00 -1.15250927258433689E+00 -1.13819257245345207E+00
 -1.12405371727918979E+00 -1.11009049770149315E+00 -1.09630073211239942E+00
 -1.08268226566814740E+00 -1.06923297056984512E+00 -1.05595074530642230E+00
 -1.04283351444719163E+00 -1.02987922852316660E+00 -1.01708586323718131E+00
 -1.00445141975470942E+00 -9.91973923817050074E-01 -9.79651425816701060E-01
 -9.67482000391733710E-01 -9.55463745924162833E-01 -9.43594784687913801E-01
 -9.31873261993760416E-01 -9.20297346424086338E-01 -9.08865229196362256E-01
 -8.97575123966393051E-01 -8.86425266742759121E-01 -8.75413915196131764E-01
 -8.64539348912289007E-01 -8.53799868633867143E-01 -8.43193796314709143E-01
 -8.32719474783436775E-01 -8.22375267300312962E-01 -8.12159557692080813E-01
 -8.02070749613916223E-01 -7.92107266748135364E-01 -7.82267552263339883E-01
 -7.72550068636922327E-01 -7.62953297588585766E-01 -7.53475739481359374E-01
 -7.44115913540434826E-01 -7.34872357202498105E-01 -7.25743626158643518E-01
 -7.16728294069220673E-01 -7.07824952178694233E-01 -6.99032209434007568E-01
 -6.90348691848670315E-01 -6.81773042673068597E-01 -6.73303921930370142E-01
 -6.64940006262357275E-01 -6.56679988873175247E-01 -6.48522579013303124E-01
 -6.40466502168088425E-01 -6.32510499497470402E-01 -6.24653327873528563E-01
 -6.16893759634014494E-01 -6.09230582252090813E-01 -6.01662598437219032E-01
 -5.94188625587992569E-01 -5.86807495939784873E-01 -5.79518056163066619E-01
 -5.72319167233685033E-01 -5.65209704381443245E-01 -5.58188556648038126E-01
 -5.51254627048965995E-01 -5.44406832089630477E-01 -5.37644101801120100E-01
 -5.30965379523578473E-01 -5.24369621626341709E-01 -5.17855797591648792E-01
 -5.11422889544466241E-01 -5.05069892381657004E-01 -4.98795813421809231E-01
 -4.92599672299226243E-01 -4.86480500914213299E-01 -4.80437343056307142E-01
 -4.74469254542822683E-01 -4.68575302799964344E-01 -4.62754566898702202E-01
 -4.57006137361809173E-01 -4.51329115929263447E-01 -4.45722615625828211E-01
 -4.40185760357636569E-01 -4.34717685025924006E-01 -4.29317535219985946E-01
 -4.23984467133120324E-01 -4.18717647512897972E-01 -4.13516253341673745E-01
 -4.08379471954545936E-01 -4.03306500676281376E-01 -3.98296546857923150E-01
 -3.93348827703246195E-01 -3.88462570074107616E-01 -3.83637010543362800E-01
 -3.78871395049304560E-01 -3.74164978996138986E-01 -3.69517026983738006E-01
 -3.64926812742972617E-01 -3.60393619085385586E-01 -3.55916737633544700E-01
 -3.51495468920963117E-01 -3.47129122076999974E-01 -3.42817014864569336E-01
 -3.38558473522643455E-01 -3.34352832606573447E-01 -3.30199435027958565E-01
 -3.26097631759237339E-01 -3.22046781922384673E-01 -3.18046252550706454E-01
 -3.14095418540720817E-01 -3.10193662600738940E-01 -3.06340375025573486E-01
 -3.02534953779071136E-01 -2.98776804222122327E-01 -2.95065339149668315E-01
 -2.91399978648320013E-01 -2.87780149966093302E-01 -2.84205287541126006E-01
 -2.80674832749562120E-01 -2.77188233984370869E-01 -2.73744946443589876E-01
 -2.70344432097987253E-01 -2.66986159638326170E-01
                             </PP_LOCAL> 
<PP_NONLOCAL> 
 <PP_BETA.1 type="real" size="   833" angular_momentum="0" columns="3" cutoff_radius_index="   639" norm_conserving_radius="    1.303072" label= "1S">
 -2.28122432943982101E-02 -2.30991851902474545E-02 -2.33897363402222683E-02
 -2.36839421419812214E-02 -2.39818485641704812E-02 -2.42835021536041487E-02
 -2.45889500425350328E-02 -2.48982399560167163E-02 -2.52114202193580890E-02
 -2.55285397656717476E-02 -2.58496481435170518E-02 -2.61747955246394159E-02
 -2.65040327118068082E-02 -2.68374111467447052E-02 -2.71749829181708973E-02
 -2.75168007699309984E-02 -2.78629181092364363E-02 -2.82133890150058769E-02
 -2.85682682463114790E-02 -2.89276112509314239E-02 -2.92914741740095824E-02
 -2.96599138668242890E-02 -3.00329878956671521E-02 -3.04107545508333701E-02
 -3.07932728557252441E-02 -3.11806025760698567E-02 -3.15728042292527239E-02
 -3.19699390937683570E-02 -3.23720692187897743E-02 -3.27792574338586148E-02
 -3.31915673586964943E-02 -3.36090634131394964E-02 -3.40318108271976047E-02
 -3.44598756512407567E-02 -3.48933247663128568E-02 -3.53322258945747356E-02
 -3.57766476098787464E-02 -3.62266593484761035E-02 -3.66823314198585840E-02
 -3.71437350177365386E-02 -3.76109422311543887E-02 -3.80840260557462618E-02
 -3.85630604051325557E-02 -3.90481201224595065E-02 -3.95392809920840430E-02
 -4.00366197514051142E-02 -4.05402141028433846E-02 -4.10501427259713364E-02
 -4.15664852897959791E-02 -4.20893224651956860E-02 -4.26187359375126279E-02
 -4.31548084193037126E-02 -4.36976236632514239E-02 -4.42472664752365311E-02
 -4.48038227275750905E-02 -4.53673793724211419E-02 -4.59380244553382749E-02
 -4.65158471290412490E-02 -4.71009376673087246E-02 -4.76933874790721260E-02
 -4.82932891226812849E-02 -4.89007363203478179E-02 -4.95158239727699970E-02
 -5.01386481739412512E-02 -5.07693062261452138E-02 -5.14078966551374597E-02
 -5.20545192255172998E-02 -5.27092749562941623E-02 -5.33722661366477780E-02
 -5.40435963418855400E-02 -5.47233704496010165E-02 -5.54116946560342313E-02
 -5.61086764926368650E-02 -5.68144248428459897E-02 -5.75290499590666443E-02
 -5.82526634798676002E-02 -5.89853784473934051E-02 -5.97273093249932746E-02
 -6.04785720150712025E-02 -6.12392838771598433E-02 -6.20095637462203253E-02
 -6.27895319511722616E-02 -6.35793103336531468E-02 -6.43790222670150292E-02
 -6.51887926755588265E-02 -6.60087480540072352E-02 -6.68390164872233877E-02
 -6.76797276701750217E-02 -6.85310129281486713E-02 -6.93930052372175726E-02
 -7.02658392449641706E-02 -7.11496512914605028E-02 -7.20445794305150100E-02
 -7.29507634511814829E-02 -7.38683448995372388E-02 -7.47974671007342468E-02
 -7.57382751813252125E-02 -7.66909160918682054E-02 -7.76555386298158623E-02
 -7.86322934626853681E-02 -7.96213331515231992E-02 -8.06228121746598581E-02
 -8.16368869517603291E-02 -8.26637158681773065E-02 -8.37034592996054178E-02
 -8.47562796370441157E-02 -8.58223413120727113E-02 -8.69018108224385022E-02
 -8.79948567579641183E-02 -8.91016498267798995E-02 -9.02223628818807355E-02
 -9.13571709480127392E-02 -9.25062512488987326E-02 -9.36697832347980347E-02
 -9.48479486104115005E-02 -9.60409313631328948E-02 -9.72489177916529002E-02
 -9.84720965349189237E-02 -9.97106586014489676E-02 -1.00964797399019854E-01
 -1.02234708764716326E-01 -1.03520590995354239E-01 -1.04822644878286048E-01
 -1.06141073722582704E-01 -1.07476083390606700E-01 -1.08827882329972925E-01
 -1.10196681605909869E-01 -1.11582694934016471E-01 -1.12986138713431175E-01
 -1.14407232060405623E-01 -1.15846196842297300E-01 -1.17303257711981024E-01
 -1.18778642142687463E-01 -1.20272580463270773E-01 -1.21785305893912885E-01
 -1.23317054582268104E-01 -1.24868065640055023E-01 -1.26438581180094628E-01
 -1.28028846353816617E-01 -1.29639109389213775E-01 -1.31269621629274191E-01
 -1.32920637570881711E-01 -1.34592414904196406E-01 -1.36285214552521683E-01
 -1.37999300712652900E-01 -1.39734940895735321E-01 -1.41492405968608431E-01
 -1.43271970195668258E-01 -1.45073911281241669E-01 -1.46898510412470429E-01
 -1.48746052302734688E-01 -1.50616825235594221E-01 -1.52511121109276782E-01
 -1.54429235481704202E-01 -1.56371467616068960E-01 -1.58338120526968773E-01
 -1.60329501027102389E-01 -1.62345919774531444E-01 -1.64387691320521306E-01
 -1.66455134157960205E-01 -1.68548570770369360E-01 -1.70668327681504473E-01
 -1.72814735505563033E-01 -1.74988128997990183E-01 -1.77188847106916014E-01
 -1.79417233025196132E-01 -1.81673634243090409E-01 -1.83958402601576754E-01
 -1.86271894346306255E-01 -1.88614470182206034E-01 -1.90986495328737710E-01
 -1.93388339575823714E-01 -1.95820377340440333E-01 -1.98282987723885668E-01
 -2.00776554569742610E-01 -2.03301466522522817E-01 -2.05858117087017067E-01
 -2.08446904688346035E-01 -2.11068232732734590E-01 -2.13722509668998528E-01
 -2.16410149050767692E-01 -2.19131569599435028E-01 -2.21887195267865489E-01
 -2.24677455304840651E-01 -2.27502784320271406E-01 -2.30363622351174108E-01
 -2.33260414928423199E-01 -2.36193613144285663E-01 -2.39163673720737907E-01
 -2.42171059078590545E-01 -2.45216237407412302E-01 -2.48299682736263655E-01
 -2.51421875005254980E-01 -2.54583300137931900E-01 -2.57784450114496633E-01
 -2.61025823045865524E-01 -2.64307923248587540E-01 -2.67631261320611047E-01
 -2.70996354217927005E-01 -2.74403725332074799E-01 -2.77853904568536203E-01
 -2.81347428426011792E-01 -2.84884840076604917E-01 -2.88466689446889468E-01
 -2.92093533299907171E-01 -2.95765935318077711E-01 -2.99484466187012688E-01
 -3.03249703680311178E-01 -3.07062232745233421E-01 -3.10922645589365332E-01
 -3.14831541768221923E-01 -3.18789528273808853E-01 -3.22797219624145593E-01
 -3.26855237953778410E-01 -3.30964213105252814E-01 -3.35124782721584913E-01
 -3.39337592339725658E-01 -3.43603295485001625E-01 -3.47922553766599973E-01
 -3.52296036974013127E-01 -3.56724423174540339E-01 -3.61208398811780740E-01
 -3.65748658805167604E-01 -3.70345906650522916E-01 -3.75000854521644944E-01
 -3.79714223372942361E-01 -3.84486743043106649E-01 -3.89319152359815124E-01
 -3.94212199245512207E-01 -3.99166640824209440E-01 -4.04183243529374570E-01
 -4.09262783212833825E-01 -4.14406045254783306E-01 -4.19613824674810065E-01
 -4.24886926244008589E-01 -4.30226164598157823E-01 -4.35632364351917933E-01
 -4.41106360214156057E-01 -4.46648997104262979E-01 -4.52261130269573708E-01
 -4.57943625403834043E-01 -4.63697358766704038E-01 -4.69523217304334883E-01
 -4.75422098770966306E-01 -4.81394911851592833E-01 -4.87442576285649520E-01
 -4.93566022991712594E-01 -4.99766194193265012E-01 -5.06044043545423983E-01
 -5.12400536262717199E-01 -5.18836649247824133E-01 -5.25353371221332410E-01
 -5.31951702852423436E-01 -5.38632656890559836E-01 -5.45397258298108922E-01
 -5.52246544383869886E-01 -5.59181564937562103E-01 -5.66203382365158769E-01
 -5.73313071825144682E-01 -5.80511721365598254E-01 -5.87800432062130618E-01
 -5.95180318156624866E-01 -6.02652507196770992E-01 -6.10218140176345791E-01
 -6.17878371676258031E-01 -6.25634370006252327E-01 -6.33487317347327772E-01
 -6.41438409894762751E-01 -6.49488858001745939E-01 -6.57639886323588385E-01
 -6.65892733962445527E-01 -6.74248654612505605E-01 -6.82708916705640934E-01
 -6.91274803557430984E-01 -6.99947613513520861E-01 -7.08728660096295870E-01
 -7.17619272151712950E-01 -7.26620793996409553E-01 -7.35734585564824850E-01
 -7.44962022556425629E-01 -7.54304496582873796E-01 -7.63763415315148353E-01
 -7.73340202630432683E-01 -7.83036298758804428E-01 -7.92853160429578985E-01
 -8.02792261017236441E-01 -8.12855090686830706E-01 -8.23043156538817655E-01
 -8.33357982753150650E-01 -8.43801110732598891E-01 -8.54374099245139074E-01
 -8.65078524565289220E-01 -8.75915980614330070E-01 -8.86888079099226068E-01
 -8.97996449650161122E-01 -9.09242739956488411E-01 -9.20628615901019520E-01
 -9.32155761692491591E-01 -9.43825879996005757E-01 -9.55640692061308306E-01
 -9.67601937848791560E-01 -9.79711376152911484E-01 -9.91970784722977172E-01
 -1.00438196038099559E+00 -1.01694671913650736E+00 -1.02966689629802222E+00
 -1.04254434658099271E+00 -1.05558094421203186E+00 -1.06877858302909945E+00
 -1.08213917657751368E+00 -1.09566465820137693E+00 -1.10935698113028725E+00
 -1.12321811856095599E+00 -1.13725006373351945E+00 -1.15145483000210036E+00
 -1.16583445089950022E+00 -1.18039098019546618E+00 -1.19512649194838949E+00
 -1.21004308054990140E+00 -1.22514286076214618E+00 -1.24042796774717701E+00
 -1.25590055708820492E+00 -1.27156280480224737E+00 -1.28741690734362590E+00
 -1.30346508159800267E+00 -1.31970956486640700E+00 -1.33615261483871306E+00
 -1.35279650955619113E+00 -1.36964354736238114E+00 -1.38669604684193382E+00
 -1.40395634674673442E+00 -1.42142680590873427E+00 -1.43910980313878700E+00
 -1.45700773711098375E+00 -1.47512302623166569E+00 -1.49345810849247362E+00
 -1.51201544130675591E+00 -1.53079750132838943E+00 -1.54980678425246055E+00
 -1.56904580459674015E+00 -1.58851709546340536E+00 -1.60822320827973742E+00
 -1.62816671251718859E+00 -1.64835019538773353E+00 -1.66877626151649938E+00
 -1.68944753258969804E+00 -1.71036664697672114E+00 -1.73153625932533450E+00
 -1.75295904012885773E+00 -1.77463767526402161E+00 -1.79657486549830869E+00
 -1.81877332596552210E+00 -1.84123578560827883E+00 -1.86396498658589005E+00
 -1.88696368364625866E+00 -1.91023464346039851E+00 -1.93378064391796212E+00
 -1.95760447338207966E+00 -1.98170892990186731E+00 -2.00609682038104653E+00
 -2.03077095970080101E+00 -2.05573416979475221E+00 -2.08098927867448946E+00
 -2.10653911940368088E+00 -2.13238652901823622E+00 -2.15853434739079120E+00
 -2.18498541603730301E+00 -2.21174257686325992E+00 -2.23880867084712154E+00
 -2.26618653665865288E+00 -2.29387900920963794E+00 -2.32188891813422327E+00
 -2.35021908619589315E+00 -2.37887232761884926E+00 -2.40785144634051962E+00
 -2.43715923418185421E+00 -2.46679846893276045E+00 -2.49677191234937368E+00
 -2.52708230805955880E+00 -2.55773237937298292E+00 -2.58872482699283513E+00
 -2.62006232662520544E+00 -2.65174752648142142E+00 -2.68378304467067119E+00
 -2.71617146647853369E+00 -2.74891534152594508E+00 -2.78201718080548410E+00
 -2.81547945359084695E+00 -2.84930458421292032E+00 -2.88349494869905554E+00
 -2.91805287127095392E+00 -2.95298062069468426E+00 -2.98828040647762316E+00
 -3.02395437490858843E+00 -3.06000460493368465E+00 -3.09643310386172388E+00
 -3.13324180289540699E+00 -3.17043255248057010E+00 -3.20800711746568812E+00
 -3.24596717206843444E+00 -3.28431429464051217E+00 -3.32304996222214122E+00
 -3.36217554488258896E+00 -3.40169229983802612E+00 -3.44160136533576066E+00
 -3.48190375430254262E+00 -3.52260034774641273E+00 -3.56369188790060987E+00
 -3.60517897110665775E+00 -3.64706204042621174E+00 -3.68934137796751926E+00
 -3.73201709692527173E+00 -3.77508913332132190E+00 -3.81855723743102216E+00
 -3.86242096489510978E+00 -3.90667966750207940E+00 -3.95133248362520817E+00
 -3.99637832831549078E+00 -4.04181588303174522E+00 -4.08764358499293934E+00
 -4.13385961615463415E+00 -4.18046189178677530E+00 -4.22744804863906509E+00
 -4.27481543269799236E+00 -4.32256108650476545E+00 -4.37068173602701027E+00
 -4.41917377708597758E+00 -4.46803326130247758E+00 -4.51725588156191105E+00
 -4.56683695699649128E+00 -4.61677141744101593E+00 -4.66705378737504528E+00
 -4.71767816933854434E+00 -4.76863822677688276E+00 -4.81992716634002161E+00
 -4.87153771960608584E+00 -4.92346212419344109E+00 -4.97569210429474396E+00
 -5.02821885058027895E+00 -5.08103299945649489E+00 -5.13412461171140855E+00
 -5.18748315047108122E+00 -5.24109745848800568E+00 -5.29495573477408588E+00
 -5.34904551049019084E+00 -5.40335362415580178E+00 -5.45786619614642987E+00
 -5.51256860241190072E+00 -5.56744544750509984E+00 -5.62248053683155913E+00
 -5.67765684811130278E+00 -5.73295650213483210E+00 -5.78836073267312745E+00
 -5.84384985562404946E+00 -5.89940323741428152E+00 -5.95499926251665102E+00
 -6.01061530024995339E+00 -6.06622767076623592E+00 -6.12181161017643749E+00
 -6.17734123499722543E+00 -6.23278950571218449E+00 -6.28812818956554676E+00
 -6.34332782267811801E+00 -6.39835767125086186E+00 -6.45318569215069893E+00
 -6.50777849275688158E+00 -6.56210128999278375E+00 -6.61611786887455988E+00
 -6.66979054024960050E+00 -6.72308009795971984E+00 -6.77594577557336475E+00
 -6.82834520234275377E+00 -6.88023435891157664E+00 -6.93156753253515312E+00
 -6.98229727180116555E+00 -7.03237434136898010E+00 -7.08174767618411494E+00
 -7.13036433571198636E+00 -7.17816945827300579E+00 -7.22510621508353168E+00
 -7.27111576489978706E+00 -7.31613720870854589E+00 -7.36010754478614704E+00
 -7.40296162474614761E+00 -7.44463210975523992E+00 -7.48504942809601204E+00
 -7.52414173375747986E+00 -7.56183486593093956E+00 -7.59805231069982856E+00
 -7.63271516378292514E+00 -7.66574209556761410E+00 -7.69704931866475484E+00
 -7.72655055722259654E+00 -7.75415702002291418E+00 -7.77977737608353426E+00
 -7.80331773379537541E+00 -7.82468162468906758E+00 -7.84376999029171085E+00
 -7.86048117483237618E+00 -7.87471092262340822E+00 -7.88635238066388400E+00
 -7.89529610870879051E+00 -7.90143009442099675E+00 -7.90463977703426490E+00
 -7.90480807874053948E+00 -7.90181544359190724E+00 -7.89553988756615333E+00
 -7.88585705655767111E+00 -7.87264029627301820E+00 -7.85576073394661201E+00
 -7.83508737062244709E+00 -7.81048718932028851E+00 -7.78182527496311049E+00
 -7.74896495048691047E+00 -7.71176793005290317E+00 -7.67009448675934902E+00
 -7.62380364212146233E+00 -7.57275337221993805E+00 -7.51680083531369725E+00
 -7.45580262307654884E+00 -7.38961503119730878E+00 -7.31809435884435278E+00
 -7.24109723072489864E+00 -7.15848094689840675E+00 -7.07010386386157386E+00
 -6.97582580066723867E+00 -6.87550848206368315E+00 -6.76901601088247418E+00
 -6.65621537523696905E+00 -6.53697699533386967E+00 -6.41117530135994151E+00
 -6.27868935707610287E+00 -6.13940351930836492E+00 -5.99320813941916164E+00
 -5.84000031241313167E+00 -5.67968466258721261E+00 -5.51217418289726080E+00
 -5.33739111546060485E+00 -5.15526787991596791E+00 -4.96574805521282947E+00
 -4.76878740107420906E+00 -4.56435493820236537E+00 -4.35243407102351654E+00
 -4.13302376029901897E+00 -3.90613974945127396E+00 -3.67181582838543941E+00
 -3.43010515410169869E+00 -3.18108160758210889E+00 -2.92484119431077216E+00
 -2.66150348815802973E+00 -2.39121310056968728E+00 -2.11414119127109679E+00
 -1.83048699570249496E+00 -1.54047937469882901E+00 -1.24437837917446315E+00
 -9.42476810936347831E-01 -6.35101787119987993E-01 -3.22616280978647973E-01
 -5.42063822797378761E-03  3.16045947525533943E-01  6.41304019013130167E-01
  9.69832508679308702E-01  1.30106748602727329E+00  1.63440101492000900E+00
  1.96918014584742807E+00  2.30470606223267049E+00  2.64023341726887262E+00
  2.97496987407043889E+00  3.30807589549127767E+00  3.63866480934550918E+00
  3.96580317297677931E+00  4.28851150880775389E+00  4.60576539682111452E+00
  4.91649702249355780E+00  5.21959718585426735E+00  5.51391781295990224E+00
  5.79827507442578760E+00  6.07145305242568423E+00  6.33220813063641152E+00
  6.57927405310508551E+00  6.81136773413880547E+00  7.02719593053350700E+00
  7.22546265836221302E+00  7.40487761700862279E+00  7.56416544587665030E+00
  7.70207596824461671E+00  7.81739547287721326E+00  7.90895885289621425E+00
  7.97566292785118414E+00  8.01648057927452662E+00  8.03047594791252273E+00
  8.01682056376004937E+00  7.97481017754819899E+00  7.90388258444296543E+00
  7.80363581265275563E+00  7.67384698473369831E+00  7.51449139085725903E+00
  7.32576150535111914E+00  7.10808600344242425E+00  6.86214789070044073E+00
  6.58890195243791421E+00  6.28959062527576673E+00  5.96575794894551859E+00
  5.61926117124037816E+00  5.25227896097682123E+00  4.86731601816384352E+00
  4.46720286246794895E+00  4.05509022652894924E+00  3.63443707790393855E+00
  3.20899129594196486E+00  2.78276207058422465E+00  2.35998310015609958E+00
  1.94506554908629958E+00  1.54253990513445816E+00  1.15698626116735959E+00
  7.92951733116444402E-01  4.54855868479241143E-01  1.46882810632707111E-01
 -1.27138241056249962E-01 -3.63863195902341008E-01 -5.60572967086820917E-01
 -7.15317714849000530E-01 -8.27064198218262381E-01 -8.95837481576927441E-01
 -9.22850970588246056E-01 -9.10614893975775663E-01 -8.63008367614892968E-01
 -7.85302534367426364E-01 -6.84111307021402104E-01 -5.67248406304236008E-01
 -4.43459830064232841E-01 -3.21997135951596458E-01 -2.11988442033874236E-01
 -1.21559762417083467E-01 -5.66432682709873958E-02 -1.94168818107322699E-02
 -6.76705268307622836E-03  1.12955410355462032E-04 -1.10733269574994240E-05
  0.00000000000000000E+00  0.00000000000000000E+00  0.00000000000000000E+00
  0.00000000000000000E+00  0.00000000000000000E+00  0.00000000000000000E+00
  0.00000000000000000E+00  0.00000000000000000E+00  0.00000000000000000E+00
  0.00000000000000000E+00  0.00000000000000000E+00  0.00000000000000000E+00
  0.00000000000000000E+00  0.00000000000000000E+00  0.00000000000000000E+00
  0.00000000000000000E+00  0.00000000000000000E+00  0.00000000000000000E+00
  0.00000000000000000E+00  0.00000000000000000E+00  0.00000000000000000E+00
  0.00000000000000000E+00  0.00000000000000000E+00  0.00000000000000000E+00
  0.00000000000000000E+00  0.00000000000000000E+00  0.00000000000000000E+00
  0.00000000000000000E+00  0.00000000000000000E+00  0.00000000000000000E+00
  0.00000000000000000E+00  0.00000000000000000E+00  0.00000000000000000E+00
  0.00000000000000000E+00  0.00000000000000000E+00  0.00000000000000000E+00
  0.00000000000000000E+00  0.00000000000000000E+00  0.00000000000000000E+00
  0.00000000000000000E+00  0.00000000000000000E+00  0.00000000000000000E+00
  0.00000000000000000E+00  0.00000000000000000E+00  0.00000000000000000E+00
  0.00000000000000000E+00  0.00000000000000000E+00  0.00000000000000000E+00
  0.00000000000000000E+00  0.00000000000000000E+00  0.00000000000000000E+00
  0.00000000000000000E+00  0.00000000000000000E+00  0.00000000000000000E+00
  0.00000000000000000E+00  0.00000000000000000E+00  0.00000000000000000E+00
  0.00000000000000000E+00  0.00000000000000000E+00  0.00000000000000000E+00
  0.00000000000000000E+00  0.00000000000000000E+00  0.00000000000000000E+00
  0.00000000000000000E+00  0.00000000000000000E+00  0.00000000000000000E+00
  0.00000000000000000E+00  0.00000000000000000E+00  0.00000000000000000E+00
  0.00000000000000000E+00  0.00000000000000000E+00  0.00000000000000000E+00
  0.00000000000000000E+00  0.00000000000000000E+00  0.00000000000000000E+00
  0.00000000000000000E+00  0.00000000000000000E+00  0.00000000000000000E+00
  0.00000000000000000E+00  0.00000000000000000E+00  0.00000000000000000E+00
  0.00000000000000000E+00  0.00000000000000000E+00  0.00000000000000000E+00
  0.00000000000000000E+00  0.00000000000000000E+00  0.00000000000000000E+00
  0.00000000000000000E+00  0.00000000000000000E+00  0.00000000000000000E+00
  0.00000000000000000E+00  0.00000000000000000E+00  0.00000000000000000E+00
  0.00000000000000000E+00  0.00000000000000000E+00  0.00000000000000000E+00
  0.00000000000000000E+00  0.00000000000000000E+00  0.00000000000000000E+00
  0.00000000000000000E+00  0.00000000000000000E+00  0.00000000000000000E+00
  0.00000000000000000E+00  0.00000000000000000E+00  0.00000000000000000E+00
  0.00000000000000000E+00  0.00000000000000000E+00  0.00000000000000000E+00
  0.00000000000000000E+00  0.00000000000000000E+00  0.00000000000000000E+00
  0.00000000000000000E+00  0.00000000000000000E+00  0.00000000000000000E+00
  0.00000000000000000E+00  0.00000000000000000E+00  0.00000000000000000E+00
  0.00000000000000000E+00  0.00000000000000000E+00  0.00000000000000000E+00
  0.00000000000000000E+00  0.00000000000000000E+00  0.00000000000000000E+00
  0.00000000000000000E+00  0.00000000000000000E+00  0.00000000000000000E+00
  0.00000000000000000E+00  0.00000000000000000E+00  0.00000000000000000E+00
  0.00000000000000000E+00  0.00000000000000000E+00  0.00000000000000000E+00
  0.00000000000000000E+00  0.00000000000000000E+00  0.00000000000000000E+00
  0.00000000000000000E+00  0.00000000000000000E+00  0.00000000000000000E+00
  0.00000000000000000E+00  0.00000000000000000E+00  0.00000000000000000E+00
  0.00000000000000000E+00  0.00000000000000000E+00  0.00000000000000000E+00
  0.00000000000000000E+00  0.00000000000000000E+00  0.00000000000000000E+00
  0.00000000000000000E+00  0.00000000000000000E+00  0.00000000000000000E+00
  0.00000000000000000E+00  0.00000000000000000E+00  0.00000000000000000E+00
  0.00000000000000000E+00  0.00000000000000000E+00  0.00000000000000000E+00
  0.00000000000000000E+00  0.00000000000000000E+00  0.00000000000000000E+00
  0.00000000000000000E+00  0.00000000000000000E+00  0.00000000000000000E+00
  0.00000000000000000E+00  0.00000000000000000E+00  0.00000000000000000E+00
  0.00000000000000000E+00  0.00000000000000000E+00  0.00000000000000000E+00
  0.00000000000000000E+00  0.00000000000000000E+00  0.00000000000000000E+00
  0.00000000000000000E+00  0.00000000000000000E+00  0.00000000000000000E+00
  0.00000000000000000E+00  0.00000000000000000E+00  0.00000000000000000E+00
  0.00000000000000000E+00  0.00000000000000000E+00  0.00000000000000000E+00
  0.00000000000000000E+00  0.00000000000000000E+00  0.00000000000000000E+00
  0.00000000000000000E+00  0.00000000000000000E+00  0.00000000000000000E+00
  0.00000000000000000E+00  0.00000000000000000E+00  0.00000000000000000E+00
  0.00000000000000000E+00  0.00000000000000000E+00  0.00000000000000000E+00
  0.00000000000000000E+00  0.00000000000000000E+00
                              </PP_BETA.1>
 <PP_BETA.2 type="real" size="   833" angular_momentum="0" columns="3" cutoff_radius_index="   639" norm_conserving_radius="    1.303072" label= "0S">
 -3.30129079480885532E-02 -3.34281581351205462E-02 -3.38486314853986212E-02
 -3.42743936966576832E-02 -3.47055112929484308E-02 -3.51420516350287176E-02
 -3.55840829308857950E-02 -3.60316742463906367E-02 -3.64848955160861146E-02
 -3.69438175541110456E-02 -3.74085120652611902E-02 -3.78790516561895857E-02
 -3.83555098467475361E-02 -3.88379610814680795E-02 -3.93264807411939851E-02
 -3.98211451548515158E-02 -4.03220316113724747E-02 -4.08292183717660143E-02
 -4.13427846813421013E-02 -4.18628107820888315E-02 -4.23893779252047589E-02
 -4.29225683837891961E-02 -4.34624654656917270E-02 -4.40091535265231953E-02
 -4.45627179828304298E-02 -4.51232453254362120E-02 -4.56908231329471240E-02
 -4.62655400854306217E-02 -4.68474859782642417E-02 -4.74367517361593619E-02
 -4.80334294273604273E-02 -4.86376122780225184E-02 -4.92493946867695875E-02
 -4.98688722394360767E-02 -5.04961417239935609E-02 -5.11313011456644012E-02
 -5.17744497422255728E-02 -5.24256879995047415E-02 -5.30851176670707608E-02
 -5.37528417741216444E-02 -5.44289646455714746E-02 -5.51135919183399353E-02
 -5.58068305578460211E-02 -5.65087888747088027E-02 -5.72195765416583790E-02
 -5.79393046106587567E-02 -5.86680855302456478E-02 -5.94060331630818783E-02
 -6.01532628037338771E-02 -6.09098911966710552E-02 -6.16760365544902281E-02
 -6.24518185763699163E-02 -6.32373584667559885E-02 -6.40327789542814302E-02
 -6.48382043109240191E-02 -6.56537603714039408E-02 -6.64795745528256182E-02
 -6.73157758745658863E-02 -6.81624949784099959E-02 -6.90198641489424003E-02
 -6.98880173341932809E-02 -7.07670901665426594E-02 -7.16572199838871604E-02
 -7.25585458510725478E-02 -7.34712085815963367E-02 -7.43953507595806474E-02
 -7.53311167620202005E-02 -7.62786527813121423E-02 -7.72381068480661459E-02
 -7.82096288542003665E-02 -7.91933705763281093E-02 -8.01894856994371102E-02
 -8.11981298408652047E-02 -8.22194605745777407E-02 -8.32536374557477921E-02
 -8.43008220456448187E-02 -8.53611779368362994E-02 -8.64348707787033904E-02
 -8.75220683032770785E-02 -8.86229403513981995E-02 -8.97376588992043756E-02
 -9.08663980849505337E-02 -9.20093342361616856E-02 -9.31666458971285860E-02
 -9.43385138567480880E-02 -9.55251211767092212E-02 -9.67266532200340701E-02
 -9.79432976799754079E-02 -9.91752446092753065E-02 -1.00422686449791534E-01
 -1.01685818062493438E-01 -1.02964836757829636E-01 -1.04259942326482835E-01
 -1.05571337070504020E-01 -1.06899225834835826E-01 -1.08243816039232055E-01
 -1.09605317710575273E-01 -1.10983943515597094E-01 -1.12379908794011329E-01
 -1.13793431592053920E-01 -1.15224732696449006E-01 -1.16674035668795611E-01
 -1.18141566880382493E-01 -1.19627555547441491E-01 -1.21132233766837114E-01
 -1.22655836552202718E-01 -1.24198601870529335E-01 -1.25760770679207906E-01
 -1.27342586963533760E-01 -1.28944297774681998E-01 -1.30566153268153240E-01
 -1.32208406742696793E-01 -1.33871314679725045E-01 -1.35555136783211405E-01
 -1.37260136020089990E-01 -1.38986578661155630E-01 -1.40734734322475546E-01
 -1.42504876007315762E-01 -1.44297280148582563E-01 -1.46112226651803623E-01
 -1.47949998938634364E-01 -1.49810883990905891E-01 -1.51695172395225480E-01
 -1.53603158388124938E-01 -1.55535139901774450E-01 -1.57491418610258338E-01
 -1.59472299976432030E-01 -1.61478093299351921E-01 -1.63509111762302872E-01
 -1.65565672481412518E-01 -1.67648096554872034E-01 -1.69756709112765636E-01
 -1.71891839367518368E-01 -1.74053820664965192E-01 -1.76242990536055216E-01
 -1.78459690749192101E-01 -1.80704267363225507E-01 -1.82977070781088130E-01
 -1.85278455804111425E-01 -1.87608781686992104E-01 -1.89968412193451980E-01
 -1.92357715652576089E-01 -1.94777065015847017E-01 -1.97226837914886488E-01
 -1.99707416719894421E-01 -2.02219188598827176E-01 -2.04762545577281768E-01
 -2.07337884599131772E-01 -2.09945607587905120E-01 -2.12586121508904685E-01
 -2.15259838432107276E-01 -2.17967175595819351E-01 -2.20708555471121032E-01
 -2.23484405827097332E-01 -2.26295159796863488E-01 -2.29141255944402572E-01
 -2.32023138332217799E-01 -2.34941256589807745E-01 -2.37896065982980798E-01
 -2.40888027484011280E-01 -2.43917607842652540E-01 -2.46985279658011286E-01
 -2.50091521451298815E-01 -2.53236817739456721E-01 -2.56421659109695887E-01
 -2.59646542294914184E-01 -2.62911970250042704E-01 -2.66218452229314395E-01
 -2.69566503864463181E-01 -2.72956647243868644E-01 -2.76389410992653961E-01
 -2.79865330353749608E-01 -2.83384947269934850E-01 -2.86948810466857329E-01
 -2.90557475537061960E-01 -2.94211505025015752E-01 -2.97911468513156863E-01
 -3.01657942708966342E-01 -3.05451511533090747E-01 -3.09292766208504433E-01
 -3.13182305350742762E-01 -3.17120735059195524E-01 -3.21108669009503356E-01
 -3.25146728547030861E-01 -3.29235542781456669E-01 -3.33375748682477824E-01
 -3.37567991176645099E-01 -3.41812923245339795E-01 -3.46111206023893059E-01
 -3.50463508901882270E-01 -3.54870509624593267E-01 -3.59332894395668623E-01
 -3.63851357980955803E-01 -3.68426603813565567E-01 -3.73059344100151236E-01
 -3.77750299928410860E-01 -3.82500201375848226E-01 -3.87309787619771639E-01
 -3.92179807048579687E-01 -3.97111017374302322E-01 -4.02104185746450959E-01
 -4.07160088867151326E-01 -4.12279513107612294E-01 -4.17463254625886460E-01
 -4.22712119485995075E-01 -4.28026923778387691E-01 -4.33408493741736400E-01
 -4.38857665886156434E-01 -4.44375287117732221E-01 -4.49962214864484511E-01
 -4.55619317203727392E-01 -4.61347472990827012E-01 -4.67147571989381172E-01
 -4.73020515002845532E-01 -4.78967214007586073E-01 -4.84988592287391163E-01
 -4.91085584569452172E-01 -4.97259137161786158E-01 -5.03510208092192046E-01
 -5.09839767248637443E-01 -5.16248796521189157E-01 -5.22738289945426482E-01
 -5.29309253847383587E-01 -5.35962706990009030E-01 -5.42699680721153599E-01
 -5.49521219123111804E-01 -5.56428379163697473E-01 -5.63422230848866668E-01
 -5.70503857376922330E-01 -5.77674355294254593E-01 -5.84934834652687141E-01
 -5.92286419168351896E-01 -5.99730246382200072E-01 -6.07267467822040885E-01
 -6.14899249166205641E-01 -6.22626770408803321E-01 -6.30451226026519040E-01
 -6.38373825147083407E-01 -6.46395791719258983E-01 -6.54518364684471554E-01
 -6.62742798150027235E-01 -6.71070361563895657E-01 -6.79502339891117857E-01
 -6.88040033791767258E-01 -6.96684759800523690E-01 -7.05437850507810271E-01
 -7.14300654742484831E-01 -7.23274537756138813E-01 -7.32360881408896325E-01
 -7.41561084356814226E-01 -7.50876562240767598E-01 -7.60308747876916713E-01
 -7.69859091448607202E-01 -7.79529060699836074E-01 -7.89320141130174679E-01
 -7.99233836191124869E-01 -8.09271667483968060E-01 -8.19435174958981216E-01
 -8.29725917116099221E-01 -8.40145471206919625E-01 -8.50695433438071413E-01
 -8.61377419175893833E-01 -8.72193063152412851E-01 -8.83144019672550407E-01
 -8.94231962822601756E-01 -9.05458586679829480E-01 -9.16825605523268528E-01
 -9.28334754045584631E-01 -9.39987787566000876E-01 -9.51786482244250331E-01
 -9.63732635295474260E-01 -9.75828065206001627E-01 -9.88074611950011561E-01
 -1.00047413720696188E+00 -1.01302852457973636E+00 -1.02573967981348191E+00
 -1.03860953101494280E+00 -1.05164002887243346E+00 -1.06483314687611386E+00
 -1.07819088153870091E+00 -1.09171525261637359E+00 -1.10540830332991757E+00
 -1.11927210058585525E+00 -1.13330873519760389E+00 -1.14752032210647359E+00
 -1.16190900060241442E+00 -1.17647693454438551E+00 -1.19122631258024381E+00
 -1.20615934836598382E+00 -1.22127828078425149E+00 -1.23658537416193615E+00
 -1.25208291848668218E+00 -1.26777322962223615E+00 -1.28365864952238651E+00
 -1.29974154644339546E+00 -1.31602431515463714E+00 -1.33250937714737394E+00
 -1.34919918084142632E+00 -1.36609620178949176E+00 -1.38320294287893097E+00
 -1.40052193453085905E+00 -1.41805573489614756E+00 -1.43580693004827320E+00
 -1.45377813417260415E+00 -1.47197198975202692E+00 -1.49039116774840119E+00
 -1.50903836777978428E+00 -1.52791631829298691E+00 -1.54702777673115222E+00
 -1.56637552969612792E+00 -1.58596239310510168E+00 -1.60579121234134359E+00
 -1.62586486239851902E+00 -1.64618624801833180E+00 -1.66675830382088130E+00
 -1.68758399442757234E+00 -1.70866631457587204E+00 -1.73000828922569116E+00
 -1.75161297365669077E+00 -1.77348345355623782E+00 -1.79562284509723979E+00
 -1.81803429500554614E+00 -1.84072098061626943E+00 -1.86368610991831685E+00
 -1.88693292158672565E+00 -1.91046468500206035E+00 -1.93428470025615029E+00
 -1.95839629814368599E+00 -1.98280284013865304E+00 -2.00750771835515041E+00
 -2.03251435549166093E+00 -2.05782620475802913E+00 -2.08344674978419198E+00
 -2.10937950451000722E+00 -2.13562801305506689E+00 -2.16219584956765676E+00
 -2.18908661805193328E+00 -2.21630395217211795E+00 -2.24385151503288327E+00
 -2.27173299893457603E+00 -2.29995212510253344E+00 -2.32851264338877684E+00
 -2.35741833194530592E+00 -2.38667299686750489E+00 -2.41628047180636152E+00
 -2.44624461754816291E+00 -2.47656932156016607E+00 -2.50725849750082519E+00
 -2.53831608469305614E+00 -2.56974604755884695E+00 -2.60155237501356407E+00
 -2.63373907981831357E+00 -2.66631019788861634E+00 -2.69926978755730218E+00
 -2.73262192878985744E+00 -2.76637072235029713E+00 -2.80052028891545302E+00
 -2.83507476813538961E+00 -2.87003831763775441E+00 -2.90541511197396796E+00
 -2.94120934150479929E+00 -2.97742521122240200E+00 -3.01406693950683513E+00
 -3.05113875681430757E+00 -3.08864490429389571E+00 -3.12658963233028775E+00
 -3.16497719900969887E+00 -3.20381186850557365E+00 -3.24309790938089515E+00
 -3.28283959280396109E+00 -3.32304119067430603E+00 -3.36370697365504157E+00
 -3.40484120910763766E+00 -3.44644815892613066E+00 -3.48853207726644543E+00
 -3.53109720816625750E+00 -3.57414778305194236E+00 -3.61768801812816543E+00
 -3.66172211164524253E+00 -3.70625424103945766E+00 -3.75128855994234156E+00
 -3.79682919505363481E+00 -3.84288024287161667E+00 -3.88944576627723615E+00
 -3.93652979096616340E+00 -3.98413630172144639E+00 -4.03226923852266772E+00
 -4.08093249248590784E+00 -4.13012990162592786E+00 -4.17986524643578594E+00
 -4.23014224527791871E+00 -4.28096454957793959E+00 -4.33233573881417833E+00
 -4.38425931529801005E+00 -4.43673869873491089E+00 -4.48977722055805994E+00
 -4.54337811802938418E+00 -4.59754452809771585E+00 -4.65227948100362987E+00
 -4.70758589362669611E+00 -4.76346656256333301E+00 -4.81992415692379517E+00
 -4.87696121084341083E+00 -4.93458011569643418E+00 -4.99278311199783253E+00
 -5.05157228098990174E+00 -5.11094953589972079E+00 -5.17091661285193105E+00
 -5.23147506143308405E+00 -5.29262623489360351E+00 -5.35437127996834228E+00
 -5.41671112631423668E+00 -5.47964647554820594E+00 -5.54317778986484910E+00
 -5.60730528023395358E+00 -5.67202889415763423E+00 -5.73734830296575549E+00
 -5.80326288865161199E+00 -5.86977173022247900E+00 -5.93687358954523603E+00
 -6.00456689668952848E+00 -6.07284973473800616E+00 -6.14171982404512029E+00
 -6.21117450595016596E+00 -6.28121072590316132E+00 -6.35182501599409211E+00
 -6.42301347688801627E+00 -6.49477175911649951E+00 -6.56709504372613040E+00
 -6.63997802228149681E+00 -6.71341487616410326E+00 -6.78739925518452747E+00
 -6.86192425549065810E+00 -6.93698239671253347E+00 -7.01256559837743776E+00
 -7.08866515555529109E+00 -7.16527171368591098E+00 -7.24237524263357191E+00
 -7.31996500989781218E+00 -7.39802955296168552E+00 -7.47655665082025678E+00
 -7.55553329458722533E+00 -7.63494565720791662E+00 -7.71477906229577748E+00
 -7.79501795197384606E+00 -7.87564585380682924E+00 -7.95664534678028712E+00
 -8.03799802623694148E+00 -8.11968446789050446E+00 -8.20168419079661781E+00
 -8.28397561926924197E+00 -8.36653604385243987E+00 -8.44934158115925449E+00
 -8.53236713268806923E+00 -8.61558634264223144E+00 -8.69897155456417082E+00
 -8.78249376700854434E+00 -8.86612258812629150E+00 -8.94982618909342698E+00
 -9.03357125662963867E+00 -9.11732294432862567E+00 -9.20104482295836945E+00
 -9.28469882985095651E+00 -9.36824521706690305E+00 -9.45164249872813933E+00
 -9.53484739735597842E+00 -9.61781478911227339E+00 -9.70049764838729800E+00
 -9.78284699129472735E+00 -9.86481181838760257E+00 -9.94633905678709773E+00
 -1.00273735012618452E+01 -1.01078577549602606E+01 -1.01877321694751384E+01
 -1.02669347842229950E+01 -1.03454012658291479E+01 -1.04230648467891776E+01
 -1.04998562641323350E+01 -1.05757036981936743E+01 -1.06505327109635139E+01
 -1.07242661852099612E+01 -1.07968242636276788E+01 -1.08681242884391036E+01
 -1.09380807422719588E+01 -1.10066051892136123E+01 -1.10736062176105587E+01
 -1.11389893841818957E+01 -1.12026571592779298E+01 -1.12645088749963698E+01
 -1.13244406746284962E+01 -1.13823454650771492E+01 -1.14381128725461210E+01
 -1.14916292004783980E+01 -1.15427773924267836E+01 -1.15914369981497334E+01
 -1.16374841442903900E+01 -1.16807915110825000E+01 -1.17212283130266481E+01
 -1.17586602871883539E+01 -1.17929496875462920E+01 -1.18239552861027857E+01
 -1.18515323837159574E+01 -1.18755328274774197E+01 -1.18958050391629584E+01
 -1.19121940536923070E+01 -1.19245415673030450E+01 -1.19326860002443897E+01
 -1.19364625696843625E+01 -1.19357033780687285E+01 -1.19302375167911574E+01
 -1.19198911834926662E+01 -1.19044878199807425E+01 -1.18838482652951054E+01
 -1.18577909297200961E+01 -1.18261319909162737E+01 -1.17886856087086898E+01
 -1.17452641680589362E+01 -1.16956785434678547E+01 -1.16397383910740864E+01
 -1.15772524712329439E+01 -1.15080289959358115E+01 -1.14318760134838087E+01
 -1.13486018221352225E+01 -1.12580154194359370E+01 -1.11599269917699591E+01
 -1.10541484359078446E+01 -1.09404939281588280E+01 -1.08187805308948537E+01
 -1.06888288436438224E+01 -1.05504637049277239E+01 -1.04035149336423220E+01
 -1.02478181289496959E+01 -1.00832155158207168E+01 -9.90955684405744641E+00
 -9.72670034802760952E+00 -9.53451375262915768E+00 -9.33287534764201787E+00
 -9.12167511405441545E+00 -8.90081591096536506E+00 -8.67021473012538735E+00
 -8.42980400025105503E+00 -8.17953296557203124E+00 -7.91936911759842044E+00
 -7.64929968942057403E+00 -7.36933321731017976E+00 -7.07950114869503100E+00
 -6.77985952105182932E+00 -6.47049068530635640E+00 -6.15150508299201970E+00
 -5.82304307658808540E+00 -5.48527680991994693E+00 -5.13841211893716121E+00
 -4.78269046125896402E+00 -4.41839087121517515E+00 -4.04583193088583393E+00
 -3.66537373321785553E+00 -3.27741984605761871E+00 -2.88241924277572226E+00
 -2.48086819790011015E+00 -2.07331212664268261E+00 -1.66034734486793734E+00
 -1.24262273634432963E+00 -8.20841296799186826E-01 -3.95761533479157990E-01
  3.18013113001255343E-02  4.60974236180725694E-01  8.90825704090621895E-01
  1.32036512701740061E+00  1.74854267257899942E+00  2.17424942387618847E+00
  2.59631792214353885E+00  3.01352318437366185E+00  3.42458417475114274E+00
  3.82816585680558363E+00  4.22288183077858115E+00  4.60729760760270057E+00
  4.97993465260461576E+00  5.33927512009982586E+00  5.68376750187457702E+00
  6.01183311644902219E+00  6.32187354209413943E+00  6.61227913323900829E+00
  6.88143846569986994E+00  7.12774904403417242E+00  7.34962904354801605E+00
  7.54553028088845057E+00  7.71395247329021316E+00  7.85345855250878877E+00
  7.96269144353881231E+00  8.04039183345443575E+00  8.08541724063321610E+00
  8.09676221511529803E+00  8.07357937234766254E+00  8.01520162084477583E+00
  7.92116478619893272E+00  7.79123101188356326E+00  7.62541234898593956E+00
  7.42399418991636306E+00  7.18755860607348751E+00  6.91700647025967985E+00
  6.61357860874584258E+00  6.27887485128587386E+00  5.91487053933150353E+00
  5.52392994137863536E+00  5.10881526877750680E+00  4.67269100043021979E+00
  4.21912200012144112E+00  3.75206469009541133E+00  3.27585005235738436E+00
  2.79515725743887389E+00  2.31497672080310801E+00  1.84056148346386017E+00
  1.37736559626753063E+00  9.30968472950144066E-01  5.06984669000227983E-01
  1.10957481736091115E-01 -2.51762423047267092E-01 -5.76154877364658646E-01
 -8.57682474727552879E-01 -1.09245573892939851E+00 -1.27740991126396586E+00
 -1.41048632063455592E+00 -1.49081655067766183E+00 -1.51889802337783175E+00
 -1.49675303909207624E+00 -1.42805833864422604E+00 -1.31822594235456680E+00
 -1.17441877386280158E+00 -1.00547082144264444E+00 -8.21683960208940078E-01
 -6.34461499828660513E-01 -4.55733694479215357E-01 -2.97119101055804025E-01
 -1.68760923231890847E-01 -7.77558257473941611E-02 -2.61035371060000972E-02
 -8.67502485739191261E-03  1.43571773440738808E-04 -1.40747325353810302E-05
  0.00000000000000000E+00  0.00000000000000000E+00  0.00000000000000000E+00
  0.00000000000000000E+00  0.00000000000000000E+00  0.00000000000000000E+00
  0.00000000000000000E+00  0.00000000000000000E+00  0.00000000000000000E+00
  0.00000000000000000E+00  0.00000000000000000E+00  0.00000000000000000E+00
  0.00000000000000000E+00  0.00000000000000000E+00  0.00000000000000000E+00
  0.00000000000000000E+00  0.00000000000000000E+00  0.00000000000000000E+00
  0.00000000000000000E+00  0.00000000000000000E+00  0.00000000000000000E+00
  0.00000000000000000E+00  0.00000000000000000E+00  0.00000000000000000E+00
  0.00000000000000000E+00  0.00000000000000000E+00  0.00000000000000000E+00
  0.00000000000000000E+00  0.00000000000000000E+00  0.00000000000000000E+00
  0.00000000000000000E+00  0.00000000000000000E+00  0.00000000000000000E+00
  0.00000000000000000E+00  0.00000000000000000E+00  0.00000000000000000E+00
  0.00000000000000000E+00  0.00000000000000000E+00  0.00000000000000000E+00
  0.00000000000000000E+00  0.00000000000000000E+00  0.00000000000000000E+00
  0.00000000000000000E+00  0.00000000000000000E+00  0.00000000000000000E+00
  0.00000000000000000E+00  0.00000000000000000E+00  0.00000000000000000E+00
  0.00000000000000000E+00  0.00000000000000000E+00  0.00000000000000000E+00
  0.00000000000000000E+00  0.00000000000000000E+00  0.00000000000000000E+00
  0.00000000000000000E+00  0.00000000000000000E+00  0.00000000000000000E+00
  0.00000000000000000E+00  0.00000000000000000E+00  0.00000000000000000E+00
  0.00000000000000000E+00  0.00000000000000000E+00  0.00000000000000000E+00
  0.00000000000000000E+00  0.00000000000000000E+00  0.00000000000000000E+00
  0.00000000000000000E+00  0.00000000000000000E+00  0.00000000000000000E+00
  0.00000000000000000E+00  0.00000000000000000E+00  0.00000000000000000E+00
  0.00000000000000000E+00  0.00000000000000000E+00  0.00000000000000000E+00
  0.00000000000000000E+00  0.00000000000000000E+00  0.00000000000000000E+00
  0.00000000000000000E+00  0.00000000000000000E+00  0.00000000000000000E+00
  0.00000000000000000E+00  0.00000000000000000E+00  0.00000000000000000E+00
  0.00000000000000000E+00  0.00000000000000000E+00  0.00000000000000000E+00
  0.00000000000000000E+00  0.00000000000000000E+00  0.00000000000000000E+00
  0.00000000000000000E+00  0.00000000000000000E+00  0.00000000000000000E+00
  0.00000000000000000E+00  0.00000000000000000E+00  0.00000000000000000E+00
  0.00000000000000000E+00  0.00000000000000000E+00  0.00000000000000000E+00
  0.00000000000000000E+00  0.00000000000000000E+00  0.00000000000000000E+00
  0.00000000000000000E+00  0.00000000000000000E+00  0.00000000000000000E+00
  0.00000000000000000E+00  0.00000000000000000E+00  0.00000000000000000E+00
  0.00000000000000000E+00  0.00000000000000000E+00  0.00000000000000000E+00
  0.00000000000000000E+00  0.00000000000000000E+00  0.00000000000000000E+00
  0.00000000000000000E+00  0.00000000000000000E+00  0.00000000000000000E+00
  0.00000000000000000E+00  0.00000000000000000E+00  0.00000000000000000E+00
  0.00000000000000000E+00  0.00000000000000000E+00  0.00000000000000000E+00
  0.00000000000000000E+00  0.00000000000000000E+00  0.00000000000000000E+00
  0.00000000000000000E+00  0.00000000000000000E+00  0.00000000000000000E+00
  0.00000000000000000E+00  0.00000000000000000E+00  0.00000000000000000E+00
  0.00000000000000000E+00  0.00000000000000000E+00  0.00000000000000000E+00
  0.00000000000000000E+00  0.00000000000000000E+00  0.00000000000000000E+00
  0.00000000000000000E+00  0.00000000000000000E+00  0.00000000000000000E+00
  0.00000000000000000E+00  0.00000000000000000E+00  0.00000000000000000E+00
  0.00000000000000000E+00  0.00000000000000000E+00  0.00000000000000000E+00
  0.00000000000000000E+00  0.00000000000000000E+00  0.00000000000000000E+00
  0.00000000000000000E+00  0.00000000000000000E+00  0.00000000000000000E+00
  0.00000000000000000E+00  0.00000000000000000E+00  0.00000000000000000E+00
  0.00000000000000000E+00  0.00000000000000000E+00  0.00000000000000000E+00
  0.00000000000000000E+00  0.00000000000000000E+00  0.00000000000000000E+00
  0.00000000000000000E+00  0.00000000000000000E+00  0.00000000000000000E+00
  0.00000000000000000E+00  0.00000000000000000E+00  0.00000000000000000E+00
  0.00000000000000000E+00  0.00000000000000000E+00  0.00000000000000000E+00
  0.00000000000000000E+00  0.00000000000000000E+00  0.00000000000000000E+00
  0.00000000000000000E+00  0.00000000000000000E+00  0.00000000000000000E+00
  0.00000000000000000E+00  0.00000000000000000E+00  0.00000000000000000E+00
  0.00000000000000000E+00  0.00000000000000000E+00  0.00000000000000000E+00
  0.00000000000000000E+00  0.00000000000000000E+00  0.00000000000000000E+00
  0.00000000000000000E+00  0.00000000000000000E+00  0.00000000000000000E+00
  0.00000000000000000E+00  0.00000000000000000E+00  0.00000000000000000E+00
  0.00000000000000000E+00  0.00000000000000000E+00
                              </PP_BETA.2>
 <PP_BETA.3 type="real" size="   833" angular_momentum="1" columns="3" cutoff_radius_index="   639" norm_conserving_radius="    1.303072" label= "0P">
  1.65691569595881402E-06  1.69886056309542073E-06  1.74186726173389278E-06
  1.78596267186373531E-06  1.83117435392229793E-06  1.87753056602395361E-06
  1.92506028161517655E-06  1.97379320758542352E-06  2.02375980283407597E-06
  2.07499129730141722E-06  2.12751971149284442E-06  2.18137787648535220E-06
  2.23659945444766775E-06  2.29321895968019602E-06  2.35127178017928126E-06
  2.41079419976075045E-06  2.47182342072877066E-06  2.53439758713031736E-06
  2.59855580859216813E-06  2.66433818476017996E-06  2.73178583036507405E-06
  2.80094090090914447E-06  2.87184661902012380E-06  2.94454730145392442E-06
  3.01908838679801053E-06  3.09551646386123552E-06  3.17387930079350437E-06
  3.25422587493500214E-06  3.33660640342458500E-06  3.42107237458257624E-06
  3.50767658008516541E-06  3.59647314795815424E-06  3.68751757639895852E-06
  3.78086676846258526E-06  3.87657906761698796E-06  3.97471429420656064E-06
  4.07533378283088311E-06  4.17850042067574100E-06  4.28427868681008514E-06
  4.39273469247873492E-06  4.50393622241722438E-06  4.61795277720546117E-06
  4.73485561670480184E-06  4.85471780457806788E-06  4.97761425395655720E-06
  5.10362177424018820E-06  5.23281911910396028E-06  5.36528703570126852E-06
  5.50110831512323348E-06  5.64036784413383211E-06  5.78315265820455249E-06
  5.92955199590912086E-06  6.07965735467413541E-06  6.23356254795681488E-06
  6.39136376386329626E-06  6.55315962524370215E-06  6.71905125132419853E-06
  6.88914232088105659E-06  7.06353913702241354E-06  7.24235069361340270E-06
  7.42568874336733473E-06  7.61366786767468383E-06  7.80640554819522641E-06
  8.00402224025138851E-06  8.20664144809291181E-06  8.41438980206085797E-06
  8.62739713769566124E-06  8.84579657685826158E-06  9.06972461090141148E-06
  9.29932118593725057E-06  9.53472979026855626E-06  9.77609754403538721E-06
  1.00235752911230471E-05  1.02773176933930025E-05  1.05374833273071313E-05
  1.08042347829918307E-05  1.10777387658047420E-05  1.13581662004718898E-05
  1.16456923378643605E-05  1.19404968644724995E-05  1.22427640146476109E-05
  1.25526826856818580E-05  1.28704465558043959E-05  1.31962542051592913E-05
  1.35303092398428740E-05  1.38728204190770707E-05  1.42240017855996287E-05
  1.45840727993548669E-05  1.49532584745641286E-05  1.53317895202621995E-05
  1.57199024843870095E-05  1.61178399015132866E-05  1.65258504443236486E-05
  1.69441890789094160E-05  1.73731172239983554E-05  1.78129029142087474E-05
  1.82638209674308855E-05  1.87261531564406006E-05  1.92001883848526621E-05
  1.96862228675216322E-05  2.01845603155046249E-05  2.06955121256995350E-05
  2.12193975752787609E-05  2.17565440210353868E-05  2.23072871037707688E-05
  2.28719709578490668E-05  2.34509484260455487E-05  2.40445812798276966E-05
  2.46532404452044193E-05  2.52773062342811842E-05  2.59171685826682272E-05
  2.65732272928890401E-05  2.72458922839390414E-05  2.79355838471493779E-05
  2.86427329085192386E-05  2.93677812976733290E-05  3.01111820236150530E-05
  3.08733995574486986E-05  3.16549101222416551E-05  3.24562019902096966E-05
  3.32777757874112129E-05  3.41201448061349363E-05  3.49838353251780197E-05
  3.58693869382166886E-05  3.67773528904661472E-05  3.77083004238420251E-05
  3.86628111308415879E-05  3.96414813173535225E-05  4.06449223746372122E-05
  4.16737611606872397E-05  4.27286403912239784E-05  4.38102190405613057E-05
  4.49191727525851943E-05  4.60561942621089633E-05  4.72219938268584016E-05
  4.84172996703640654E-05  4.96428584360261106E-05  5.08994356526402868E-05
  5.21878162116651097E-05  5.35088048565206134E-05  5.48632266842395282E-05
  5.62519276597767611E-05  5.76757751432817615E-05  5.91356584306728606E-05
  6.06324893078217028E-05  6.21672026187360013E-05  6.37407568480668536E-05
  6.53541347182885789E-05  6.70083438019106935E-05  6.87044171491564835E-05
  7.04434139314511707E-05  7.22264201011061334E-05  7.40545490676095003E-05
  7.59289423910072803E-05  7.78507704927140862E-05  7.98212333841907508E-05
  8.18415614140369544E-05  8.39130160338750954E-05  8.60368905834515090E-05
  8.82145110955837757E-05  9.04472371213530126E-05  9.27364625759587126E-05
  9.50836166060166907E-05  9.74901644785479860E-05  9.99576084923429982E-05
  1.02487488912339280E-04  1.05081384927335251E-04  1.07740915631916677E-04
  1.10467741033005111E-04  1.13263563081642460E-04  1.16130126730868300E-04
  1.19069221019913534E-04  1.22082680185913020E-04  1.25172384803256750E-04
  1.28340262951763236E-04  1.31588291414028164E-04  1.34918496902876605E-04
  1.38332957319622408E-04  1.41833803043814696E-04  1.45423218255430595E-04
  1.49103442290093397E-04  1.52876771028377298E-04  1.56745558319800431E-04
  1.60712217442601280E-04  1.64779222599997939E-04  1.68949110453902262E-04
  1.73224481697126340E-04  1.77608002664708729E-04  1.82102406985880339E-04
  1.86710497276902171E-04  1.91435146876713861E-04  1.96279301625478523E-04
  2.01245981687925383E-04  2.06338283422070944E-04  2.11559381294463016E-04
  2.16912529843614905E-04  2.22401065691884252E-04  2.28028409607987522E-04
  2.33798068620737009E-04  2.39713638185263519E-04  2.45778804403623020E-04
  2.51997346300307176E-04  2.58373138154429412E-04  2.64910151890238217E-04
  2.71612459526640983E-04  2.78484235687794651E-04  2.85529760176214589E-04
  2.92753420609485372E-04  3.00159715122436566E-04  3.07753255136642952E-04
  3.15538768198255306E-04  3.23521100886103950E-04  3.31705221792103898E-04
  3.40096224575300431E-04  3.48699331091218356E-04  3.57519894598779648E-04
  3.66563403046513462E-04  3.75835482439742705E-04  3.85341900290734414E-04
  3.95088569154079209E-04  4.05081550249199347E-04  4.15327057171970937E-04
  4.25831459697499138E-04  4.36601287676494120E-04  4.47643235027485222E-04
  4.58964163826830322E-04  4.70571108499126111E-04  4.82471280110081447E-04
  4.94672070764703921E-04  5.07181058113039440E-04  5.20006009965968312E-04
  5.33154889023701212E-04  5.46635857719522211E-04  5.60457283181554043E-04
  5.74627742315473818E-04  5.89156027010674698E-04  6.04051149472875680E-04
  6.19322347686224379E-04  6.34979091007561655E-04  6.51031085896297502E-04
  6.67488281782677314E-04  6.84360877077817885E-04  7.01659325328755240E-04
  7.19394341521572027E-04  7.37576908536247957E-04  7.56218283756502903E-04
  7.75330005838143301E-04  7.94923901639521730E-04  8.15012093317750929E-04
  8.35607005594312378E-04  8.56721373193802967E-04  8.78368248459819698E-04
  9.00561009151701884E-04  9.23313366426183166E-04  9.46639373007960552E-04
  9.70553431553487149E-04  9.95070303211661750E-04  1.02020511638643905E-03
  1.04597337570492199E-03  1.07239097119578059E-03  1.09947418768250173E-03
  1.12723971439555458E-03  1.15570465480854443E-03  1.18488653670283301E-03
  1.21480332246533349E-03  1.24547341962432160E-03  1.27691569162814668E-03
  1.30914946887170504E-03  1.34219455997578460E-03  1.37607126332434473E-03
  1.41080037886446219E-03  1.44640322017486420E-03  1.48290162680753015E-03
  1.52031797690807655E-03  1.55867520012016657E-03  1.59799679077914070E-03
  1.63830682140074578E-03  1.67962995646991019E-03  1.72199146653515488E-03
  1.76541724261476056E-03  1.80993381091939598E-03  1.85556834789735517E-03
  1.90234869560780518E-03  1.95030337742779759E-03  1.99946161409847098E-03
  2.04985334011615781E-03  2.10150922047417374E-03  2.15446066776063842E-03
  2.20873985961789372E-03  2.26437975656938652E-03  2.32141412021902608E-03
  2.37987753182894142E-03  2.43980541128058486E-03  2.50123403642481170E-03
  2.56420056282584971E-03  2.62874304390421859E-03  2.69490045148485999E-03
  2.76271269675310406E-03  2.83222065162524322E-03  2.90346617053679947E-03
  2.97649211265414108E-03  3.05134236451195130E-03  3.12806186308166312E-03
  3.20669661927436983E-03  3.28729374188231876E-03  3.36990146196113277E-03
  3.45456915765558021E-03  3.54134737947187344E-03  3.63028787599769523E-03
  3.72144362007165250E-03  3.81486883540432115E-03  3.91061902365319632E-03
  4.00875099194834654E-03  4.10932288087007339E-03  4.21239419287762831E-03
  4.31802582118429902E-03  4.42628007908185597E-03  4.53722072971170058E-03
  4.65091301627420465E-03  4.76742369267346873E-03  4.88682105459168487E-03
  5.00917497098210627E-03  5.13455691598705723E-03  5.26304000126123599E-03
  5.39469900869143839E-03  5.52961042350076301E-03  5.66785246772155780E-03
  5.80950513403861567E-03  5.95465021997742486E-03  6.10337136241722623E-03
  6.25575407241090072E-03  6.41188577028500503E-03  6.57185582102531515E-03
  6.73575556990024717E-03  6.90367837829602374E-03  7.07571965972879618E-03
  7.25197691601651550E-03  7.43254977359109406E-03  7.61754001988525220E-03
  7.80705163975738137E-03  8.00119085190712995E-03  8.20006614528247593E-03
  8.40378831538879552E-03  8.61247050044390040E-03  8.82622821730781777E-03
  9.04517939719315378E-03  9.26944442105299624E-03  9.49914615455894201E-03
  9.73440998257514394E-03  9.97536384313775157E-03  1.02221382608127485E-02
  1.04748663793080114E-02  1.07336839932288715E-02  1.09987295789850444E-02
  1.12701443246817287E-02  1.15480721588327433E-02  1.18326597777659685E-02
  1.21240566717464773E-02  1.24224151495529369E-02  1.27278903613253554E-02
  1.30406403195648998E-02  1.33608259182773983E-02  1.36886109498937387E-02
  1.40241621197537761E-02  1.43676490581332531E-02  1.47192443296080729E-02
  1.50791234393604506E-02  1.54474648361996019E-02  1.58244499123734138E-02
  1.62102629996385174E-02  1.66050913612173223E-02  1.70091251796112598E-02
  1.74225575400262615E-02  1.78455844087712159E-02  1.82784046063444935E-02
  1.87212197753052582E-02  1.91742343421216176E-02  1.96376554724618825E-02
  2.01116930200391023E-02  2.05965594684129061E-02  2.10924698648700462E-02
  2.15996417462681993E-02  2.21182950566722082E-02  2.26486520555578760E-02
  2.31909372161261534E-02  2.37453771139420206E-02  2.43122003044674954E-02
  2.48916371886474877E-02  2.54839198669292340E-02  2.60892819803303644E-02
  2.67079585372702842E-02  2.73401857264944925E-02  2.79862007149840712E-02
  2.86462414290308068E-02  2.93205463186584879E-02  3.00093541046405725E-02
  3.07129035057337844E-02  3.14314329461159586E-02  3.21651802426145758E-02
  3.29143822688171689E-02  3.36792745958032838E-02  3.44600911094137680E-02
  3.52570636005894583E-02  3.60704213283049580E-02  3.69003905552746161E-02
  3.77471940523644162E-02  3.86110505711028743E-02  3.94921742846184656E-02
  4.03907741923124064E-02  4.13070534876220363E-02  4.22412088892300322E-02
  4.31934299303512251E-02  4.41638982055565926E-02  4.51527865753883276E-02
  4.61602583225774743E-02  4.71864662597680576E-02  4.82315517885208850E-02
  4.92956439026508292E-02  5.03788581365194194E-02  5.14812954571335149E-02
  5.26030410924984426E-02  5.37441632978459122E-02  5.49047120571006866E-02
  5.60847177117572218E-02  5.72841895199950740E-02  5.85031141412146460E-02
  5.97414540385448126E-02  6.09991458032428657E-02  6.22760983933980314E-02
  6.35721912808070305E-02  6.48872725104344961E-02  6.62211566617846858E-02
  6.75736227087175151E-02  6.89444117810016771E-02  7.03332248145996791E-02
  7.17397200908412996E-02  7.31635106646280620E-02  7.46041616680206687E-02
  7.60611874931554632E-02  7.75340488496585045E-02  7.90221496846818111E-02
  8.05248339722078321E-02  8.20413823609629361E-02  8.35710086737017493E-02
  8.51128562642320674E-02  8.66659942171342929E-02  8.82294133895822619E-02
  8.98020222972132770E-02  9.13826428287798920E-02  9.29700057948845832E-02
  9.45627463058674733E-02  9.61593989681940875E-02  9.77583929069399671E-02
  9.93580466037548848E-02  1.00956562547531256E-01  1.02552021702456017E-01
  1.04142377782614121E-01  1.05725451337207441E-01  1.07298923645383557E-01
  1.08860330416477899E-01  1.10407055300532228E-01  1.11936323206899169E-01
  1.13445193434763766E-01  1.14930552616229378E-01  1.16389107477990375E-01
  1.17817377426213565E-01  1.19211686955456517E-01  1.20568157900639003E-01
  1.21882701527031928E-01  1.23151010475475928E-01  1.24368550584292609E-01
  1.25530552575482290E-01  1.26632003653754710E-01  1.27667639017400386E-01
  1.28631933291176781E-01  1.29519091948660570E-01  1.30323042689300783E-01
  1.31037426844207855E-01  1.31655590847709891E-01  1.32170577746957174E-01
  1.32575118889619148E-01  1.32861625746885592E-01  1.33022181940439327E-01
  1.33048535602757700E-01  1.32932091976475653E-01  1.32663906475110283E-01
  1.32234678197970412E-01  1.31634743911366314E-01  1.30854072776157487E-01
  1.29882261656433684E-01  1.28708531288812267E-01  1.27321723419700550E-01
  1.25710298799798004E-01  1.23862336521225358E-01  1.21765534484265317E-01
  1.19407211273331870E-01  1.16774309769493462E-01  1.13853402195953288E-01
  1.10630697328490873E-01  1.07092049661637628E-01  1.03222970727180854E-01
  9.90086432309385533E-02  9.44339374512968011E-02  8.94834308927033306E-02
  8.41414310718948677E-02  7.83920014410468963E-02  7.22189915779424263E-02
  6.56060707843376251E-02  5.85367663319613998E-02  5.09945064289182778E-02
  4.29626675826919185E-02  3.44246280850113787E-02  2.53638264015993743E-02
  1.57638259204523484E-02  5.60838643727640338E-03 -5.11845843223463458E-03
 -1.64323154649612252E-02 -2.83483393211663229E-02 -4.08811316895261387E-02
 -5.40446313137077153E-02 -6.78519963770026074E-02 -8.23154759656720691E-02
 -9.74462728210012674E-02 -1.13254395637061633E-01 -1.29748499712743687E-01
 -1.46935718293871531E-01 -1.64821480438898021E-01 -1.83409318358661561E-01
 -2.02700662427632572E-01 -2.22694622351502503E-01 -2.43387757876183691E-01
 -2.64773834039340406E-01 -2.86843564915281735E-01 -3.09584344070433337E-01
 -3.32979960182857138E-01 -3.57010302405418145E-01 -3.81651049914980889E-01
 -4.06873350911245213E-01 -4.32643489446729423E-01 -4.58922539079899883E-01
 -4.85666009157578571E-01 -5.12823478270734379E-01 -5.40338221731669899E-01
 -5.68146831931509944E-01 -5.96178832006416082E-01 -6.24356289661654462E-01
 -6.52593427089766531E-01 -6.80796235405576766E-01 -7.08862093648548464E-01
 -7.36679395350574917E-01 -7.64127190078978780E-01 -7.91074839458988266E-01
 -8.17381696949268655E-01 -8.42896814123001326E-01 -8.67458680011048200E-01
 -8.90895000703686546E-01 -9.13022525484773029E-01 -9.33646927511842195E-01
 -9.52562747390224507E-01 -9.69553409688130419E-01 -9.84391318582364283E-01
 -9.96838049598150144E-01 -1.00664463989456254E+00 -1.01355199593970946E+00
 -1.01729142934105909E+00 -1.01758532591391826E+00 -1.01414797899019793E+00
 -1.00668657680057394E+00 -9.94902380306807110E-01 -9.78492095170525267E-01
 -9.57149443607405948E-01 -9.30566981004116833E-01 -8.98438125118975695E-01
 -8.60459459478115751E-01 -8.16333292444055614E-01 -7.65770483189094464E-01
 -7.08493584629317996E-01 -6.44240239817824079E-01 -5.72766922207439411E-01
 -4.93852956161077272E-01 -4.07304841692686159E-01 -3.12960915750458979E-01
 -2.10696249999920121E-01 -1.00427894977588902E-01  1.78796647392081461E-02
  1.44208803272194513E-01  2.78482819013598504E-01  4.20559907275855793E-01
  5.70226944202803621E-01  7.27193307986726767E-01  8.91084691448270516E-01
  1.06143703563891534E+00  1.23769074479019592E+00  1.41918516565545527E+00
  1.60515363951699030E+00  1.79471912680970136E+00  1.98689066420152072E+00
  2.18056084076233914E+00  2.37450443645802745E+00  2.56737855643539969E+00
  2.75772441241946131E+00  2.94397108517828832E+00  3.12444151784668422E+00
  3.29736107225570452E+00  3.46086889732275438E+00  3.61303253647697264E+00
  3.75186596268118144E+00  3.87535143995687426E+00  3.98146555535724911E+00
  4.06820943481879738E+00  4.13364382600438596E+00  4.17592862327827330E+00
  4.19336741446705918E+00  4.18445678128362974E+00  4.14793989299998600E+00
  4.08286478172105483E+00  3.98864547702331729E+00  3.86512630025575898E+00
  3.71264709852449126E+00  3.53210783218584057E+00  3.32503086384099511E+00
  3.09361651181343245E+00  2.84078986492016305E+00  2.57023250546607063E+00
  2.28639423596064484E+00  1.99447753415226359E+00  1.70038540563664453E+00
  1.41062302915865723E+00  1.13213989917720048E+00  8.72097892785593909E-01
  6.37547224800518730E-01  4.34990675253359160E-01  2.69808865180440116E-01
  1.45523365128606169E-01  6.28582873734636061E-02  1.85735434566284170E-02
  4.31203822097751734E-03 -6.61372049872309322E-05  6.48361059088800112E-06
  0.00000000000000000E+00  0.00000000000000000E+00  0.00000000000000000E+00
  0.00000000000000000E+00  0.00000000000000000E+00  0.00000000000000000E+00
  0.00000000000000000E+00  0.00000000000000000E+00  0.00000000000000000E+00
  0.00000000000000000E+00  0.00000000000000000E+00  0.00000000000000000E+00
  0.00000000000000000E+00  0.00000000000000000E+00  0.00000000000000000E+00
  0.00000000000000000E+00  0.00000000000000000E+00  0.00000000000000000E+00
  0.00000000000000000E+00  0.00000000000000000E+00  0.00000000000000000E+00
  0.00000000000000000E+00  0.00000000000000000E+00  0.00000000000000000E+00
  0.00000000000000000E+00  0.00000000000000000E+00  0.00000000000000000E+00
  0.00000000000000000E+00  0.00000000000000000E+00  0.00000000000000000E+00
  0.00000000000000000E+00  0.00000000000000000E+00  0.00000000000000000E+00
  0.00000000000000000E+00  0.00000000000000000E+00  0.00000000000000000E+00
  0.00000000000000000E+00  0.00000000000000000E+00  0.00000000000000000E+00
  0.00000000000000000E+00  0.00000000000000000E+00  0.00000000000000000E+00
  0.00000000000000000E+00  0.00000000000000000E+00  0.00000000000000000E+00
  0.00000000000000000E+00  0.00000000000000000E+00  0.00000000000000000E+00
  0.00000000000000000E+00  0.00000000000000000E+00  0.00000000000000000E+00
  0.00000000000000000E+00  0.00000000000000000E+00  0.00000000000000000E+00
  0.00000000000000000E+00  0.00000000000000000E+00  0.00000000000000000E+00
  0.00000000000000000E+00  0.00000000000000000E+00  0.00000000000000000E+00
  0.00000000000000000E+00  0.00000000000000000E+00  0.00000000000000000E+00
  0.00000000000000000E+00  0.00000000000000000E+00  0.00000000000000000E+00
  0.00000000000000000E+00  0.00000000000000000E+00  0.00000000000000000E+00
  0.00000000000000000E+00  0.00000000000000000E+00  0.00000000000000000E+00
  0.00000000000000000E+00  0.00000000000000000E+00  0.00000000000000000E+00
  0.00000000000000000E+00  0.00000000000000000E+00  0.00000000000000000E+00
  0.00000000000000000E+00  0.00000000000000000E+00  0.00000000000000000E+00
  0.00000000000000000E+00  0.00000000000000000E+00  0.00000000000000000E+00
  0.00000000000000000E+00  0.00000000000000000E+00  0.00000000000000000E+00
  0.00000000000000000E+00  0.00000000000000000E+00  0.00000000000000000E+00
  0.00000000000000000E+00  0.00000000000000000E+00  0.00000000000000000E+00
  0.00000000000000000E+00  0.00000000000000000E+00  0.00000000000000000E+00
  0.00000000000000000E+00  0.00000000000000000E+00  0.00000000000000000E+00
  0.00000000000000000E+00  0.00000000000000000E+00  0.00000000000000000E+00
  0.00000000000000000E+00  0.00000000000000000E+00  0.00000000000000000E+00
  0.00000000000000000E+00  0.00000000000000000E+00  0.00000000000000000E+00
  0.00000000000000000E+00  0.00000000000000000E+00  0.00000000000000000E+00
  0.00000000000000000E+00  0.00000000000000000E+00  0.00000000000000000E+00
  0.00000000000000000E+00  0.00000000000000000E+00  0.00000000000000000E+00
  0.00000000000000000E+00  0.00000000000000000E+00  0.00000000000000000E+00
  0.00000000000000000E+00  0.00000000000000000E+00  0.00000000000000000E+00
  0.00000000000000000E+00  0.00000000000000000E+00  0.00000000000000000E+00
  0.00000000000000000E+00  0.00000000000000000E+00  0.00000000000000000E+00
  0.00000000000000000E+00  0.00000000000000000E+00  0.00000000000000000E+00
  0.00000000000000000E+00  0.00000000000000000E+00  0.00000000000000000E+00
  0.00000000000000000E+00  0.00000000000000000E+00  0.00000000000000000E+00
  0.00000000000000000E+00  0.00000000000000000E+00  0.00000000000000000E+00
  0.00000000000000000E+00  0.00000000000000000E+00  0.00000000000000000E+00
  0.00000000000000000E+00  0.00000000000000000E+00  0.00000000000000000E+00
  0.00000000000000000E+00  0.00000000000000000E+00  0.00000000000000000E+00
  0.00000000000000000E+00  0.00000000000000000E+00  0.00000000000000000E+00
  0.00000000000000000E+00  0.00000000000000000E+00  0.00000000000000000E+00
  0.00000000000000000E+00  0.00000000000000000E+00  0.00000000000000000E+00
  0.00000000000000000E+00  0.00000000000000000E+00  0.00000000000000000E+00
  0.00000000000000000E+00  0.00000000000000000E+00  0.00000000000000000E+00
  0.00000000000000000E+00  0.00000000000000000E+00  0.00000000000000000E+00
  0.00000000000000000E+00  0.00000000000000000E+00  0.00000000000000000E+00
  0.00000000000000000E+00  0.00000000000000000E+00  0.00000000000000000E+00
  0.00000000000000000E+00  0.00000000000000000E+00  0.00000000000000000E+00
  0.00000000000000000E+00  0.00000000000000000E+00  0.00000000000000000E+00
  0.00000000000000000E+00  0.00000000000000000E+00  0.00000000000000000E+00
  0.00000000000000000E+00  0.00000000000000000E+00  0.00000000000000000E+00
  0.00000000000000000E+00  0.00000000000000000E+00  0.00000000000000000E+00
  0.00000000000000000E+00  0.00000000000000000E+00  0.00000000000000000E+00
  0.00000000000000000E+00  0.00000000000000000E+00
                              </PP_BETA.3>
   <PP_DIJ type="real" size="    9" columns="3">
 -6.87411446302967466E-01  3.73797624017862873E-01  0.00000000000000000E+00
  3.73797624017862873E-01  7.59783087688815861E-01  0.00000000000000000E+00
  0.00000000000000000E+00  0.00000000000000000E+00 -2.28426898080218224E-02
                                       </PP_DIJ>
  <PP_AUGMENTATION q_with_l="T" nqf="0" cutoff_r="  1.3030725E+00" cutoff_r_index="   639" iraug="   639" nqlc="  3" lmax_aug="  2" shape="SINC**2" augmentation_epsilon="1.d-12">
    <PP_Q type="real" size="    9" columns="3">
  1.71656537103661133E-01 -2.73089615071271941E-01  0.00000000000000000E+00
 -2.73089615071271941E-01  4.10982974647028987E-01  0.00000000000000000E+00
  0.00000000000000000E+00  0.00000000000000000E+00  8.04560489680739704E-03
                                       </PP_Q>
    <PP_MULTIPOLES type="real" size="    27" columns="3">
  1.71656537103661133E-01 -2.73089615071271941E-01  0.00000000000000000E+00
 -2.73089615071271941E-01  4.10982974647028987E-01  0.00000000000000000E+00
  0.00000000000000000E+00  0.00000000000000000E+00  8.04560489680739704E-03
  0.00000000000000000E+00  0.00000000000000000E+00  1.88447473982066328E-02
  0.00000000000000000E+00  0.00000000000000000E+00 -3.26503100658835643E-02
  1.88447473982066328E-02 -3.26503100658835643E-02  0.00000000000000000E+00
  0.00000000000000000E+00  0.00000000000000000E+00  0.00000000000000000E+00
  0.00000000000000000E+00  0.00000000000000000E+00  0.00000000000000000E+00
  0.00000000000000000E+00  0.00000000000000000E+00  3.07331339784800480E-03
                                       </PP_MULTIPOLES>
 <PP_QIJL.1.1.0 type="real" size="   833" columns="3" first_index=" 1" second_index=" 1" composite_index=" 1" angular_momentum="0">
  3.18347503996520482E-07  3.26406506100729423E-07  3.34669522643880967E-07
  3.43141718267343423E-07  3.51828388355520504E-07  3.60734962345701967E-07
  3.69867007121484759E-07  3.79230230492290019E-07  3.88830484760909897E-07
  3.98673770381242038E-07  4.08766239708862752E-07  4.19114200846291411E-07
  4.29724121585752062E-07  4.40602633451752883E-07  4.51756535845827666E-07
  4.63192800296484719E-07  4.74918574816431959E-07  4.86941188370356328E-07
  4.99268155455670930E-07  5.11907180799204726E-07  5.24866164172950280E-07
  5.38153205331436227E-07  5.51776609074450506E-07  5.65744890437533849E-07
  5.80066780014241216E-07  5.94751229412809990E-07  6.09807416851212819E-07
  6.25244752893680202E-07  6.41072886332520779E-07  6.57301710218836149E-07
  6.73941368045832262E-07  6.91002260088776120E-07  7.08495049905293261E-07
  7.26430671000389979E-07  7.44820333660016025E-07  7.63675531957787331E-07
  7.83008050938922194E-07  8.02829973986167060E-07  8.23153690372095063E-07
  8.43991903002618017E-07  8.65357636356560070E-07  8.87264244626083194E-07
  9.09725420063423541E-07  9.32755201538566528E-07  9.56367983313999212E-07
  9.80578524041084912E-07  1.00540195598466600E-06  1.03085379448078145E-06
  1.05694994763402874E-06  1.08370672626039290E-06  1.11114085408155022E-06
  1.13926947817762712E-06  1.16811017970410488E-06  1.19768098488037432E-06
  1.22800037625632469E-06  1.25908730426397172E-06  1.29096119906187382E-06
  1.32364198267898685E-06  1.35715008146612856E-06  1.39150643886273566E-06
  1.42673252848645682E-06  1.46285036755443098E-06  1.49988253064422232E-06
  1.53785216380287197E-06  1.57678299901342414E-06  1.61669936902752101E-06
  1.65762622257329949E-06  1.69958913994850526E-06  1.74261434900826441E-06
  1.78672874155740035E-06  1.83195989015781873E-06  1.87833606536143186E-06
  1.92588625337915191E-06  1.97464017419710240E-06  2.02462830015162845E-06
  2.07588187497435894E-06  2.12843293331932185E-06  2.18231432078436406E-06
  2.23755971443948575E-06  2.29420364387474000E-06  2.35228151278085529E-06
  2.41182962107612636E-06  2.47288518759350987E-06  2.53548637334192785E-06
  2.59967230535637904E-06  2.66548310115170121E-06  2.73295989379535803E-06
  2.80214485761493259E-06  2.87308123455628971E-06  2.94581336120894175E-06
  3.02038669651544744E-06  3.09684785018220343E-06  3.17524461180939360E-06
  3.25562598075828890E-06  3.33804219677453775E-06  3.42254477138654279E-06
  3.50918652009864675E-06  3.59802159539913526E-06  3.68910552060373637E-06
  3.78249522455578219E-06  3.87824907720460380E-06  3.97642692608454512E-06
  4.07709013371725987E-06  4.18030161596070737E-06  4.28612588132882380E-06
  4.39462907130634506E-06  4.50587900168410180E-06  4.61994520494049423E-06
  4.73689897369568499E-06  4.85681340526564737E-06  4.97976344734383632E-06
  5.10582594483913900E-06  5.23507968789926500E-06  5.36760546114959309E-06
  5.50348609417829670E-06  5.64280651329916337E-06  5.78565379462453966E-06
  5.93211721848154238E-06  6.08228832520547165E-06  6.23626097234533554E-06
  6.39413139331712931E-06  6.55599825754163641E-06  6.72196273210417668E-06
  6.89212854497489748E-06  7.06660204982908723E-06  7.24549229250788340E-06
  7.42891107916104234E-06  7.61697304611422571E-06  7.80979573150447253E-06
  8.00749964872861391E-06  8.21020836175034490E-06  8.41804856231323818E-06
  8.63115014910767986E-06  8.84964630894128124E-06  9.07367359996330822E-06
  9.30337203699544957E-06  9.53888517902171621E-06  9.78036021889253883E-06
  1.00279480752987478E-05  1.02818034870728745E-05  1.05420851098768675E-05
  1.08089556153365133E-05  1.10825817926844463E-05  1.13631346529750014E-05
  1.16507895359358623E-05  1.19457262195239866E-05  1.22481290322534559E-05
  1.25581869683655799E-05  1.28760938059125803E-05  1.32020482278297972E-05
  1.35362539460714200E-05  1.38789198288862190E-05  1.42302600313136719E-05
  1.45904941289827998E-05  1.49598472552953649E-05  1.53385502420793320E-05
  1.57268397638020566E-05  1.61249584854318621E-05  1.65331552140387542E-05
  1.69516850542326580E-05  1.73808095675333277E-05  1.78207969357701072E-05
  1.82719221286185993E-05  1.87344670753730452E-05  1.92087208410639325E-05
  1.96949798070334998E-05  2.01935478560746048E-05  2.07047365622567031E-05
  2.12288653855516203E-05  2.17662618713811010E-05  2.23172618552154386E-05
  2.28822096723413098E-05  2.34614583729415770E-05  2.40553699426090333E-05
  2.46643155284417191E-05  2.52886756708535389E-05  2.59288405412486298E-05
  2.65852101857063950E-05  2.72581947748280840E-05  2.79482148599033210E-05
  2.86557016355521884E-05  2.93810972090110421E-05  3.01248548762251324E-05
  3.08874394049245732E-05  3.16693273248561417E-05  3.24710072253537395E-05
  3.32929800604334425E-05  3.41357594615986079E-05  3.49998720585594265E-05
  3.58858578080513836E-05  3.67942703309769847E-05  3.77256772580591117E-05
  3.86806605842401701E-05  3.96598170320357102E-05  4.06637584240698033E-05
  4.16931120650341073E-05  4.27485211332894466E-05  4.38306450823741065E-05
  4.49401600526551096E-05  4.60777592933780020E-05  4.72441535953915226E-05
  4.84400717347970139E-05  4.96662609278105896E-05  5.09234872971228871E-05
  5.22125363500331878E-05  5.35342134686666386E-05  5.48893444125790999E-05
  5.62787758340514615E-05  5.77033758064019139E-05  5.91640343656476140E-05
  6.06616640658416096E-05  6.21972005484319474E-05  6.37716031260078189E-05
  6.53858553807823439E-05  6.70409657781830345E-05  6.87379682959396617E-05
  7.04779230690556497E-05  7.22619170510597423E-05  7.40910646919470635E-05
  7.59665086332370342E-05  7.78894204205755089E-05  7.98610012343185555E-05
  8.18824826385521434E-05  8.39551273490138670E-05  8.60802300203939699E-05
  8.82591180534979361E-05  9.04931524227701003E-05  9.27837285246918087E-05
  9.51322770475809045E-05  9.75402648633288787E-05  1.00009195941626189E-04
  1.02540612287238276E-04  1.05136094900915134E-04  1.07797264764524607E-04
  1.10525783851022410E-04  1.13323356159878403E-04  1.16191728778596186E-04
  1.19132692970985320E-04  1.22148085292853113E-04  1.25239788735805589E-04
  1.28409733899861493E-04  1.31659900195602990E-04  1.34992317076601748E-04
  1.38409065302878430E-04  1.41912278236174449E-04  1.45504143167829014E-04
  1.49186902680082853E-04  1.52962856041638945E-04  1.56834360638342143E-04
  1.60803833439854266E-04  1.64873752503221280E-04  1.69046658514261574E-04
  1.73325156367712234E-04  1.77711916787107080E-04  1.82209677985375893E-04
  1.86821247367180090E-04  1.91549503274029065E-04  1.96397396773240304E-04
  2.01367953491839478E-04  2.06464275496519051E-04  2.11689543220800331E-04
  2.17047017440579414E-04  2.22540041299254429E-04  2.28172042383673540E-04
  2.33946534852163982E-04  2.39867121615935014E-04  2.45937496575186678E-04
  2.52161446911273600E-04  2.58542855436323616E-04  2.65085703001731346E-04
  2.71794070966985008E-04  2.78672143730327435E-04  2.85724211322773520E-04
  2.92954672067061183E-04  3.00368035303135111E-04  3.07968924181809467E-04
  3.15762078528298098E-04  3.23752357777327634E-04  3.31944743981609262E-04
  3.40344344895474233E-04  3.48956397135518736E-04  3.57786269420166047E-04
  3.66839465890074717E-04  3.76121629511389237E-04  3.85638545563864643E-04
  3.95396145215947022E-04  4.05400509188946854E-04  4.15657871512481155E-04
  4.26174623373424362E-04  4.36957317060657051E-04  4.48012670007941617E-04
  4.59347568937339818E-04  4.70969074105603174E-04  4.82884423656063891E-04
  4.95101038078577253E-04  5.07626524780155916E-04  5.20468682768991144E-04
  5.33635507454591662E-04  5.47135195566868823E-04  5.60976150197046346E-04
  5.75166985963329320E-04  5.89716534304363885E-04  6.04633848903535936E-04
  6.19928211247296949E-04  6.35609136320747854E-04  6.51686378443738215E-04
  6.68169937250881539E-04  6.85070063818913016E-04  7.02397266944928080E-04
  7.20162319579067413E-04  7.38376265415391277E-04  7.57050425644711748E-04
  7.76196405873171274E-04  7.95826103210527601E-04  8.15951713532170287E-04
  8.36585738918896706E-04  8.57740995278771247E-04  8.79430620155339572E-04
  9.01668080726494825E-04  9.24467181998501878E-04  9.47842075199708395E-04
  9.71807266378567521E-04  9.96377625210980106E-04  1.02156839402160250E-03
  1.04739519702410342E-03  1.07387404978540155E-03  1.10102136891896763E-03
  1.12885398201283409E-03  1.15738913779743447E-03  1.18664451655872477E-03
  1.21663824080213683E-03  1.24738888617299966E-03  1.27891549263980855E-03
  1.31123757594576551E-03  1.34437513933468016E-03  1.37834868555717347E-03
  1.41317922916385551E-03  1.44888830909214333E-03  1.48549800155256756E-03
  1.52303093322129937E-03  1.56151029474543845E-03  1.60095985456909918E-03
  1.64140397308624726E-03  1.68286761712736353E-03  1.72537637478682748E-03
  1.76895647059983679E-03  1.81363478107548202E-03  1.85943885059309394E-03
  1.90639690766916930E-03  1.95453788160462449E-03  2.00389141951938347E-03
  2.05448790378158150E-03  2.10635846983908519E-03  2.15953502446425329E-03
  2.21405026441888475E-03  2.26993769554680079E-03  2.32723165230244722E-03
  2.38596731772783332E-03  2.44618074388371120E-03  2.50790887274298649E-03
  2.57118955755625007E-03  2.63606158470208697E-03  2.70256469602693245E-03
  2.77073961168284666E-03  2.84062805347683797E-03  2.91227276874095895E-03
  2.98571755472851154E-03  3.06100728354599108E-03  3.13818792763768690E-03
  3.21730658582626648E-03  3.29841150991636240E-03  3.38155213187690123E-03
  3.46677909161334508E-03  3.55414426533168844E-03  3.64370079450497238E-03
  3.73550311546294936E-03  3.82960698960383046E-03  3.92606953423415856E-03
  4.02494925405895258E-03  4.12630607332759893E-03  4.23020136863435856E-03
  4.33669800239139085E-03  4.44586035699182005E-03  4.55775436965419854E-03
  4.67244756795942746E-03  4.79000910610866745E-03  4.91050980188981363E-03
  5.03402217435539381E-03  5.16062048224616605E-03  5.29038076315082890E-03
  5.42338087339436486E-03  5.55970052869020175E-03  5.69942134555490813E-03
  5.84262688346558288E-03  5.98940268779318830E-03  6.13983633352129313E-03
  6.29401746971722850E-03  6.45203786478524156E-03  6.61399145252234300E-03
  6.77997437893038731E-03  6.95008504980933021E-03  7.12442417916336890E-03
  7.30309483835884631E-03  7.48620250605494791E-03  7.67385511894826036E-03
  7.86616312325406040E-03  8.06323952694302896E-03  8.26519995278159232E-03
  8.47216269208046768E-03  8.68424875917067803E-03  8.90158194665945264E-03
  9.12428888134858389E-03  9.35249908084059833E-03  9.58634501088381080E-03
  9.82596214331324554E-03  1.00714890146268009E-02  1.03230672852370111E-02
  1.05808417992274591E-02  1.08449606446778864E-02  1.11155752145723902E-02
  1.13928402680933457E-02  1.16769139924015886E-02  1.19679580648692496E-02
  1.22661377155499057E-02  1.25716217900327526E-02  1.28845828125710854E-02
  1.32051970492702946E-02  1.35336445715304489E-02  1.38701093195256284E-02
  1.42147791655405920E-02  1.45678459773890597E-02  1.49295056815634524E-02
  1.52999583260247738E-02  1.56794081428285707E-02  1.60680636101109761E-02
  1.64661375134856659E-02  1.68738470069261792E-02  1.72914136725818880E-02
  1.77190635797509627E-02  1.81570273428573355E-02  1.86055401778962189E-02
  1.90648419577275213E-02  1.95351772657414539E-02  2.00167954475221621E-02
  2.05099506609266319E-02  2.10149019237606087E-02  2.15319131590102943E-02
  2.20612532378284890E-02  2.26031960192637355E-02  2.31580203870925434E-02
  2.37260102834624710E-02  2.43074547384139576E-02  2.49026478959427575E-02
  2.55118890356385852E-02  2.61354825894196535E-02  2.67737381539401853E-02
  2.74269704971471032E-02  2.80954995592460968E-02  2.87796504479758061E-02
  2.94797534266096999E-02  3.01961438955912244E-02  3.09291623666023210E-02
  3.16791544281185902E-02  3.24464707033950625E-02  3.32314667986745027E-02
  3.40345032418935475E-02  3.48559454118027925E-02  3.56961634551782522E-02
  3.65555321934399532E-02  3.74344310168637298E-02  3.83332437651547273E-02
  3.92523585956197837E-02  4.01921678357073930E-02  4.11530678206076736E-02
  4.21354587153564761E-02  4.31397443184195831E-02  4.41663318487465970E-02
  4.52156317131400878E-02  4.62880572530353987E-02  4.73840244717846915E-02
  4.85039517379247803E-02  4.96482594662114723E-02  5.08173697743514313E-02
  5.20117061123265417E-02  5.32316928668817996E-02  5.44777549358620924E-02
  5.57503172730206831E-02  5.70498044029422585E-02  5.83766399007594680E-02
  5.97312458399869156E-02  6.11140422033677952E-02  6.25254462553462009E-02
  6.39658718777975643E-02  6.54357288618074018E-02  6.69354221587671050E-02
  6.84653510867294507E-02  7.00259084881708072E-02  7.16174798426634784E-02
  7.32404423259451626E-02  7.48951638178821100E-02  7.65820018568486305E-02
  7.83013025342119973E-02  8.00533993338365668E-02  8.18386119075597274E-02
  8.36572447878293490E-02  8.55095860368304816E-02  8.73959058237500919E-02
  8.93164549358747700E-02  9.12714632147436367E-02  9.32611379170160959E-02
  9.52856620011107713E-02  9.73451923299925997E-02  9.94398577959827723E-02
  1.01569757359760218E-01  1.03734958001939534E-01  1.05935492589591479E-01
  1.08171357648003216E-01  1.10442511043172278E-01  1.12748869568735671E-01
  1.15090306435257472E-01  1.17466648664746501E-01  1.19877674382407595E-01
  1.22323110010132199E-01  1.24802627357598325E-01  1.27315840609865616E-01
  1.29862303213597818E-01  1.32441504658255660E-01  1.35052867154959816E-01
  1.37695742211966454E-01  1.40369407108696942E-01  1.43073061267908558E-01
  1.45805822530592988E-01  1.48566723333105499E-01  1.51354706790141819E-01
  1.54168622691267743E-01  1.57007223405557145E-01  1.59869159712919900E-01
  1.62752976555852802E-01  1.65657108722932878E-01  1.68579876480545399E-01
  1.71519481139182139E-01  1.74474000595182949E-01  1.77441384831157428E-01
  1.80419451399768921E-01  1.83405880918702358E-01  1.86398212551323522E-01
  1.89393839547667392E-01  1.92390004810296500E-01  1.95383796533171089E-01
  1.98372143953086694E-01  2.01351813173291039E-01  2.04319403182529669E-01
  2.07271342002097070E-01  2.10203883049512569E-01  2.13113101765434271E-01
  2.15994892448139353E-01  2.18844965484709136E-01  2.21658844859788456E-01
  2.24431866097804023E-01  2.27159174678027070E-01  2.29835724857706342E-01
  2.32456279174811736E-01  2.35015408433093292E-01  2.37507492431443590E-01
  2.39926721439801094E-01  2.42267098366517108E-01  2.44522441979931560E-01
  2.46686390878243844E-01  2.48752408626191912E-01  2.50713789971772127E-01
  2.52563668136873642E-01  2.54295023624498351E-01  2.55900694102105031E-01
  2.57373385990955994E-01  2.58705687508396676E-01  2.59890083273119576E-01
  2.60918970946308781E-01  2.61784679329204684E-01  2.62479488798678939E-01
  2.62995653563570519E-01  2.63325426063947876E-01  2.63461083910630556E-01
  2.63394958682431068E-01  2.63119467712185640E-01  2.62627147977888387E-01
  2.61910692744299511E-01  2.60962991106032716E-01  2.59777169738338976E-01
  2.58346638154034025E-01  2.56665136144221928E-01  2.54726784458394140E-01
  2.52526138406691636E-01  2.50058243828017945E-01  2.47318696688425543E-01
  2.44303704561916746E-01  2.41010151447539456E-01  2.37435664921282402E-01
  2.33578685373407008E-01  2.29438538224818661E-01  2.25015507109131124E-01
  2.20310909658291670E-01  2.15327174110749947E-01  2.10067916886557959E-01
  2.04538021250390917E-01  1.98743715084398975E-01  1.92692649118694770E-01
  1.86393973226355064E-01  1.79858411154082909E-01  1.73098332777916114E-01
  1.66127822241919493E-01  1.58962742385082900E-01  1.51620792982227665E-01
  1.44121562801456604E-01  1.36486573738860806E-01  1.28739315765865475E-01
  1.20905271599000538E-01  1.13011929391887589E-01  1.05088782024832406E-01
  9.71673114351693512E-02  8.92809565253094850E-02  8.14650622017874110E-02
  7.37568094075610747E-02  6.61951221700950720E-02  5.88205522143487869E-02
  5.16751380617664000E-02  4.48022364014955196E-02  3.82463271755818582E-02
  3.20527856088318047E-02  2.62676262162797949E-02  2.09372121795712712E-02
  1.61079315504932853E-02  1.18258419469007836E-02  8.13627611405033473E-03
  5.08341949235401481E-03  2.70984950750071665E-03  1.05603130078762270E-03
  1.59020325908502068E-04 -6.68633894090929691E-07  6.55480043039558015E-08
  0.00000000000000000E+00  0.00000000000000000E+00  0.00000000000000000E+00
  0.00000000000000000E+00  0.00000000000000000E+00  0.00000000000000000E+00
  0.00000000000000000E+00  0.00000000000000000E+00  0.00000000000000000E+00
  0.00000000000000000E+00  0.00000000000000000E+00  0.00000000000000000E+00
  0.00000000000000000E+00  0.00000000000000000E+00  0.00000000000000000E+00
  0.00000000000000000E+00  0.00000000000000000E+00  0.00000000000000000E+00
  0.00000000000000000E+00  0.00000000000000000E+00  0.00000000000000000E+00
  0.00000000000000000E+00  0.00000000000000000E+00  0.00000000000000000E+00
  0.00000000000000000E+00  0.00000000000000000E+00  0.00000000000000000E+00
  0.00000000000000000E+00  0.00000000000000000E+00  0.00000000000000000E+00
  0.00000000000000000E+00  0.00000000000000000E+00  0.00000000000000000E+00
  0.00000000000000000E+00  0.00000000000000000E+00  0.00000000000000000E+00
  0.00000000000000000E+00  0.00000000000000000E+00  0.00000000000000000E+00
  0.00000000000000000E+00  0.00000000000000000E+00  0.00000000000000000E+00
  0.00000000000000000E+00  0.00000000000000000E+00  0.00000000000000000E+00
  0.00000000000000000E+00  0.00000000000000000E+00  0.00000000000000000E+00
  0.00000000000000000E+00  0.00000000000000000E+00  0.00000000000000000E+00
  0.00000000000000000E+00  0.00000000000000000E+00  0.00000000000000000E+00
  0.00000000000000000E+00  0.00000000000000000E+00  0.00000000000000000E+00
  0.00000000000000000E+00  0.00000000000000000E+00  0.00000000000000000E+00
  0.00000000000000000E+00  0.00000000000000000E+00  0.00000000000000000E+00
  0.00000000000000000E+00  0.00000000000000000E+00  0.00000000000000000E+00
  0.00000000000000000E+00  0.00000000000000000E+00  0.00000000000000000E+00
  0.00000000000000000E+00  0.00000000000000000E+00  0.00000000000000000E+00
  0.00000000000000000E+00  0.00000000000000000E+00  0.00000000000000000E+00
  0.00000000000000000E+00  0.00000000000000000E+00  0.00000000000000000E+00
  0.00000000000000000E+00  0.00000000000000000E+00  0.00000000000000000E+00
  0.00000000000000000E+00  0.00000000000000000E+00  0.00000000000000000E+00
  0.00000000000000000E+00  0.00000000000000000E+00  0.00000000000000000E+00
  0.00000000000000000E+00  0.00000000000000000E+00  0.00000000000000000E+00
  0.00000000000000000E+00  0.00000000000000000E+00  0.00000000000000000E+00
  0.00000000000000000E+00  0.00000000000000000E+00  0.00000000000000000E+00
  0.00000000000000000E+00  0.00000000000000000E+00  0.00000000000000000E+00
  0.00000000000000000E+00  0.00000000000000000E+00  0.00000000000000000E+00
  0.00000000000000000E+00  0.00000000000000000E+00  0.00000000000000000E+00
  0.00000000000000000E+00  0.00000000000000000E+00  0.00000000000000000E+00
  0.00000000000000000E+00  0.00000000000000000E+00  0.00000000000000000E+00
  0.00000000000000000E+00  0.00000000000000000E+00  0.00000000000000000E+00
  0.00000000000000000E+00  0.00000000000000000E+00  0.00000000000000000E+00
  0.00000000000000000E+00  0.00000000000000000E+00  0.00000000000000000E+00
  0.00000000000000000E+00  0.00000000000000000E+00  0.00000000000000000E+00
  0.00000000000000000E+00  0.00000000000000000E+00  0.00000000000000000E+00
  0.00000000000000000E+00  0.00000000000000000E+00  0.00000000000000000E+00
  0.00000000000000000E+00  0.00000000000000000E+00  0.00000000000000000E+00
  0.00000000000000000E+00  0.00000000000000000E+00  0.00000000000000000E+00
  0.00000000000000000E+00  0.00000000000000000E+00  0.00000000000000000E+00
  0.00000000000000000E+00  0.00000000000000000E+00  0.00000000000000000E+00
  0.00000000000000000E+00  0.00000000000000000E+00  0.00000000000000000E+00
  0.00000000000000000E+00  0.00000000000000000E+00  0.00000000000000000E+00
  0.00000000000000000E+00  0.00000000000000000E+00  0.00000000000000000E+00
  0.00000000000000000E+00  0.00000000000000000E+00  0.00000000000000000E+00
  0.00000000000000000E+00  0.00000000000000000E+00  0.00000000000000000E+00
  0.00000000000000000E+00  0.00000000000000000E+00  0.00000000000000000E+00
  0.00000000000000000E+00  0.00000000000000000E+00  0.00000000000000000E+00
  0.00000000000000000E+00  0.00000000000000000E+00  0.00000000000000000E+00
  0.00000000000000000E+00  0.00000000000000000E+00  0.00000000000000000E+00
  0.00000000000000000E+00  0.00000000000000000E+00  0.00000000000000000E+00
  0.00000000000000000E+00  0.00000000000000000E+00  0.00000000000000000E+00
  0.00000000000000000E+00  0.00000000000000000E+00  0.00000000000000000E+00
  0.00000000000000000E+00  0.00000000000000000E+00  0.00000000000000000E+00
  0.00000000000000000E+00  0.00000000000000000E+00  0.00000000000000000E+00
  0.00000000000000000E+00  0.00000000000000000E+00  0.00000000000000000E+00
  0.00000000000000000E+00  0.00000000000000000E+00  0.00000000000000000E+00
  0.00000000000000000E+00  0.00000000000000000E+00  0.00000000000000000E+00
  0.00000000000000000E+00  0.00000000000000000E+00
                       </PP_QIJL.1.1.0>
 <PP_QIJL.1.2.0 type="real" size="   833" columns="3" first_index=" 1" second_index=" 2" composite_index=" 2" angular_momentum="0">
 -5.06461325576022889E-07 -5.19282449779221413E-07 -5.32428142015422876E-07
 -5.45906618749592722E-07 -5.59726304446729024E-07 -5.73895836837526438E-07
 -5.88424072316995223E-07 -6.03320091480048767E-07 -6.18593204797140283E-07
 -6.34252958433378414E-07 -6.50309140215340824E-07 -6.66771785748533230E-07
 -6.83651184689957004E-07 -7.00957887179477662E-07 -7.18702710433723836E-07
 -7.36896745507361551E-07 -7.55551364225034721E-07 -7.74678226289187606E-07
 -7.94289286567608059E-07 -8.14396802565424701E-07 -8.35013342086515479E-07
 -8.56151791088407038E-07 -8.77825361736599730E-07 -9.00047600662158734E-07
 -9.22832397428939574E-07 -9.46193993214639376E-07 -9.70146989712007556E-07
 -9.94706358255120145E-07 -1.01988744917680973E-06 -1.04570600140297387E-06
 -1.07217815228964782E-06 -1.09932044770928819E-06 -1.12714985239214340E-06
 -1.15568376052968376E-06 -1.18494000664616643E-06 -1.21493687674568010E-06
 -1.24569311974112134E-06 -1.27722795917269807E-06 -1.30956110522293607E-06
 -1.34271276703588700E-06 -1.37670366534825330E-06 -1.41155504544004954E-06
 -1.44728869041348501E-06 -1.48392693480743031E-06 -1.52149267855723447E-06
 -1.56000940130712017E-06 -1.59950117708567212E-06 -1.63999268935218701E-06
 -1.68150924642427562E-06 -1.72407679729598205E-06 -1.76772194785597266E-06
 -1.81247197751690705E-06 -1.85835485626503788E-06 -1.90539926214197995E-06
 -1.95363459916880907E-06 -2.00309101572362962E-06 -2.05379942338493990E-06
 -2.10579151625137943E-06 -2.15909979075085075E-06 -2.21375756595124765E-06
 -2.26979900438477959E-06 -2.32725913339998169E-06 -2.38617386705408420E-06
 -2.44658002855920181E-06 -2.50851537329723822E-06 -2.57201861241716401E-06
 -2.63712943702936925E-06 -2.70388854301286104E-06 -2.77233765645032414E-06
 -2.84251955970677510E-06 -2.91447811816855091E-06 -2.98825830765929222E-06
 -3.06390624254967186E-06 -3.14146920457860524E-06 -3.22099567240436561E-06
 -3.30253535190351284E-06 -3.38613920723672040E-06 -3.47185949270099406E-06
 -3.55974978538834560E-06 -3.64986501867105204E-06 -3.74226151653441542E-06
 -3.83699702877859828E-06 -3.93413076711168433E-06 -4.03372344215625231E-06
 -4.13583730139268782E-06 -4.24053616806285430E-06 -4.34788548105856182E-06
 -4.45795233581981007E-06 -4.57080552626817260E-06 -4.68651558780164706E-06
 -4.80515484137773534E-06 -4.92679743871237781E-06 -5.05151940862299605E-06
 -5.17939870454459250E-06 -5.31051525324856984E-06 -5.44495100479462543E-06
 -5.58278998374712279E-06 -5.72411834168776821E-06 -5.86902441105746418E-06
 -6.01759876036105578E-06 -6.16993425076924689E-06 -6.32612609415332682E-06
 -6.48627191258875886E-06 -6.65047179936485688E-06 -6.81882838153875211E-06
 -6.99144688407252287E-06 -7.16843519559380539E-06 -7.34990393582080045E-06
 -7.53596652469384835E-06 -7.72673925325678995E-06 -7.92234135633226565E-06
 -8.12289508703653618E-06 -8.32852579318025267E-06 -8.53936199560287848E-06
 -8.75553546848984909E-06 -8.97718132172239936E-06 -9.20443808531169997E-06
 -9.43744779596999873E-06 -9.67635608587275316E-06 -9.92131227366732489E-06
 -1.01724694577848837E-05 -1.04299846121140781E-05 -1.06940186840959689E-05
 -1.09647366953016386E-05 -1.12423078445552979E-05 -1.15269056136670931E-05
 -1.18187078758419540E-05 -1.21178970068319185E-05 -1.24246599989015528E-05
 -1.27391885776775479E-05 -1.30616793219552817E-05 -1.33923337865375432E-05
 -1.37313586281818078E-05 -1.40789657347347941E-05 -1.44353723575348322E-05
 -1.48008012471651746E-05 -1.51754807926423081E-05 -1.55596451641268627E-05
 -1.59535344592456501E-05 -1.63573948531162944E-05 -1.67714787521684150E-05
 -1.71960449518572688E-05 -1.76313587983683705E-05 -1.80776923544136313E-05
 -1.85353245692224079E-05 -1.90045414528348178E-05 -1.94856362548049259E-05
 -1.99789096474256834E-05 -2.04846699135890819E-05 -2.10032331394008532E-05
 -2.15349234116688229E-05 -2.20800730203868413E-05 -2.26390226663419763E-05
 -2.32121216739760473E-05 -2.37997282096313558E-05 -2.44022095053172841E-05
 -2.50199420881401197E-05 -2.56533120155370271E-05 -2.63027151164587860E-05
 -2.69685572386575641E-05 -2.76512545022296240E-05 -2.83512335595692443E-05
 -2.90689318619039289E-05 -2.98047979325683551E-05 -3.05592916471911420E-05
 -3.13328845209737017E-05 -3.21260600032289924E-05 -3.29393137793770516E-05
 -3.37731540805764804E-05 -3.46281020011861241E-05 -3.55046918242624666E-05
 -3.64034713552807991E-05 -3.73250022643072034E-05 -3.82698604368154549E-05
 -3.92386363333836969E-05 -4.02319353584835803E-05 -4.12503782385981432E-05
 -4.22946014099020954E-05 -4.33652574157444775E-05 -4.44630153141858776E-05
 -4.55885610958375759E-05 -4.67425981122702970E-05 -4.79258475152519406E-05
 -4.91390487070951317E-05 -5.03829598023891370E-05 -5.16583581014067557E-05
 -5.29660405754823059E-05 -5.43068243646554889E-05 -5.56815472879063571E-05
 -5.70910683662750632E-05 -5.85362683592229898E-05 -6.00180503145351314E-05
 -6.15373401321363001E-05 -6.30950871421529278E-05 -6.46922646975823580E-05
 -6.63298707819541875E-05 -6.80089286323320454E-05 -6.97304873780760329E-05
 -7.14956226957416690E-05 -7.33054374805219052E-05 -7.51610625346720013E-05
 -7.70636572733143923E-05 -7.90144104480822868E-05 -8.10145408890547441E-05
 -8.30652982654235544E-05 -8.51679638653834965E-05 -8.73238513957298816E-05
 -8.95343078016439686E-05 -9.18007141071888229E-05 -9.41244862770426489E-05
 -9.65070760999883200E-05 -9.89499720947109514E-05 -1.01454700438483671E-04
 -1.04022825919298259E-04 -1.06655952912030615E-04 -1.09355726379261155E-04
 -1.12123832897364370E-04 -1.14962001708498850E-04 -1.17872005799148731E-04
 -1.20855663005896042E-04 -1.23914837149104791E-04 -1.27051439195211843E-04
 -1.30267428448347647E-04 -1.33564813772028547E-04 -1.36945654841679550E-04
 -1.40412063428754948E-04 -1.43966204717251896E-04 -1.47610298653432772E-04
 -1.51346621329595532E-04 -1.55177506402744928E-04 -1.59105346549039779E-04
 -1.63132594954912372E-04 -1.67261766845786290E-04 -1.71495441053331983E-04
 -1.75836261622235393E-04 -1.80286939457464988E-04 -1.84850254013050930E-04
 -1.89529055023425101E-04 -1.94326264278383258E-04 -1.99244877442765912E-04
 -2.04287965921978894E-04 -2.09458678774502899E-04 -2.14760244672569461E-04
 -2.20195973912207325E-04 -2.25769260473899868E-04 -2.31483584135114078E-04
 -2.37342512636008383E-04 -2.43349703899640334E-04 -2.49508908308044945E-04
 -2.55823971035578572E-04 -2.62298834440954974E-04 -2.68937540519450613E-04
 -2.75744233416771014E-04 -2.82723162006126095E-04 -2.89878682530089553E-04
 -2.97215261308856639E-04 -3.04737477516562661E-04 -3.12450026027352181E-04
 -3.20357720332943585E-04 -3.28465495533469354E-04 -3.36778411403411426E-04
 -3.45301655534511445E-04 -3.54040546557560568E-04 -3.63000537445039523E-04
 -3.72187218896615683E-04 -3.81606322809552681E-04 -3.91263725836151312E-04
 -4.01165453030369605E-04 -4.11317681585848815E-04 -4.21726744667601217E-04
 -4.32399135339686647E-04 -4.43341510591256974E-04 -4.54560695463399121E-04
 -4.66063687279277611E-04 -4.77857659980127178E-04 -4.89949968569710270E-04
 -5.02348153669928137E-04 -5.15059946190312627E-04 -5.28093272114226755E-04
 -5.41456257404641168E-04 -5.55157233032427364E-04 -5.69204740130200421E-04
 -5.83607535274779997E-04 -5.98374595901446284E-04 -6.13515125853222182E-04
 -6.29038561068494891E-04 -6.44954575410375589E-04 -6.61273086641258278E-04
 -6.78004262546145044E-04 -6.95158527208373286E-04 -7.12746567441456882E-04
 -7.30779339380878195E-04 -7.49268075239701062E-04 -7.68224290232025989E-04
 -7.87659789668342884E-04 -8.07586676226987603E-04 -8.28017357405984159E-04
 -8.48964553159619467E-04 -8.70441303724252356E-04 -8.92460977637932282E-04
 -9.15037279958499255E-04 -9.38184260684986511E-04 -9.61916323387176898E-04
 -9.86248234048382570E-04 -1.01119513012659103E-03 -1.03677252983915610E-03
 -1.06299634167644763E-03 -1.08988287414990884E-03 -1.11744884578015148E-03
 -1.14571139533075923E-03 -1.17468809229375869E-03 -1.20439694763274738E-03
 -1.23485642478970959E-03 -1.26608545096182096E-03 -1.29810342865464118E-03
 -1.33093024751810879E-03 -1.36458629647220929E-03 -1.39909247612912137E-03
 -1.43447021151866909E-03 -1.47074146512425358E-03 -1.50792875023646991E-03
 -1.54605514463176095E-03 -1.58514430458408205E-03 -1.62522047921696551E-03
 -1.66630852520390752E-03 -1.70843392182509790E-03 -1.75162278638855799E-03
 -1.79590189002468430E-03 -1.84129867386233952E-03 -1.88784126559515711E-03
 -1.93555849644690657E-03 -1.98447991854486553E-03 -2.03463582271136423E-03
 -2.08605725668212574E-03 -2.13877604376107961E-03 -2.19282480192112619E-03
 -2.24823696336143210E-03 -2.30504679453189584E-03 -2.36328941663406077E-03
 -2.42300082660920580E-03 -2.48421791862399842E-03 -2.54697850606651864E-03
 -2.61132134406210931E-03 -2.67728615252030722E-03 -2.74491363972384278E-03
 -2.81424552647370138E-03 -2.88532457080080710E-03 -2.95819459325563899E-03
 -3.03290050278739272E-03 -3.10948832322822076E-03 -3.18800522039368057E-03
 -3.26849952981097440E-03 -3.35102078508725011E-03 -3.43561974693531525E-03
 -3.52234843286784033E-03 -3.61126014757188422E-03 -3.70240951397708511E-03
 -3.79585250503711863E-03 -3.89164647623380534E-03 -3.98985019881658957E-03
 -4.09052389379311460E-03 -4.19372926669103925E-03 -4.29952954309867005E-03
 -4.40798950499774432E-03 -4.51917552791003454E-03 -4.63315561887245667E-03
 -4.74999945524916516E-03 -4.86977842439596537E-03 -4.99256566420394187E-03
 -5.11843610452761451E-03 -5.24746650950877556E-03 -5.37973552082104782E-03
 -5.51532370185294721E-03 -5.65431358283236766E-03 -5.79678970690961168E-03
 -5.94283867723180599E-03 -6.09254920500698540E-03 -6.24601215856746342E-03
 -6.40332061346773635E-03 -6.56456990362560243E-03 -6.72985767350473777E-03
 -6.89928393136715438E-03 -7.07295110362347358E-03 -7.25096409026723850E-03
 -7.43343032141084714E-03 -7.62045981496852626E-03 -7.81216523546655970E-03
 -8.00866195398533022E-03 -8.21006810928768919E-03 -8.41650467011843123E-03
 -8.62809549866293615E-03 -8.84496741522098132E-03 -9.06725026409369549E-03
 -9.29507698065202767E-03 -9.52858365963971110E-03 -9.76790962472572077E-03
 -1.00131974992537526E-02 -1.02645932782357927E-02 -1.05222464016226872E-02
 -1.07863098287778250E-02 -1.10569401141935933E-02 -1.13342974845010470E-02
 -1.16185459166755680E-02 -1.19098532174719812E-02 -1.22083911041544237E-02
 -1.25143352863983006E-02 -1.28278655493940536E-02 -1.31491658382294086E-02
 -1.34784243433983368E-02 -1.38158335874673174E-02 -1.41615905129823701E-02
 -1.45158965714299402E-02 -1.48789578132920968E-02 -1.52509849792771598E-02
 -1.56321935924983377E-02 -1.60228040516629706E-02 -1.64230417253365887E-02
 -1.68331370470098038E-02 -1.72533256110699584E-02 -1.76838482697004272E-02
 -1.81249512303935448E-02 -1.85768861542371551E-02 -1.90399102549212509E-02
 -1.95142863981222076E-02 -2.00002832014979232E-02 -2.04981751351193814E-02
 -2.10082426219968706E-02 -2.15307721390112609E-02 -2.20660563179037178E-02
 -2.26143940460384711E-02 -2.31760905672954119E-02 -2.37514575825354506E-02
 -2.43408133494934231E-02 -2.49444827824101302E-02 -2.55627975506464433E-02
 -2.61960961763600883E-02 -2.68447241313638368E-02 -2.75090339322871143E-02
 -2.81893852343965204E-02 -2.88861449238318191E-02 -2.95996872074054812E-02
 -3.03303937005694156E-02 -3.10786535127919282E-02 -3.18448633297498118E-02
 -3.26294274929991718E-02 -3.34327580758234655E-02 -3.42552749551928576E-02
 -3.50974058801512279E-02 -3.59595865350215496E-02 -3.68422605980025103E-02
 -3.77458797946915656E-02 -3.86709039450514117E-02 -3.96178010048728949E-02
 -4.05870471002001201E-02 -4.15791265539535090E-02 -4.25945319056690239E-02
 -4.36337639219292195E-02 -4.46973315979002431E-02 -4.57857521498133760E-02
 -4.68995509958772608E-02 -4.80392617270610570E-02 -4.92054260658398787E-02
 -5.03985938113962473E-02 -5.16193227727793427E-02 -5.28681786865093234E-02
 -5.41457351190642727E-02 -5.54525733541170948E-02 -5.67892822608264125E-02
 -5.81564581452755289E-02 -5.95547045821732401E-02 -6.09846322248572686E-02
 -6.24468585955688105E-02 -6.39420078508573658E-02 -6.54707105232172348E-02
 -6.70336032380717955E-02 -6.86313284012941005E-02 -7.02645338604294817E-02
 -7.19338725346013313E-02 -7.36400020116613901E-02 -7.53835841143239566E-02
 -7.71652844280925204E-02 -7.89857717938150655E-02 -8.08457177615762024E-02
 -8.27457960009868598E-02 -8.46866816719610699E-02 -8.66690507475252891E-02
 -8.86935792896510755E-02 -9.07609426775426165E-02 -9.28718147799140331E-02
 -9.50268670765445217E-02 -9.72267677209900927E-02 -9.94721805422452282E-02
 -1.01763763987951644E-01 -1.04102169997684124E-01 -1.06488042811513348E-01
 -1.08922017707391239E-01 -1.11404719661228752E-01 -1.13936761935240105E-01
 -1.16518744581009415E-01 -1.19151252861252402E-01 -1.21834855586331003E-01
 -1.24570103355481812E-01 -1.27357526710574515E-01 -1.30197634188008005E-01
 -1.33090910270636159E-01 -1.36037813238653493E-01 -1.39038772906155794E-01
 -1.42094188252434583E-01 -1.45204424934041620E-01 -1.48369812677081714E-01
 -1.51590642551414190E-01 -1.54867164111454209E-01 -1.58199582412919176E-01
 -1.61588054893062466E-01 -1.65032688111823866E-01 -1.68533534357661802E-01
 -1.72090588102630671E-01 -1.75703782315444035E-01 -1.79372984622502701E-01
 -1.83097993313584395E-01 -1.86878533196763258E-01 -1.90714251289837627E-01
 -1.94604712355433945E-01 -1.98549394273216995E-01 -2.02547683247433136E-01
 -2.06598868853179518E-01 -2.10702138915580539E-01 -2.14856574226167246E-01
 -2.19061143094777006E-01 -2.23314695740061769E-01 -2.27615958517948691E-01
 -2.31963527995349361E-01 -2.36355864868327242E-01 -2.40791287730477532E-01
 -2.45267966703777263E-01 -2.49783916923244892E-01 -2.54336991904969723E-01
 -2.58924876787542002E-01 -2.63545081464891751E-01 -2.68194933636773325E-01
 -2.72871571755157583E-01 -2.77571937931556656E-01 -2.82292770778612589E-01
 -2.87030598225216649E-01 -2.91781730349421786E-01 -2.96542252188590760E-01
 -3.01308016645522758E-01 -3.06074637434145480E-01 -3.10837482141362531E-01
 -3.15591665467985116E-01 -3.20332042584493770E-01 -3.25053202797710272E-01
 -3.29749463421113109E-01 -3.34414863989783429E-01 -3.39043160894138551E-01
 -3.43627822343883726E-01 -3.48162023963084766E-01 -3.52638644826835213E-01
 -3.57050264187517175E-01 -3.61389158953312861E-01 -3.65647301815918480E-01
 -3.69816360459455651E-01 -3.73887697536701313E-01 -3.77852371829436096E-01
 -3.81701140596469146E-01 -3.85424463021717567E-01 -3.89012505339435266E-01
 -3.92455147149907813E-01 -3.95741989591433030E-01 -3.98862365230544358E-01
 -4.01805349660733835E-01 -4.04559775513921305E-01 -4.07114248183937488E-01
 -4.09457164264098339E-01 -4.11576732296261460E-01 -4.13460996006445092E-01
 -4.15097860779344241E-01 -4.16475122449875557E-01 -4.17580499814280859E-01
 -4.18401670037891249E-01 -4.18926307472087811E-01 -4.19142126512580315E-01
 -4.19036927413144966E-01 -4.18598646854249024E-01 -4.17815411860698926E-01
 -4.16675598095037125E-01 -4.15167892766923674E-01 -4.13281361054756990E-01
 -4.11005518105244272E-01 -4.08330404507188494E-01 -4.05246666918821663E-01
 -4.01745643344026904E-01 -3.97819452172411381E-01 -3.93461086994806253E-01
 -3.88664514413512796E-01 -3.83424777160285224E-01 -3.77738100928761922E-01
 -3.71602004524632601E-01 -3.65015414755181289E-01 -3.57978782855156774E-01
 -3.50494205054666885E-01 -3.42565544455663340E-01 -3.34198554446724361E-01
 -3.25401003848618087E-01 -3.16182800643689976E-01 -3.06556116433305825E-01
 -2.96535507816116928E-01 -2.86138035277605951E-01 -2.75383378142211366E-01
 -2.64293942975661167E-01 -2.52894966082186978E-01 -2.41214606160399109E-01
 -2.29284027121857220E-01 -2.17137468305291265E-01 -2.04812300074584758E-01
 -1.92349063066089454E-01 -1.79791488380398545E-01 -1.67186496452153999E-01
 -1.54584172121079388E-01 -1.42037713576663505E-01 -1.29603351284014984E-01
 -1.17340236671746465E-01 -1.05310294254104028E-01 -9.35780380609435025E-02
 -8.22103474773034776E-02 -7.12761989706687804E-02 -6.08463559996097123E-02
 -5.09930063344566364E-02 -4.17893547969453022E-02 -3.33091609050216314E-02
 -2.56262237427180815E-02 -1.88138167043564140E-02 -1.29440599792467800E-02
 -8.08724850119995828E-03 -4.31111900187961406E-03 -1.68004776457275737E-03
 -2.52986576122272359E-04  1.06373445393826985E-06 -1.04280789803230698E-07
  0.00000000000000000E+00  0.00000000000000000E+00  0.00000000000000000E+00
  0.00000000000000000E+00  0.00000000000000000E+00  0.00000000000000000E+00
  0.00000000000000000E+00  0.00000000000000000E+00  0.00000000000000000E+00
  0.00000000000000000E+00  0.00000000000000000E+00  0.00000000000000000E+00
  0.00000000000000000E+00  0.00000000000000000E+00  0.00000000000000000E+00
  0.00000000000000000E+00  0.00000000000000000E+00  0.00000000000000000E+00
  0.00000000000000000E+00  0.00000000000000000E+00  0.00000000000000000E+00
  0.00000000000000000E+00  0.00000000000000000E+00  0.00000000000000000E+00
  0.00000000000000000E+00  0.00000000000000000E+00  0.00000000000000000E+00
  0.00000000000000000E+00  0.00000000000000000E+00  0.00000000000000000E+00
  0.00000000000000000E+00  0.00000000000000000E+00  0.00000000000000000E+00
  0.00000000000000000E+00  0.00000000000000000E+00  0.00000000000000000E+00
  0.00000000000000000E+00  0.00000000000000000E+00  0.00000000000000000E+00
  0.00000000000000000E+00  0.00000000000000000E+00  0.00000000000000000E+00
  0.00000000000000000E+00  0.00000000000000000E+00  0.00000000000000000E+00
  0.00000000000000000E+00  0.00000000000000000E+00  0.00000000000000000E+00
  0.00000000000000000E+00  0.00000000000000000E+00  0.00000000000000000E+00
  0.00000000000000000E+00  0.00000000000000000E+00  0.00000000000000000E+00
  0.00000000000000000E+00  0.00000000000000000E+00  0.00000000000000000E+00
  0.00000000000000000E+00  0.00000000000000000E+00  0.00000000000000000E+00
  0.00000000000000000E+00  0.00000000000000000E+00  0.00000000000000000E+00
  0.00000000000000000E+00  0.00000000000000000E+00  0.00000000000000000E+00
  0.00000000000000000E+00  0.00000000000000000E+00  0.00000000000000000E+00
  0.00000000000000000E+00  0.00000000000000000E+00  0.00000000000000000E+00
  0.00000000000000000E+00  0.00000000000000000E+00  0.00000000000000000E+00
  0.00000000000000000E+00  0.00000000000000000E+00  0.00000000000000000E+00
  0.00000000000000000E+00  0.00000000000000000E+00  0.00000000000000000E+00
  0.00000000000000000E+00  0.00000000000000000E+00  0.00000000000000000E+00
  0.00000000000000000E+00  0.00000000000000000E+00  0.00000000000000000E+00
  0.00000000000000000E+00  0.00000000000000000E+00  0.00000000000000000E+00
  0.00000000000000000E+00  0.00000000000000000E+00  0.00000000000000000E+00
  0.00000000000000000E+00  0.00000000000000000E+00  0.00000000000000000E+00
  0.00000000000000000E+00  0.00000000000000000E+00  0.00000000000000000E+00
  0.00000000000000000E+00  0.00000000000000000E+00  0.00000000000000000E+00
  0.00000000000000000E+00  0.00000000000000000E+00  0.00000000000000000E+00
  0.00000000000000000E+00  0.00000000000000000E+00  0.00000000000000000E+00
  0.00000000000000000E+00  0.00000000000000000E+00  0.00000000000000000E+00
  0.00000000000000000E+00  0.00000000000000000E+00  0.00000000000000000E+00
  0.00000000000000000E+00  0.00000000000000000E+00  0.00000000000000000E+00
  0.00000000000000000E+00  0.00000000000000000E+00  0.00000000000000000E+00
  0.00000000000000000E+00  0.00000000000000000E+00  0.00000000000000000E+00
  0.00000000000000000E+00  0.00000000000000000E+00  0.00000000000000000E+00
  0.00000000000000000E+00  0.00000000000000000E+00  0.00000000000000000E+00
  0.00000000000000000E+00  0.00000000000000000E+00  0.00000000000000000E+00
  0.00000000000000000E+00  0.00000000000000000E+00  0.00000000000000000E+00
  0.00000000000000000E+00  0.00000000000000000E+00  0.00000000000000000E+00
  0.00000000000000000E+00  0.00000000000000000E+00  0.00000000000000000E+00
  0.00000000000000000E+00  0.00000000000000000E+00  0.00000000000000000E+00
  0.00000000000000000E+00  0.00000000000000000E+00  0.00000000000000000E+00
  0.00000000000000000E+00  0.00000000000000000E+00  0.00000000000000000E+00
  0.00000000000000000E+00  0.00000000000000000E+00  0.00000000000000000E+00
  0.00000000000000000E+00  0.00000000000000000E+00  0.00000000000000000E+00
  0.00000000000000000E+00  0.00000000000000000E+00  0.00000000000000000E+00
  0.00000000000000000E+00  0.00000000000000000E+00  0.00000000000000000E+00
  0.00000000000000000E+00  0.00000000000000000E+00  0.00000000000000000E+00
  0.00000000000000000E+00  0.00000000000000000E+00  0.00000000000000000E+00
  0.00000000000000000E+00  0.00000000000000000E+00  0.00000000000000000E+00
  0.00000000000000000E+00  0.00000000000000000E+00  0.00000000000000000E+00
  0.00000000000000000E+00  0.00000000000000000E+00  0.00000000000000000E+00
  0.00000000000000000E+00  0.00000000000000000E+00  0.00000000000000000E+00
  0.00000000000000000E+00  0.00000000000000000E+00  0.00000000000000000E+00
  0.00000000000000000E+00  0.00000000000000000E+00  0.00000000000000000E+00
  0.00000000000000000E+00  0.00000000000000000E+00  0.00000000000000000E+00
  0.00000000000000000E+00  0.00000000000000000E+00  0.00000000000000000E+00
  0.00000000000000000E+00  0.00000000000000000E+00
                       </PP_QIJL.1.2.0>
 <PP_QIJL.1.3.1 type="real" size="   833" columns="3" first_index=" 1" second_index=" 3" composite_index=" 4" angular_momentum="1">
  3.31985388337413456E-11  3.44671209513400572E-11  3.57841781024511006E-11
  3.71515626134550810E-11  3.85711975917097912E-11  4.00450796302802548E-11
  4.15752816159015168E-11  4.31639556443460623E-11  4.48133360471628060E-11
  4.65257425340021907E-11  4.83035834551576420E-11  5.01493591886248717E-11
  5.20656656566804121E-11  5.40551979768384248E-11  5.61207542522116903E-11
  5.82652395068858306E-11  6.04916697714757012E-11  6.28031763249595486E-11
  6.52030100985156189E-11  6.76945462476260563E-11  7.02812888989973984E-11
  7.29668760786794689E-11  7.57550848287408281E-11  7.86498365191958898E-11
  8.16552023631665281E-11  8.47754091425638770E-11  8.80148451527341441E-11
  9.13780663741402214E-11  9.48698028799363372E-11  9.84949654883789793E-11
  1.02258652669398588E-10  1.06166157715161298E-10  1.10222976184523206E-10
  1.14434813632076603E-10  1.18807593632400233E-10  1.23347466111064472E-10
  1.28060815993854592E-10  1.32954272186597239E-10  1.38034716898054943E-10
  1.43309295319079991E-10  1.48785425671673423E-10  1.54470809641906895E-10
  1.60373443211722760E-10  1.66501627904323563E-10  1.72863982459656792E-10
  1.79469454955600516E-10  1.86327335392749398E-10  1.93447268759733664E-10
  2.00839268597989769E-10  2.08513731084854515E-10  2.16481449654591201E-10
  2.24753630178480801E-10  2.33341906724533697E-10  2.42258357919754635E-10
  2.51515523937507024E-10  2.61126424133831992E-10  2.71104575358047077E-10
  2.81464010962628806E-10  2.92219300539691855E-10  3.03385570411735341E-10
  3.14978524905019273E-10  3.27014468436174364E-10  3.39510328442695051E-10
  3.52483679189387206E-10  3.65952766484843458E-10  3.79936533342247391E-10
  3.94454646620499635E-10  4.09527524683637607E-10  4.25176366117099469E-10
  4.41423179541064389E-10  4.58290814563168853E-10  4.75802993914057599E-10
  4.93984346810696193E-10  5.12860443594481941E-10  5.32457831693175528E-10
  5.52804072956852151E-10  5.73927782420414057E-10  5.95858668547288883E-10
  6.18627575011042980E-10  6.42266524073418773E-10  6.66808761619830006E-10
  6.92288803915694995E-10  7.18742486149534394E-10  7.46207012830874034E-10
  7.74721010113887612E-10  8.04324580120321797E-10  8.35059357338178337E-10
  8.66968567175531926E-10  9.00097086751676507E-10  9.34491508011153458E-10
  9.70200203249398175E-10  1.00727339314216300E-09  1.04576321737442346E-09
  1.08572380796809748E-09  1.12721136541164277E-09  1.17028423769858841E-09
  1.21500300238621048E-09  1.26143055178969648E-09  1.30963218143162769E-09
  1.35967568187117787E-09  1.41163143404211420E-09  1.46557250823376089E-09
  1.52157476685402813E-09  1.57971697111905496E-09  1.64008089181952109E-09
  1.70275142431932194E-09  1.76781670794841530E-09  1.83536824995766748E-09
  1.90550105421003955E-09  1.97831375478908615E-09  2.05390875471260554E-09
  2.13239236994657605E-09  2.21387497892184140E-09  2.29847117776380459E-09
  2.38629994145345525E-09  2.47748479114627468E-09  2.57215396788438607E-09
  2.67044061294619086E-09  2.77248295508707312E-09  2.87842450493452098E-09
  2.98841425681093292E-09  3.10260689826801754E-09  3.22116302762732767E-09
  3.34424937983288680E-09  3.47203906093348768E-09  3.60471179152428663E-09
  3.74245415949012707E-09  3.88545988240592949E-09  4.03393007996314775E-09
  4.18807355680534920E-09  4.34810709617049673E-09  4.51425576475305364E-09
  4.68675322921436731E-09  4.86584208478642352E-09  5.05177419643086653E-09
  5.24481105303355930E-09  5.44522413513205593E-09  5.65329529669342580E-09
  5.86931716147895129E-09  6.09359353455277609E-09  6.32643982951367383E-09
  6.56818351205080168E-09  6.81916456044652688E-09  7.07973594367367857E-09
  7.35026411775885583E-09  7.63112954111192917E-09  7.92272720954468647E-09
  8.22546721173055687E-09  8.53977530588525461E-09  8.86609351848294032E-09
  9.20488076584747648E-09  9.55661349949042699E-09  9.92178637610485067E-09
  1.03009129531607980E-08  1.06945264110742994E-08  1.11031803029647541E-08
  1.15274493330629307E-08  1.19679301648569696E-08  1.24252422601086871E-08
  1.29000287499327152E-08  1.33929573391526496E-08  1.39047212452018255E-08
  1.44360401729062505E-08  1.49876613264999993E-08  1.55603604603036942E-08
  1.61549429695540258E-08  1.67722450228907923E-08  1.74131347381247578E-08
  1.80785134029167080E-08  1.87693167420866957E-08  1.94865162333537279E-08
  2.02311204733173650E-08  2.10041765956506090E-08  2.18067717434455769E-08
  2.26400345978273512E-08  2.35051369649495070E-08  2.44032954236232444E-08
  2.53357730358874788E-08  2.63038811229206242E-08  2.73089811088027358E-08
  2.83524864346991390E-08  2.94358645461797246E-08  3.05606389564414024E-08
  3.17283913883563215E-08  3.29407639983388769E-08  3.41994616851623624E-08
  3.55062544869800486E-08  3.68629800698866743E-08  3.82715463115753069E-08
  3.97339339836346443E-08  4.12521995363619665E-08  4.28284779898901902E-08
  4.44649859357919614E-08  4.61640246533145568E-08  4.79279833446293723E-08
  4.97593424936985057E-08  5.16606773533716650E-08  5.36346615657272286E-08
  5.56840709206692668E-08  5.78117872580535671E-08  6.00208025189087038E-08
  6.23142229513307967E-08  6.46952734770247185E-08  6.71673022246493161E-08
  6.97337852362432150E-08  7.23983313534178604E-08  7.51646872901840525E-08
  7.80367428994611266E-08  8.10185366407246694E-08  8.41142612564935823E-08
  8.73282696655539770E-08  9.06650810812146184E-08  9.41293873632561903E-08
  9.77260596124128942E-08  1.01460155016637993E-07  1.05336923958825319E-07
  1.09361817395949397E-07  1.13540494519946795E-07  1.17878830711088327E-07
  1.22382925795064390E-07  1.27059112615344484E-07  1.31913965932815393E-07
  1.36954311665191398E-07  1.42187236479190239E-07  1.47620097748945025E-07
  1.53260533894584303E-07  1.59116475115496102E-07  1.65196154533327805E-07
  1.71508119760389085E-07  1.78061244909671517E-07  1.84864743063311956E-07
  1.91928179216994552E-07  1.99261483718448878E-07  2.06874966218881612E-07
  2.14779330156944061E-07  2.22985687795506674E-07  2.31505575832324566E-07
  2.40350971606493411E-07  2.49534309923405831E-07  2.59068500521792374E-07
  2.68966946207331634E-07  2.79243561678257455E-07  2.89912793069328588E-07
  3.00989638241545958E-07  3.12489667846053166E-07  3.24429047191721287E-07
  3.36824558947064559E-07  3.49693626708270608E-07  3.63054339466364458E-07
  3.76925477007768488E-07  3.91326536283814197E-07  4.06277758786151636E-07
  4.21800158966351854E-07  4.37915553739500270E-07  4.54646593113069410E-07
  4.72016791983930168E-07  4.90050563148003657E-07  5.08773251568723924E-07
  5.28211169952261910E-07  5.48391635679262988E-07  5.69343009144742205E-07
  5.91094733559764156E-07  6.13677376270530290E-07  6.37122671652657922E-07
  6.61463565640587946E-07  6.86734261954343135E-07  7.12970270088251024E-07
  7.40208455128636342E-07  7.68487089470097247E-07  7.97845906502570256E-07
  8.28326156344139625E-07  8.59970663697417190E-07  8.92823887910210370E-07
  9.26931985324324101E-07  9.62342873999462951E-07  9.99106300902516440E-07
  1.03727391165595112E-06  1.07689932294252330E-06  1.11803819766727762E-06
  1.16074832298157621E-06  1.20508969127784279E-06  1.25112458426790466E-06
  1.29891766026196068E-06  1.34853604476973629E-06  1.40004942454995591E-06
  1.45353014523897459E-06  1.50905331269443268E-06  1.56669689819483276E-06
  1.62654184764136539E-06  1.68867219491376978E-06  1.75317517953769997E-06
  1.82014136882715783E-06  1.88966478467151145E-06  1.96184303514319976E-06
  2.03677745110860929E-06  2.11457322803190384E-06  2.19533957316846834E-06
  2.27918985835181765E-06  2.36624177858586816E-06  2.45661751666224924E-06
  2.55044391403057876E-06  2.64785264815833487E-06  2.74898041662529578E-06
  2.85396912820777289E-06  2.96296610121702298E-06  3.07612426936523163E-06
  3.19360239544379033E-06  3.31556529310876481E-06  3.44218405707969386E-06
  3.57363630206840781E-06  3.71010641076885225E-06  3.85178579124952059E-06
  3.99887314410181414E-06  4.15157473971261659E-06  4.31010470604250618E-06
  4.47468532730373960E-06  4.64554735395117900E-06  4.82293032441214030E-06
  5.00708289899427469E-06  5.19826320643049221E-06  5.39673920353504482E-06
  5.60278904846197266E-06  5.81670148808420612E-06  6.03877626001723327E-06
  6.26932450983718886E-06  6.50866922406300676E-06  6.75714567949003933E-06
  7.01510190949984347E-06  7.28289918797411996E-06  7.56091253147007590E-06
  7.84953122033974083E-06  8.14915933949817209E-06  8.46021633959390561E-06
  8.78313761932701317E-06  9.11837512970516986E-06  9.46639800104915963E-06
  9.82769319360857382E-06  1.02027661726775481E-05  1.05921416090999645E-05
  1.09963641061112700E-05  1.14159989534891323E-05  1.18516329100698839E-05
  1.23038750156462579E-05  1.27733574333354975E-05  1.32607363235328012E-05
  1.37666927506779042E-05  1.42919336240153621E-05  1.48371926735881983E-05
  1.54032314627487764E-05  1.59908404386120938E-05  1.66008400218145151E-05
  1.72340817369924165E-05  1.78914493854585178E-05  1.85738602617395359E-05
  1.92822664155241083E-05  2.00176559606417834E-05  2.07810544327824287E-05
  2.15735261979025808E-05  2.23961759130419088E-05  2.32501500414183929E-05
  2.41366384238218858E-05  2.50568759085227879E-05  2.60121440416186232E-05
  2.70037728199660710E-05  2.80331425091752546E-05  2.91016855290200229E-05
  3.02108884084934223E-05  3.13622938130231010E-05  3.25575026468294054E-05
  3.37981762328059336E-05  3.50860385725677837E-05  3.64228786898628055E-05
  3.78105530604183976E-05  3.92509881308881876E-05  4.07461829301266121E-05
  4.22982117767041924E-05  4.39092270854842762E-05  4.55814622765635824E-05
  4.73172347909388760E-05  4.91189492164481793E-05  5.09891005272501552E-05
  5.29302774413487813E-05  5.49451659008428443E-05  5.70365526781164281E-05
  5.92073291124925593E-05  6.14604949831940923E-05  6.37991625220227666E-05
  6.62265605702449123E-05  6.87460388864341750E-05  7.13610726093610252E-05
  7.40752668802540867E-05  7.68923616318534995E-05  7.98162365494677945E-05
  8.28509162080705470E-05  8.60005753933986480E-05  8.92695446136680893E-05
  9.26623158056028208E-05  9.61835482432145091E-05  9.98380746575328298E-05
  1.03630907570607584E-04  1.07567245852704076E-04  1.11652481512585346E-04
  1.15892206723766937E-04  1.20292221096246284E-04  1.24858539205351311E-04
  1.29597398380034974E-04  1.34515266760906532E-04  1.39618851641400864E-04
  1.44915108093632966E-04  1.50411247890386420E-04  1.56114748738305761E-04
  1.62033363822724211E-04  1.68175131677357340E-04  1.74548386395281883E-04
  1.81161768180135979E-04  1.88024234253492324E-04  1.95145070135450239E-04
  2.02533901295585061E-04  2.10200705194241611E-04  2.18155823730467775E-04
  2.26409976091962147E-04  2.34974272032671742E-04  2.43860225591335203E-04
  2.53079769245331517E-04  2.62645268532745997E-04  2.72569537149718055E-04
  2.82865852518426062E-04  2.93547971866836208E-04  3.04630148817036618E-04
  3.16127150482572615E-04  3.28054275122809504E-04  3.40427370337181791E-04
  3.53262851811638552E-04  3.66577722666033010E-04  3.80389593370919043E-04
  3.94716702265854715E-04  4.09577936717297423E-04  4.24992854875068209E-04
  4.40981708085399408E-04  4.57565463973152650E-04  4.74765830154097359E-04
  4.92605278661646618E-04  5.11107071059796404E-04  5.30295284225457369E-04
  5.50194836897199163E-04  5.70831516914426461E-04  5.92232009179961740E-04
  6.14423924419370271E-04  6.37435828630714715E-04  6.61297273323457218E-04
  6.86038826552041363E-04  7.11692104646855297E-04  7.38289804798685856E-04
  7.65865738398044654E-04  7.94454865103464553E-04  8.24093327794359282E-04
  8.54818488213433792E-04  8.86668963402322831E-04  9.19684662982145026E-04
  9.53906827065790011E-04  9.89378065033504148E-04  1.02614239503111943E-03
  1.06424528408621886E-03  1.10373368910221059E-03  1.14465609839207528E-03
  1.18706257388498035E-03  1.23100479408542259E-03  1.27653609740576357E-03
  1.32371152623671109E-03  1.37258787148539381E-03  1.42322371741444680E-03
  1.47567948716407506E-03  1.53001748836138654E-03  1.58630195908034295E-03
  1.64459911416057125E-03  1.70497719130011452E-03  1.76750649752654043E-03
  1.83225945543349683E-03  1.89931064908685780E-03  1.96873687003853819E-03
  2.04061716244341006E-03  2.11503286789645499E-03  2.19206766962828838E-03
  2.27180763536766195E-03  2.35434125977895727E-03  2.43975950516509129E-03
  2.52815584078902372E-03  2.61962628094530641E-03  2.71426942036000381E-03
  2.81218646817493452E-03  2.91348127915308508E-03  3.01826038185319797E-03
  3.12663300460889245E-03  3.23871109709555514E-03  3.35460934888493888E-03
  3.47444520386237365E-03  3.59833886931460551E-03  3.72641332137139611E-03
  3.85879430379477495E-03  3.99561032140211773E-03  4.13699262752729308E-03
  4.28307520309372317E-03  4.43399472988664257E-03  4.58989055431508353E-03
  4.75090464252550439E-03  4.91718152709148294E-03  5.08886824135551096E-03
  5.26611424491190208E-03  5.44907133595382096E-03  5.63789355058233552E-03
  5.83273705041824179E-03  6.03375999282445251E-03  6.24112238814565536E-03
  6.45498593923265335E-03  6.67551386226983290E-03  6.90287069165662279E-03
  7.13722206119625242E-03  7.37873446698798178E-03  7.62757500689499081E-03
  7.88391109426919701E-03  8.14791015038685007E-03  8.41973926548996929E-03
  8.69956483498557018E-03  8.98755216526550549E-03  9.28386504533575824E-03
  9.58866529070297874E-03  9.90211224674473166E-03  1.02243622595781392E-02
  1.05555681083660969E-02  1.08958783937779975E-02  1.12454368913160307E-02
  1.16043818537945754E-02  1.19728452729373162E-02  1.23509520932760190E-02
  1.27388193719013380E-02  1.31365553952360881E-02  1.35442587340586906E-02
  1.39620172493706302E-02  1.43899070412006509E-02  1.48279913334628480E-02
  1.52763193085263382E-02  1.57349248699047324E-02  1.62038253490972770E-02
  1.66830201472367330E-02  1.71724893055401479E-02  1.76721920204323188E-02
  1.81820650798792255E-02  1.87020212411444335E-02  1.92319475390850016E-02
  1.97717035218327626E-02  2.03211194312397647E-02  2.08799943049021268E-02
  2.14480940244234676E-02  2.20251492981883810E-02  2.26108535808245588E-02
  2.32048609471130103E-02  2.38067839013584720E-02  2.44161911504339191E-02
  2.50326053303936112E-02  2.56555006965366664E-02  2.62843007938762981E-02
  2.69183760993580261E-02  2.75570416646006809E-02  2.81995547564439925E-02
  2.88451125137047619E-02  2.94928496361615659E-02  3.01418361156189640E-02
  3.07910750323696011E-02  3.14395004327021194E-02  3.20859753110798590E-02
  3.27292897153154266E-02  3.33681590116766055E-02  3.40012223185746990E-02
  3.46270411606187933E-02  3.52440983608108063E-02  3.58507972020105994E-02
  3.64454609262526916E-02  3.70263325555390682E-02  3.75915751460681805E-02
  3.81392724651028261E-02  3.86674301571754905E-02  3.91739774923612477E-02
  3.96567696491897173E-02  4.01135907297732464E-02  4.05421574311594576E-02
  4.09401235143750791E-02  4.13050851573506378E-02  4.16345871206017445E-02
  4.19261300240985277E-02  4.21771785462582358E-02  4.23851708158790655E-02
  4.25475290113813201E-02  4.26616711046549774E-02  4.27250241329369951E-02
  4.27350386503124319E-02  4.26892048148331885E-02  4.25850699496840082E-02
  4.24202575891584333E-02  4.21924884014682408E-02  4.18996024640739678E-02
  4.15395835527420446E-02  4.11105849798736114E-02  4.06109571551434637E-02
  4.00392771100902753E-02  3.93943793303821524E-02  3.86753886928946911E-02
  3.78817546349299455E-02  3.70132869591834474E-02  3.60701931406592347E-02
  3.50531164547399146E-02  3.39631756584036978E-02  3.28020049291714161E-02
  3.15717946576776834E-02  3.02753323730735359E-02  2.89160432235854338E-02
  2.74980303448007501E-02  2.60261135531568745E-02  2.45058668956173523E-02
  2.29436537149495003E-02  2.13466587789666838E-02  1.97229170641207291E-02
  1.80813376937086386E-02  1.64317229829311733E-02  1.47847809851559143E-02
  1.31521309366083201E-02  1.15463004311067950E-02  9.98071319835182151E-03
  8.46966630993500023E-03  7.02829578572423432E-03  5.67252915462844887E-03
  4.41902380242338924E-03  3.28509031552375692E-03  2.28859847689486841E-03
  1.44786662090271956E-03  7.81531455712786540E-04  3.08394552193723447E-04
  4.70211719175168868E-05 -1.99280875321554240E-07  1.95360477366061309E-08
  0.00000000000000000E+00  0.00000000000000000E+00  0.00000000000000000E+00
  0.00000000000000000E+00  0.00000000000000000E+00  0.00000000000000000E+00
  0.00000000000000000E+00  0.00000000000000000E+00  0.00000000000000000E+00
  0.00000000000000000E+00  0.00000000000000000E+00  0.00000000000000000E+00
  0.00000000000000000E+00  0.00000000000000000E+00  0.00000000000000000E+00
  0.00000000000000000E+00  0.00000000000000000E+00  0.00000000000000000E+00
  0.00000000000000000E+00  0.00000000000000000E+00  0.00000000000000000E+00
  0.00000000000000000E+00  0.00000000000000000E+00  0.00000000000000000E+00
  0.00000000000000000E+00  0.00000000000000000E+00  0.00000000000000000E+00
  0.00000000000000000E+00  0.00000000000000000E+00  0.00000000000000000E+00
  0.00000000000000000E+00  0.00000000000000000E+00  0.00000000000000000E+00
  0.00000000000000000E+00  0.00000000000000000E+00  0.00000000000000000E+00
  0.00000000000000000E+00  0.00000000000000000E+00  0.00000000000000000E+00
  0.00000000000000000E+00  0.00000000000000000E+00  0.00000000000000000E+00
  0.00000000000000000E+00  0.00000000000000000E+00  0.00000000000000000E+00
  0.00000000000000000E+00  0.00000000000000000E+00  0.00000000000000000E+00
  0.00000000000000000E+00  0.00000000000000000E+00  0.00000000000000000E+00
  0.00000000000000000E+00  0.00000000000000000E+00  0.00000000000000000E+00
  0.00000000000000000E+00  0.00000000000000000E+00  0.00000000000000000E+00
  0.00000000000000000E+00  0.00000000000000000E+00  0.00000000000000000E+00
  0.00000000000000000E+00  0.00000000000000000E+00  0.00000000000000000E+00
  0.00000000000000000E+00  0.00000000000000000E+00  0.00000000000000000E+00
  0.00000000000000000E+00  0.00000000000000000E+00  0.00000000000000000E+00
  0.00000000000000000E+00  0.00000000000000000E+00  0.00000000000000000E+00
  0.00000000000000000E+00  0.00000000000000000E+00  0.00000000000000000E+00
  0.00000000000000000E+00  0.00000000000000000E+00  0.00000000000000000E+00
  0.00000000000000000E+00  0.00000000000000000E+00  0.00000000000000000E+00
  0.00000000000000000E+00  0.00000000000000000E+00  0.00000000000000000E+00
  0.00000000000000000E+00  0.00000000000000000E+00  0.00000000000000000E+00
  0.00000000000000000E+00  0.00000000000000000E+00  0.00000000000000000E+00
  0.00000000000000000E+00  0.00000000000000000E+00  0.00000000000000000E+00
  0.00000000000000000E+00  0.00000000000000000E+00  0.00000000000000000E+00
  0.00000000000000000E+00  0.00000000000000000E+00  0.00000000000000000E+00
  0.00000000000000000E+00  0.00000000000000000E+00  0.00000000000000000E+00
  0.00000000000000000E+00  0.00000000000000000E+00  0.00000000000000000E+00
  0.00000000000000000E+00  0.00000000000000000E+00  0.00000000000000000E+00
  0.00000000000000000E+00  0.00000000000000000E+00  0.00000000000000000E+00
  0.00000000000000000E+00  0.00000000000000000E+00  0.00000000000000000E+00
  0.00000000000000000E+00  0.00000000000000000E+00  0.00000000000000000E+00
  0.00000000000000000E+00  0.00000000000000000E+00  0.00000000000000000E+00
  0.00000000000000000E+00  0.00000000000000000E+00  0.00000000000000000E+00
  0.00000000000000000E+00  0.00000000000000000E+00  0.00000000000000000E+00
  0.00000000000000000E+00  0.00000000000000000E+00  0.00000000000000000E+00
  0.00000000000000000E+00  0.00000000000000000E+00  0.00000000000000000E+00
  0.00000000000000000E+00  0.00000000000000000E+00  0.00000000000000000E+00
  0.00000000000000000E+00  0.00000000000000000E+00  0.00000000000000000E+00
  0.00000000000000000E+00  0.00000000000000000E+00  0.00000000000000000E+00
  0.00000000000000000E+00  0.00000000000000000E+00  0.00000000000000000E+00
  0.00000000000000000E+00  0.00000000000000000E+00  0.00000000000000000E+00
  0.00000000000000000E+00  0.00000000000000000E+00  0.00000000000000000E+00
  0.00000000000000000E+00  0.00000000000000000E+00  0.00000000000000000E+00
  0.00000000000000000E+00  0.00000000000000000E+00  0.00000000000000000E+00
  0.00000000000000000E+00  0.00000000000000000E+00  0.00000000000000000E+00
  0.00000000000000000E+00  0.00000000000000000E+00  0.00000000000000000E+00
  0.00000000000000000E+00  0.00000000000000000E+00  0.00000000000000000E+00
  0.00000000000000000E+00  0.00000000000000000E+00  0.00000000000000000E+00
  0.00000000000000000E+00  0.00000000000000000E+00  0.00000000000000000E+00
  0.00000000000000000E+00  0.00000000000000000E+00  0.00000000000000000E+00
  0.00000000000000000E+00  0.00000000000000000E+00  0.00000000000000000E+00
  0.00000000000000000E+00  0.00000000000000000E+00  0.00000000000000000E+00
  0.00000000000000000E+00  0.00000000000000000E+00  0.00000000000000000E+00
  0.00000000000000000E+00  0.00000000000000000E+00  0.00000000000000000E+00
  0.00000000000000000E+00  0.00000000000000000E+00  0.00000000000000000E+00
  0.00000000000000000E+00  0.00000000000000000E+00  0.00000000000000000E+00
  0.00000000000000000E+00  0.00000000000000000E+00
                       </PP_QIJL.1.3.1>
 <PP_QIJL.2.2.0 type="real" size="   833" columns="3" first_index=" 2" second_index=" 2" composite_index=" 3" angular_momentum="0">
  7.62192960265399842E-07  7.81487958949162882E-07  8.01271412441593971E-07
  8.21555686014114084E-07  8.42353457965324290E-07  8.63677727545504228E-07
  8.85541823081199565E-07  9.07959410305939581E-07  9.30944500901717833E-07
  9.54511461256402479E-07  9.78675021443420865E-07  1.00345028442815660E-06
  1.02885273550777674E-06  1.05489825199004214E-06  1.08160311311671872E-06
  1.10898401023887590E-06  1.13705805724902884E-06  1.16584280127797129E-06
  1.19535623366207692E-06  1.22561680118819360E-06  1.25664341762358821E-06
  1.28845547553708536E-06  1.32107285842032713E-06  1.35451595311493736E-06
  1.38880566255517265E-06  1.42396341883236605E-06  1.46001119659070019E-06
  1.49697152676168386E-06  1.53486751064650658E-06  1.57372283435487726E-06
  1.61356178360921200E-06  1.65440925892386658E-06  1.69629079116825750E-06
  1.73923255752437041E-06  1.78326139784779166E-06  1.82840483144332115E-06
  1.87469107426487381E-06  1.92214905655110405E-06  1.97080844090724509E-06
  2.02069964084475692E-06  2.07185383979038546E-06  2.12430301057610930E-06
  2.17807993542303378E-06  2.23321822643032313E-06  2.28975234658386046E-06
  2.34771763129551676E-06  2.40715031048885360E-06  2.46808753124294886E-06
  2.53056738100998240E-06  2.59462891142052863E-06  2.66031216269092566E-06
  2.72765818864945118E-06  2.79670908239491425E-06  2.86750800260563669E-06
  2.94009920051411224E-06  3.01452804756411070E-06  3.09084106376877526E-06
  3.16908594678564542E-06  3.24931160172816416E-06  3.33156817173206289E-06
  3.41590706929468266E-06  3.50238100840842981E-06  3.59104403750743540E-06
  3.68195157324768307E-06  3.77516043514301476E-06  3.87072888107757477E-06
  3.96871664371681447E-06  4.06918496784078792E-06  4.17219664862234662E-06
  4.27781607087389744E-06  4.38610924928792959E-06  4.49714386969637236E-06
  4.61098933137399462E-06  4.72771679041254548E-06  4.84739920419335521E-06
  4.97011137698534902E-06  5.09593000669719069E-06  5.22493373281290230E-06
  5.35720318554115256E-06  5.49282103620849528E-06  5.63187204892804621E-06
  5.77444313357607707E-06  5.92062340010982786E-06  6.07050421426011618E-06
  6.22417925463367972E-06  6.38174457126077797E-06  6.54329864562488982E-06
  6.70894245221202303E-06  6.87877952161786971E-06  7.05291600525239823E-06
  7.23146074168215621E-06  7.41452532465186965E-06  7.60222417282786104E-06
  7.79467460130683998E-06  7.99199689493469985E-06  8.19431438348103999E-06
  8.40175351871663891E-06  8.61444395344176552E-06  8.83251862251486022E-06
  9.05611382593224537E-06  9.28536931401051881E-06  9.52042837472521876E-06
  9.76143792326004491E-06  1.00085485938226532E-05  1.02619148337844938E-05
  1.05216950002032329E-05  1.07880514587884047E-05  1.10611506853718659E-05
  1.13411633699465419E-05  1.16282645233385018E-05  1.19226335865787629E-05
  1.22244545430435091E-05  1.25339160334325065E-05  1.28512114736575766E-05
  1.31765391757149368E-05  1.35101024716166067E-05  1.38521098404585591E-05
  1.42027750387049255E-05  1.45623172337695155E-05  1.49309611409782730E-05
  1.53089371639979212E-05  1.56964815388189107E-05  1.60938364813822343E-05
  1.65012503389424943E-05  1.69189777452618088E-05  1.73472797797311533E-05
  1.77864241305189226E-05  1.82366852618483738E-05  1.86983445855084794E-05
  1.91716906367053532E-05  1.96570192543637233E-05  2.01546337659916084E-05
  2.06648451772231709E-05  2.11879723661582395E-05  2.17243422826196609E-05
  2.22742901524536829E-05  2.28381596869997011E-05  2.34163032978613683E-05
  2.40090823171122229E-05  2.46168672230734394E-05  2.52400378718052323E-05
  2.58789837344561099E-05  2.65341041406183196E-05  2.72058085278407833E-05
  2.78945166974551170E-05  2.86006590768762800E-05  2.93246769885398079E-05
  3.00670229256440105E-05  3.08281608348679156E-05  3.16085664062443956E-05
  3.24087273703680233E-05  3.32291438031207748E-05  3.40703284381080608E-05
  3.49328069870021281E-05  3.58171184679884229E-05  3.67238155425204523E-05
  3.76534648605974577E-05  3.86066474147770376E-05  3.95839589031402039E-05
  4.05860101014441976E-05  4.16134272446885782E-05  4.26668524183297640E-05
  4.37469439594000844E-05  4.48543768677681272E-05  4.59898432278024798E-05
  4.71540526407086624E-05  4.83477326677917010E-05  4.95716292849407154E-05
  5.08265073486051960E-05  5.21131510735551285E-05  5.34323645227344590E-05
  5.47849721094908210E-05  5.61718191125231585E-05  5.75937722038395570E-05
  5.90517199900783139E-05  6.05465735675129760E-05  6.20792670910961879E-05
  6.36507583578946312E-05  6.52620294052757942E-05  6.69140871242262939E-05
  6.86079638881739371E-05  7.03447181977163213E-05  7.21254353416465394E-05
  7.39512280746983119E-05  7.58232373124240069E-05  7.77426328436426581E-05
  7.97106140609038716E-05  8.17284107094109802E-05  8.37972836548931641E-05
  8.59185256708683114E-05  8.80934622458332429E-05  9.03234524108328859E-05
  9.26098895879687122E-05  9.49542024603460271E-05  9.73578558640045554E-05
  9.98223517024111526E-05  1.02349229884038975E-04  1.04940069283665415E-04
  1.07596488727954514E-04  1.10320148005935606E-04  1.13112748905040193E-04
  1.15976036273294619E-04  1.18911799108358885E-04  1.21921871674093014E-04
  1.25008134645313745E-04  1.28172516281481019E-04  1.31416993630042777E-04
  1.34743593760161475E-04  1.38154395027608069E-04  1.41651528371617715E-04
  1.45237178644486593E-04  1.48913585974741144E-04  1.52683047164753008E-04
  1.56547917123636465E-04  1.60510610336317232E-04  1.64573602369705085E-04
  1.68739431416895262E-04  1.73010699880348363E-04  1.77390075995028447E-04
  1.81880295492522066E-04  1.86484163307162659E-04  1.91204555325206224E-04
  1.96044420178147249E-04  2.01006781081289457E-04  2.06094737718715525E-04
  2.11311468175809071E-04  2.16660230920525976E-04  2.22144366834643194E-04
  2.27767301296247530E-04  2.33532546314747916E-04  2.39443702719728671E-04
  2.45504462404991914E-04  2.51718610629183344E-04  2.58090028374414787E-04
  2.64622694764351791E-04  2.71320689543248371E-04  2.78188195617455353E-04
  2.85229501660979755E-04  2.92449004786693304E-04  2.99851213284839401E-04
  3.07440749430526233E-04  3.15222352361935133E-04  3.23200881031016855E-04
  3.31381317228486919E-04  3.39768768684987519E-04  3.48368472250312744E-04
  3.57185797152665264E-04  3.66226248339931342E-04  3.75495469905037674E-04
  3.84999248597489997E-04  3.94743517423238992E-04  4.04734359335097828E-04
  4.14978011015955221E-04  4.25480866757114702E-04  4.36249482434129148E-04
  4.47290579582561721E-04  4.58611049576172747E-04  4.70217957910078232E-04
  4.82118548591504059E-04  4.94320248640815209E-04  5.06830672705559115E-04
  5.19657627790350929E-04  5.32809118105468196E-04  5.46293350037119403E-04
  5.60118737242407821E-04  5.74293905872082775E-04  5.88827699924269034E-04
  6.03729186732404177E-04  6.19007662590735186E-04  6.34672658520773472E-04
  6.50733946182203244E-04  6.67201543931831187E-04  6.84085723034227834E-04
  7.01397014027832044E-04  7.19146213250351015E-04  7.37344389527393542E-04
  7.56002891028383106E-04  7.75133352293854686E-04  7.94747701438389196E-04
  8.14858167533504766E-04  8.35477288174926681E-04  8.56617917238801136E-04
  8.78293232831473003E-04  9.00516745437605600E-04  9.23302306271507481E-04
  9.46664115836650332E-04  9.70616732698495292E-04  9.95175082475834158E-04
  1.02035446705601497E-03  1.04617057403952286E-03  1.07263948641950430E-03
  1.09977769250200444E-03  1.12760209607274862E-03  1.15613002681651191E-03
  1.18537925099518869E-03  1.21536798239088215E-03  1.24611489352046746E-03
  1.27763912712816402E-03  1.30996030796289280E-03  1.34309855484730832E-03
  1.37707449304552807E-03  1.41190926693682576E-03  1.44762455300257538E-03
  1.48424257313409269E-03  1.52178610826909444E-03  1.56027851236458740E-03
  1.59974372671432136E-03  1.64020629461901122E-03  1.68169137641780461E-03
  1.72422476488952097E-03  1.76783290103263674E-03  1.81254289023302889E-03
  1.85838251882855196E-03  1.90538027107993143E-03  1.95356534655760335E-03
  2.00296767795415248E-03  2.05361794933269729E-03  2.10554761482144694E-03
  2.15878891776472102E-03  2.21337491034122183E-03  2.26933947366039909E-03
  2.32671733834797795E-03  2.38554410563265006E-03  2.44585626894504001E-03
  2.50769123604087938E-03  2.57108735166045087E-03  2.63608392073645193E-03
  2.70272123216380115E-03  2.77104058314365598E-03  2.84108430411467681E-03
  2.91289578428485015E-03  2.98651949777734146E-03  3.06200103040566709E-03
  3.13938710709116709E-03  3.21872561993735273E-03  3.30006565697536520E-03
  3.38345753159650280E-03  3.46895281268780071E-03  3.55660435548463489E-03
  3.64646633315650164E-03  3.73859426914159663E-03  3.83304507024946877E-03
  3.92987706054598058E-03  4.02915001603751897E-03  4.13092520017097412E-03
  4.23526540017056443E-03  4.34223496422739622E-03  4.45189983955876587E-03
  4.56432761135469774E-03  4.67958754263509205E-03  4.79775061503421446E-03
  4.91888957052999311E-03  5.04307895413654006E-03  5.17039515758607217E-03
  5.30091646401683637E-03  5.43472309368490079E-03  5.57189725071985387E-03
  5.71252317095393390E-03  5.85668717083870187E-03  6.00447769746839839E-03
  6.15598537973365695E-03  6.31130308063588674E-03  6.47052595077372578E-03
  6.63375148302163507E-03  6.80107956843323171E-03  6.97261255339148324E-03
  7.14845529801850892E-03  7.32871523586806507E-03  7.51350243494119680E-03
  7.70292966003305411E-03  7.89711243642764009E-03  8.09616911497820259E-03
  8.30022093860000899E-03  8.50939211017989576E-03  8.72380986192839575E-03
  8.94360452622379974E-03  9.16890960794564114E-03  9.39986185831204191E-03
  9.63660135027393644E-03  9.87927155547930862E-03  1.01280194228047359E-02
  1.03829954584970414E-02  1.06443538079670948E-02  1.09122523392150249E-02
  1.11868527279132962E-02  1.14683205442160218E-02  1.17568253412647077E-02
  1.20525407453973329E-02  1.23556445481427524E-02  1.26663187999775505E-02
  1.29847499058273821E-02  1.33111287223970504E-02  1.36456506573262928E-02
  1.39885157701236870E-02  1.43399288749583818E-02  1.47000996453322350E-02
  1.50692427205534173E-02  1.54475778140822587E-02  1.58353298237989513E-02
  1.62327289440818111E-02  1.66400107797558608E-02  1.70574164619876276E-02
  1.74851927659798179E-02  1.79235922305162540E-02  1.83728732794553214E-02
  1.88333003449873693E-02  1.93051439927007032E-02  1.97886810485716907E-02
  2.02841947276504175E-02  2.07919747644880887E-02  2.13123175454316312E-02
  2.18455262425043643E-02  2.23919109489334675E-02  2.29517888164464494E-02
  2.35254841939942921E-02  2.41133287679954900E-02  2.47156617041976272E-02
  2.53328297907471703E-02  2.59651875826208620E-02  2.66130975474531718E-02
  2.72769302122872273E-02  2.79570643114899799E-02  2.86538869357510703E-02
  2.93677936816499653E-02  3.00991888021424521E-02  3.08484853577039100E-02
  3.16161053676150688E-02  3.24024799618573348E-02  3.32080495330960707E-02
  3.40332638883222849E-02  3.48785824006897990E-02  3.57444741607093885E-02
  3.66314181265813693E-02  3.75399032741357552E-02  3.84704287452402802E-02
  3.94235039947979787E-02  4.03996489365127665E-02  4.13993940861017359E-02
  4.24232807024892827E-02  4.34718609266165346E-02  4.45456979165841094E-02
  4.56453659800366007E-02  4.67714507026496529E-02  4.79245490718238909E-02
  4.91052695965847052E-02  5.03142324217287357E-02  5.15520694361183140E-02
  5.28194243755996939E-02  5.41169529181231776E-02  5.54453227719274785E-02
  5.68052137560884976E-02  5.81973178712010819E-02  5.96223393617780692E-02
  6.10809947680579363E-02  6.25740129660709160E-02  6.41021351973452280E-02
  6.56661150846052227E-02  6.72667186340844547E-02  6.89047242242109004E-02
  7.05809225768809501E-02  7.22961167134899690E-02  7.40511218928466552E-02
  7.58467655287046738E-02  7.76838870891714411E-02  7.95633379727077039E-02
  8.14859813613764694E-02  8.34526920511414749E-02  8.54643562536531592E-02
  8.75218713726734765E-02  8.96261457507960407E-02  9.17780983835130293E-02
  9.39786586035914334E-02  9.62287657280216646E-02  9.85293686691966902E-02
  1.00881425508990694E-01  1.03285903028497036E-01  1.05743776198189129E-01
  1.08256027620951656E-01  1.10823646925816560E-01  1.13447630115021944E-01
  1.16128978853570819E-01  1.18868699705558217E-01  1.21667803312312819E-01
  1.24527303504919126E-01  1.27448216357275629E-01  1.30431559166964806E-01
  1.33478349365425936E-01  1.36589603356575606E-01  1.39766335271136410E-01
  1.43009555644631609E-01  1.46320270006824404E-01  1.49699477379280382E-01
  1.53148168684962283E-01  1.56667325052594647E-01  1.60257916023624825E-01
  1.63920897652065800E-01  1.67657210487996366E-01  1.71467777453106429E-01
  1.75353501587904942E-01  1.79315263676568915E-01  1.83353919743500765E-01
  1.87470298406486047E-01  1.91665198098214057E-01  1.95939384134502043E-01
  2.00293585632070087E-01  2.04728492274257323E-01  2.09244750904685139E-01
  2.13842961962502631E-01  2.18523675738196949E-01  2.23287388449155744E-01
  2.28134538137508835E-01  2.33065500367211048E-01  2.38080583734430418E-01
  2.43180025172492570E-01  2.48363985047514058E-01  2.53632542050389653E-01
  2.58985687861903291E-01  2.64423321604116190E-01  2.69945244062951339E-01
  2.75551151677004114E-01  2.81240630299452232E-01  2.87013148713921140E-01
  2.92868051915091687E-01  2.98804554144162959E-01  3.04821731676501284E-01
  3.10918515366581716E-01  3.17093682941465671E-01  3.23345851049278876E-01
  3.29673467060157044E-01  3.36074800624308279E-01  3.42547934986203173E-01
  3.49090758065874085E-01  3.55700953306133050E-01  3.62375990294369399E-01
  3.69113115177372941E-01  3.75909340856149965E-01  3.82761437005217586E-01
  3.89665919901374613E-01  3.96619042089048301E-01  4.03616781921703915E-01
  4.10654832946601489E-01  4.17728593230758116E-01  4.24833154587981709E-01
  4.31963291766070678E-01  4.39113451660789800E-01  4.46277742495588436E-01
  4.53449923145760103E-01  4.60623392522145125E-01  4.67791179129640466E-01
  4.74945930895220025E-01  4.82079905168767531E-01  4.89184959191808766E-01
  4.96252540872716308E-01  5.03273680080560726E-01  5.10238980569212131E-01
  5.17138612398397868E-01  5.23962305304560672E-01  5.30699342736287827E-01
  5.37338556927535294E-01  5.43868325102944583E-01  5.50276566660167221E-01
  5.56550741979326191E-01  5.62677852387242883E-01  5.68644441903689901E-01
  5.74436600775022121E-01  5.80039970663325022E-01  5.85439752359564802E-01
  5.90620715288319942E-01  5.95567209806105113E-01  6.00263182085546854E-01
  6.04692191570742832E-01  6.08837432063656592E-01  6.12681755386986882E-01
  6.16207699131576248E-01  6.19397517882457005E-01  6.22233218187020487E-01
  6.24696598397525449E-01  6.26769292000592615E-01  6.28432816544403083E-01
  6.29668626925192765E-01  6.30458173804377520E-01  6.30782968107610031E-01
  6.30624649971620599E-01  6.29965064846869538E-01  6.28786344640270389E-01
  6.27070995443146817E-01  6.24801992205958445E-01  6.21962878698731680E-01
  6.18537875865957765E-01  6.14511995409973699E-01  6.09871161130108863E-01
  6.04602337258124511E-01  5.98693662458014142E-01  5.92134592517464697E-01
  5.84916047546225615E-01  5.77030567162292729E-01  5.68472471268107737E-01
  5.59238025819745133E-01  5.49325615728565642E-01  5.38735920074948527E-01
  5.27472093555512167E-01  5.15539949899684102E-01  5.02948147601313122E-01
  4.89708378254998578E-01  4.75835552761164293E-01  4.61347988626809646E-01
  4.46267592632289212E-01  4.30620039752723227E-01  4.14434946153833361E-01
  3.97746032330747401E-01  3.80591277359965674E-01  3.63013058340719952E-01
  3.45058275031798534E-01  3.26778455519604605E-01  3.08229839889680945E-01
  2.89473439291490831E-01  2.70575066325786651E-01  2.51605333343740689E-01
  2.32639614930391425E-01  2.13757971069551356E-01  1.95045025132233957E-01
  1.76589796358806478E-01  1.58485477311944012E-01  1.40829157615101147E-01
  1.23721486604938050E-01  1.07266269597450212E-01  9.15700012196557778E-02
  7.67413195996496517E-02  6.28903934649669843E-02  5.01282263266202149E-02
  3.85658812401340548E-02  2.83136301305430271E-02  1.94800094206878729E-02
  1.21708086368112114E-02  6.48796736920004974E-03  2.52836794124522684E-03
  3.80729144802387427E-04 -1.60085454000141163E-06  1.56936136808747521E-07
  0.00000000000000000E+00  0.00000000000000000E+00  0.00000000000000000E+00
  0.00000000000000000E+00  0.00000000000000000E+00  0.00000000000000000E+00
  0.00000000000000000E+00  0.00000000000000000E+00  0.00000000000000000E+00
  0.00000000000000000E+00  0.00000000000000000E+00  0.00000000000000000E+00
  0.00000000000000000E+00  0.00000000000000000E+00  0.00000000000000000E+00
  0.00000000000000000E+00  0.00000000000000000E+00  0.00000000000000000E+00
  0.00000000000000000E+00  0.00000000000000000E+00  0.00000000000000000E+00
  0.00000000000000000E+00  0.00000000000000000E+00  0.00000000000000000E+00
  0.00000000000000000E+00  0.00000000000000000E+00  0.00000000000000000E+00
  0.00000000000000000E+00  0.00000000000000000E+00  0.00000000000000000E+00
  0.00000000000000000E+00  0.00000000000000000E+00  0.00000000000000000E+00
  0.00000000000000000E+00  0.00000000000000000E+00  0.00000000000000000E+00
  0.00000000000000000E+00  0.00000000000000000E+00  0.00000000000000000E+00
  0.00000000000000000E+00  0.00000000000000000E+00  0.00000000000000000E+00
  0.00000000000000000E+00  0.00000000000000000E+00  0.00000000000000000E+00
  0.00000000000000000E+00  0.00000000000000000E+00  0.00000000000000000E+00
  0.00000000000000000E+00  0.00000000000000000E+00  0.00000000000000000E+00
  0.00000000000000000E+00  0.00000000000000000E+00  0.00000000000000000E+00
  0.00000000000000000E+00  0.00000000000000000E+00  0.00000000000000000E+00
  0.00000000000000000E+00  0.00000000000000000E+00  0.00000000000000000E+00
  0.00000000000000000E+00  0.00000000000000000E+00  0.00000000000000000E+00
  0.00000000000000000E+00  0.00000000000000000E+00  0.00000000000000000E+00
  0.00000000000000000E+00  0.00000000000000000E+00  0.00000000000000000E+00
  0.00000000000000000E+00  0.00000000000000000E+00  0.00000000000000000E+00
  0.00000000000000000E+00  0.00000000000000000E+00  0.00000000000000000E+00
  0.00000000000000000E+00  0.00000000000000000E+00  0.00000000000000000E+00
  0.00000000000000000E+00  0.00000000000000000E+00  0.00000000000000000E+00
  0.00000000000000000E+00  0.00000000000000000E+00  0.00000000000000000E+00
  0.00000000000000000E+00  0.00000000000000000E+00  0.00000000000000000E+00
  0.00000000000000000E+00  0.00000000000000000E+00  0.00000000000000000E+00
  0.00000000000000000E+00  0.00000000000000000E+00  0.00000000000000000E+00
  0.00000000000000000E+00  0.00000000000000000E+00  0.00000000000000000E+00
  0.00000000000000000E+00  0.00000000000000000E+00  0.00000000000000000E+00
  0.00000000000000000E+00  0.00000000000000000E+00  0.00000000000000000E+00
  0.00000000000000000E+00  0.00000000000000000E+00  0.00000000000000000E+00
  0.00000000000000000E+00  0.00000000000000000E+00  0.00000000000000000E+00
  0.00000000000000000E+00  0.00000000000000000E+00  0.00000000000000000E+00
  0.00000000000000000E+00  0.00000000000000000E+00  0.00000000000000000E+00
  0.00000000000000000E+00  0.00000000000000000E+00  0.00000000000000000E+00
  0.00000000000000000E+00  0.00000000000000000E+00  0.00000000000000000E+00
  0.00000000000000000E+00  0.00000000000000000E+00  0.00000000000000000E+00
  0.00000000000000000E+00  0.00000000000000000E+00  0.00000000000000000E+00
  0.00000000000000000E+00  0.00000000000000000E+00  0.00000000000000000E+00
  0.00000000000000000E+00  0.00000000000000000E+00  0.00000000000000000E+00
  0.00000000000000000E+00  0.00000000000000000E+00  0.00000000000000000E+00
  0.00000000000000000E+00  0.00000000000000000E+00  0.00000000000000000E+00
  0.00000000000000000E+00  0.00000000000000000E+00  0.00000000000000000E+00
  0.00000000000000000E+00  0.00000000000000000E+00  0.00000000000000000E+00
  0.00000000000000000E+00  0.00000000000000000E+00  0.00000000000000000E+00
  0.00000000000000000E+00  0.00000000000000000E+00  0.00000000000000000E+00
  0.00000000000000000E+00  0.00000000000000000E+00  0.00000000000000000E+00
  0.00000000000000000E+00  0.00000000000000000E+00  0.00000000000000000E+00
  0.00000000000000000E+00  0.00000000000000000E+00  0.00000000000000000E+00
  0.00000000000000000E+00  0.00000000000000000E+00  0.00000000000000000E+00
  0.00000000000000000E+00  0.00000000000000000E+00  0.00000000000000000E+00
  0.00000000000000000E+00  0.00000000000000000E+00  0.00000000000000000E+00
  0.00000000000000000E+00  0.00000000000000000E+00  0.00000000000000000E+00
  0.00000000000000000E+00  0.00000000000000000E+00  0.00000000000000000E+00
  0.00000000000000000E+00  0.00000000000000000E+00  0.00000000000000000E+00
  0.00000000000000000E+00  0.00000000000000000E+00  0.00000000000000000E+00
  0.00000000000000000E+00  0.00000000000000000E+00  0.00000000000000000E+00
  0.00000000000000000E+00  0.00000000000000000E+00  0.00000000000000000E+00
  0.00000000000000000E+00  0.00000000000000000E+00  0.00000000000000000E+00
  0.00000000000000000E+00  0.00000000000000000E+00  0.00000000000000000E+00
  0.00000000000000000E+00  0.00000000000000000E+00
                       </PP_QIJL.2.2.0>
 <PP_QIJL.2.3.1 type="real" size="   833" columns="3" first_index=" 2" second_index=" 3" composite_index=" 5" angular_momentum="1">
 -5.75196134897029830E-11 -5.97175521836212073E-11 -6.19994784652309738E-11
 -6.43686016654610319E-11 -6.68282537499883858E-11 -6.93818940054391827E-11
 -7.20331139044503739E-11 -7.47856421568198982E-11 -7.76433499536186756E-11
 -8.06102564115665822E-11 -8.36905342256945454E-11 -8.68885155377456562E-11
 -9.02086980289806370E-11 -9.36557512458063342E-11 -9.72345231669352227E-11
 -1.00950047021794095E-10 -1.04807548369137405E-10 -1.08812452446426950E-10
 -1.12970391799895903E-10 -1.17287214206151940E-10 -1.21768990896666610E-10
 -1.26422025096208382E-10 -1.31252860887967333E-10 -1.36268292416972242E-10
 -1.41475373445630420E-10 -1.46881427274013960E-10 -1.52494057039521621E-10
 -1.58321156409902061E-10 -1.64370920684983675E-10 -1.70651858322606953E-10
 -1.77172802904914079E-10 -1.83942925562026383E-10 -1.90971747870266739E-10
 -1.98269155243464290E-10 -2.05845410835728017E-10 -2.13711169975702779E-10
 -2.21877495152167521E-10 -2.30355871572435707E-10 -2.39158223315153015E-10
 -2.48296930100348521E-10 -2.57784844700381210E-10 -2.67635311015965368E-10
 -2.77862182843290617E-10 -2.88479843357724455E-10 -2.99503225342695286E-10
 -3.10947832190795191E-10 -3.22829759708113684E-10 -3.35165718751140705E-10
 -3.47973058729016591E-10 -3.61269792003826712E-10 -3.75074619222914668E-10
 -3.89406955619828233E-10 -4.04286958319512544E-10 -4.19735554687484381E-10
 -4.35774471762050156E-10 -4.52426266810899435E-10 -4.69714359055951287E-10
 -4.87663062609777407E-10 -5.06297620670921485E-10 -5.25644241026058121E-10
 -5.45730132908133455E-10 -5.66583545263508201E-10 -5.88233806481209718E-10
 -6.10711365639857326E-10 -6.34047835331297798E-10 -6.58276036120378961E-10
 -6.83430042703224855E-10 -7.09545231829800386E-10 -7.36658332057559375E-10
 -7.64807475405880042E-10 -7.94032250984579425E-10 -8.24373760671798578E-10
 -8.55874676919102142E-10 -8.88579302765287980E-10 -9.22533634143839403E-10
 -9.57785424570997507E-10 -9.94384252305487139E-10 -1.03238159007453513E-09
 -1.07183087746447491E-09 -1.11278759607730429E-09 -1.15530934755894805E-09
 -1.19945593460903463E-09 -1.24528944508641086E-09 -1.29287433932828364E-09
 -1.34227754080588779E-09 -1.39356853024409815E-09 -1.44681944333749258E-09
 -1.50210517220038448E-09 -1.55950347069324455E-09 -1.61909506377373365E-09
 -1.68096376102609331E-09 -1.74519657452856276E-09 -1.81188384122465299E-09
 -1.88111934997036585E-09 -1.95300047343593249E-09 -2.02762830504755767E-09
 -2.10510780116184931E-09 -2.18554792867277573E-09 -2.26906181825877805E-09
 -2.35576692348555252E-09 -2.44578518598816986E-09 -2.53924320696497015E-09
 -2.63627242522424658E-09 -2.73700930203415958E-09 -2.84159551303586188E-09
 -2.95017814748960163E-09 -3.06290991513413505E-09 -3.17994936095024318E-09
 -3.30146108813039975E-09 -3.42761598956815870E-09 -3.55859148819268401E-09
 -3.69457178648654777E-09 -3.83574812553754243E-09 -3.98231905398883496E-09
 -4.13449070726571718E-09 -4.29247709747144903E-09 -4.45650041436002851E-09
 -4.62679133780900833E-09 -4.80358936223176224E-09 -4.98714313338544830E-09
 -5.17771079804813308E-09 -5.37556036705699704E-09 -5.58097009221791131E-09
 -5.79422885761651344E-09 -6.01563658588099792E-09 -6.24550465996774582E-09
 -6.48415636106307225E-09 -6.73192732321675484E-09 -6.98916600534668924E-09
 -7.25623418127831032E-09 -7.53350744850767600E-09 -7.82137575640393885E-09
 -8.12024395459356068E-09 -8.43053236229746769E-09 -8.75267735942134853E-09
 -9.08713200023129753E-09 -9.43436665047649132E-09 -9.79486964885543515E-09
 -1.01691479937553513E-08 -1.05577280562298970E-08 -1.09611563202186714E-08
 -1.13800001510495855E-08 -1.18148485933036205E-08 -1.22663131991636238E-08
 -1.27350288884107468E-08 -1.32216548412816347E-08 -1.37268754254389101E-08
 -1.42514011583577611E-08 -1.47959697064797946E-08 -1.53613469225454867E-08
 -1.59483279225599568E-08 -1.65577382039021197E-08 -1.71904348061524768E-08
 -1.78473075162781515E-08 -1.85292801198591060E-08 -1.92373117001138339E-08
 -1.99723979865649552E-08 -2.07355727552287375E-08 -2.15279092822902998E-08
 -2.23505218533307685E-08 -2.32045673302099671E-08 -2.40912467778009371E-08
 -2.50118071528937456E-08 -2.59675430576079792E-08 -2.69597985597928050E-08
 -2.79899690829923787E-08 -2.90595033685869997E-08 -3.01699055129222547E-08
 -3.13227370822511286E-08 -3.25196193084673405E-08 -3.37622353687490044E-08
 -3.50523327522511004E-08 -3.63917257172590568E-08 -3.77822978421670862E-08
 -3.92260046739465005E-08 -4.07248764777657535E-08 -4.22810210916640758E-08
 -4.38966268902761224E-08 -4.55739658617674431E-08 -4.73153968023269894E-08
 -4.91233686326716598E-08 -5.10004238412651484E-08 -5.29492020590464067E-08
 -5.49724437707310181E-08 -5.70729941678715034E-08 -5.92538071491008642E-08
 -6.15179494731986839E-08 -6.38686050707597138E-08 -6.63090795206240203E-08
 -6.88428046972112619E-08 -7.14733435954728781E-08 -7.42043953400436770E-08
 -7.70398003858051071E-08 -7.99835459170576778E-08 -8.30397714528968943E-08
 -8.62127746667680504E-08 -8.95070174281918482E-08 -9.29271320753481976E-08
 -9.64779279272017424E-08 -1.00164398044304757E-07 -1.03991726247921456E-07
 -1.07965294407139153E-07 -1.12090690004314397E-07 -1.16373713989523263E-07
 -1.20820388934889611E-07 -1.25436967500377699E-07 -1.30229941222944544E-07
 -1.35206049641265952E-07 -1.40372289768954295E-07 -1.45735925929609972E-07
 -1.51304499967390161E-07 -1.57085841847465900E-07 -1.63088080661375882E-07
 -1.69319656052590747E-07 -1.75789330078316527E-07 -1.82506199524295382E-07
 -1.89479708689865110E-07 -1.96719662661161859E-07 -2.04236241091090562E-07
 -2.12040012505507941E-07 -2.20141949155646950E-07 -2.28553442437583637E-07
 -2.37286318900390001E-07 -2.46352856865487800E-07 -2.55765803680540617E-07
 -2.65538393632023085E-07 -2.75684366541617695E-07 -2.86217987072517807E-07
 -2.97154064772781307E-07 -3.08507974883827539E-07 -3.20295679943231351E-07
 -3.32533752212125563E-07 -3.45239396958672226E-07 -3.58430476630239729E-07
 -3.72125535948248289E-07 -3.86343827960806641E-07 -4.01105341089668665E-07
 -4.16430827209453579E-07 -4.32341830798476717E-07 -4.48860719202052640E-07
 -4.66010714050692617E-07 -4.83815923877252311E-07 -5.02301377978710846E-07
 -5.21493061570028219E-07 -5.41417952279347783E-07 -5.62104058035658804E-07
 -5.83580456402016291E-07 -6.05877335409385149E-07 -6.29026035948320649E-07
 -6.53059095777844330E-07 -6.78010295213120669E-07 -7.03914704555948512E-07
 -7.30808733334413028E-07 -7.58730181420657460E-07 -7.87718292098305757E-07
 -8.17813807153797395E-07 -8.49059024068735943E-07 -8.81497855393247010E-07
 -9.15175890383424220E-07 -9.50140458989062615E-07 -9.86440698281159486E-07
 -1.02412762141209529E-06 -1.06325418920486635E-06 -1.10387538447148733E-06
 -1.14604828916440704E-06 -1.18983216446874806E-06 -1.23528853394731494E-06
 -1.28248126985446347E-06 -1.33147668273945171E-06 -1.38234361446436348E-06
 -1.43515353476648164E-06 -1.48998064149994542E-06 -1.54690196469655023E-06
 -1.60599747459094937E-06 -1.66735019376095023E-06 -1.73104631353931138E-06
 -1.79717531485944553E-06 -1.86583009370343608E-06 -1.93710709132732492E-06
 -2.01110642944513406E-06 -2.08793205055992939E-06 -2.16769186363751579E-06
 -2.25049789532551601E-06 -2.33646644692845699E-06 -2.42571825735738519E-06
 -2.51837867228072623E-06 -2.61457781971176097E-06 -2.71445079227686058E-06
 -2.81813783641799741E-06 -2.92578454879250591E-06 -3.03754208014294814E-06
 -3.15356734692044497E-06 -3.27402325095519585E-06 -3.39907890747929955E-06
 -3.52890988181803515E-06 -3.66369843507843070E-06 -3.80363377917585010E-06
 -3.94891234155178626E-06 -4.09973803994999354E-06 -4.25632256763157533E-06
 -4.41888568942392752E-06 -4.58765554901350905E-06 -4.76286898790690379E-06
 -4.94477187650235969E-06 -5.13361945772987138E-06 -5.32967670373349905E-06
 -5.53321868608922565E-06 -5.74453096006929437E-06 -5.96390996348343433E-06
 -6.19166343064566532E-06 -6.42811082204017053E-06 -6.67358377027806158E-06
 -6.92842654295722469E-06 -7.19299652306331633E-06 -7.46766470757278705E-06
 -7.75281622494076996E-06 -8.04885087218974789E-06 -8.35618367233696558E-06
 -8.67524545292149444E-06 -9.00648344642611725E-06 -9.35036191341558283E-06
 -9.70736278924221757E-06 -1.00779863552169028E-05 -1.04627519351531832E-05
 -1.08621986182371224E-05 -1.12768860092098947E-05 -1.17073950068808522E-05
 -1.21543286120534002E-05 -1.26183127659517436E-05 -1.30999972202872674E-05
 -1.36000564401471237E-05 -1.41191905409263866E-05 -1.46581262606089856E-05
 -1.52176179686889365E-05 -1.57984487131012147E-05 -1.64014313065681728E-05
 -1.70274094538528979E-05 -1.76772589214611524E-05 -1.83518887513330338E-05
 -1.90522425201652320E-05 -1.97792996460485353E-05 -2.05340767442516535E-05
 -2.13176290339109878E-05 -2.21310517975131767E-05 -2.29754818951022010E-05
 -2.38520993353384317E-05 -2.47621289054549014E-05 -2.57068418622587827E-05
 -2.66875576864023890E-05 -2.77056459023929786E-05 -2.87625279667030682E-05
 -2.98596792264317077E-05 -3.09986309510773520E-05 -3.21809724403045776E-05
 -3.34083532103884168E-05 -3.46824852621444501E-05 -3.60051454333063059E-05
 -3.73781778387230639E-05 -3.88034964013622298E-05 -4.02830874773555463E-05
 -4.18190125785873151E-05 -4.34134111966655092E-05 -4.50685037316073597E-05
 -4.67865945289601837E-05 -4.85700750296486970E-05 -5.04214270366269094E-05
 -5.23432261021969730E-05 -5.43381450403519013E-05 -5.64089575693101059E-05
 -5.85585420883650114E-05 -6.07898855936327186E-05 -6.31060877382339435E-05
 -6.55103650422338824E-05 -6.80060552569558162E-05 -7.05966218892619291E-05
 -7.32856588925796711E-05 -7.60768955295621624E-05 -7.89742014121030668E-05
 -8.19815917262648158E-05 -8.51032326482679751E-05 -8.83434469571959901E-05
 -9.17067198522249129E-05 -9.51977049824852479E-05 -9.88212306951286577E-05
 -1.02582306509434263E-04 -1.06486129827080493E-04 -1.10538092884491349E-04
 -1.14743789955035056E-04 -1.19109024812769340E-04 -1.23639818464820589E-04
 -1.28342417159889164E-04 -1.33223300685738212E-04 -1.38289190964694758E-04
 -1.43547060954156056E-04 -1.49004143865896625E-04 -1.54667942715637854E-04
 -1.60546240209283661E-04 -1.66647108980441064E-04 -1.72978922193432738E-04
 -1.79550364517555599E-04 -1.86370443488043076E-04 -1.93448501270872340E-04
 -2.00794226836416176E-04 -2.08417668558403212E-04 -2.16329247258361106E-04
 -2.24539769699574746E-04 -2.33060442548388988E-04 -2.41902886826074140E-04
 -2.51079152853936729E-04 -2.60601735711508975E-04 -2.70483591233929943E-04
 -2.80738152549263255E-04 -2.91379347178676680E-04 -3.02421614727929947E-04
 -3.13879925168328918E-04 -3.25769797734782858E-04 -3.38107320470498588E-04
 -3.50909170413354432E-04 -3.64192634458581374E-04 -3.77975630925987411E-04
 -3.92276731823709430E-04 -4.07115185852908361E-04 -4.22510942176445713E-04
 -4.38484674941766591E-04 -4.55057808615014605E-04 -4.72252544138616860E-04
 -4.90091885904292749E-04 -5.08599669612741761E-04 -5.27800591014504082E-04
 -5.47720235532713580E-04 -5.68385108850953669E-04 -5.89822668436517554E-04
 -6.12061356020400993E-04 -6.35130631118487358E-04 -6.59061005539284157E-04
 -6.83884078933828386E-04 -7.09632575453743005E-04 -7.36340381446373878E-04
 -7.64042584287516306E-04 -7.92775512373545947E-04 -8.22576776205186707E-04
 -8.53485310709144900E-04 -8.85541418748655540E-04 -9.18786815793814116E-04
 -9.53264675919791925E-04 -9.89019679001287974E-04 -1.02609805916035394E-03
 -1.06454765459464682E-03 -1.10441795860192213E-03 -1.14576017197179315E-03
 -1.18862725675435220E-03 -1.23307399123707170E-03 -1.27915702640045707E-03
 -1.32693494368158567E-03 -1.37646831400066059E-03 -1.42781975832014917E-03
 -1.48105400939863626E-03 -1.53623797491901897E-03 -1.59344080208059921E-03
 -1.65273394328571232E-03 -1.71419122332210202E-03 -1.77788890779734363E-03
 -1.84390577264390335E-03 -1.91232317514525036E-03 -1.98322512589701409E-03
 -2.05669836193393815E-03 -2.13283242116066524E-03 -2.21171971742946004E-03
 -2.29345561689649332E-03 -2.37813851518827585E-03 -2.46586991508962071E-03
 -2.55675450541493045E-03 -2.65090024003068921E-03 -2.74841841748542934E-03
 -2.84942376126146209E-03 -2.95403449963493143E-03 -3.06237244619141785E-03
 -3.17456307993514405E-03 -3.29073562482572624E-03 -3.41102312950146555E-03
 -3.53556254544867962E-03 -3.66449480468631749E-03 -3.79796489633889116E-03
 -3.93612194089981975E-03 -4.07911926375841092E-03 -4.22711446572150099E-03
 -4.38026949114168635E-03 -4.53875069387989303E-03 -4.70272889863909173E-03
 -4.87237945984521793E-03 -5.04788231571350228E-03 -5.22942203706361786E-03
 -5.41718787233096567E-03 -5.61137378493335812E-03 -5.81217848541861620E-03
 -6.01980545644375392E-03 -6.23446296852052384E-03 -6.45636408944349864E-03
 -6.68572668219233682E-03 -6.92277339353664783E-03 -7.16773163231123212E-03
 -7.42083353315818681E-03 -7.68231591021855450E-03 -7.95242019434653016E-03
 -8.23139235533957604E-03 -8.51948280957325575E-03 -8.81694630624218698E-03
 -9.12404179825210444E-03 -9.44103229035279413E-03 -9.76818466468149134E-03
 -1.01057694860397056E-02 -1.04540607770412328E-02 -1.08133357707663226E-02
 -1.11838746327224091E-02 -1.15659601504107187E-02 -1.19598773952649187E-02
 -1.23659133435399006E-02 -1.27843564655001282E-02 -1.32154962740230544E-02
 -1.36596228286002593E-02 -1.41170262024529775E-02 -1.45879958952542851E-02
 -1.50728202028097853E-02 -1.55717855341031466E-02 -1.60851756691032834E-02
 -1.66132709685045468E-02 -1.71563475132686556E-02 -1.77146761878545014E-02
 -1.82885216966348491E-02 -1.88781415043466419E-02 -1.94837847156675431E-02
 -2.01056908666954331E-02 -2.07440886455954009E-02 -2.13991945306049695E-02
 -2.20712113342227470E-02 -2.27603266729344174E-02 -2.34667113299514042E-02
 -2.41905175327820146E-02 -2.49318771319351519E-02 -2.56908996688312991E-02
 -2.64676703565840943E-02 -2.72622479362426111E-02 -2.80746624362711444E-02
 -2.89049128190754651E-02 -2.97529645041733661E-02 -3.06187467955054277E-02
 -3.15021501722345040E-02 -3.24030234780550430E-02 -3.33211709901555242E-02
 -3.42563493623690568E-02 -3.52082644726228119E-02 -3.61765681345145168E-02
 -3.71608547157439573E-02 -3.81606576430769465E-02 -3.91754457976163373E-02
 -4.02046198311500833E-02 -4.12475083706779350E-02 -4.23033641600001065E-02
 -4.33713601208590357E-02 -4.44505853507556198E-02 -4.55400410868166197E-02
 -4.66386366207142203E-02 -4.77451852144916006E-02 -4.88584000125880796E-02
 -4.99768899819471937E-02 -5.10991559079638225E-02 -5.22235864633379329E-02
 -5.33484543902364300E-02 -5.44719128228745991E-02 -5.55919917914494896E-02
 -5.67065949391753893E-02 -5.78134965164154302E-02 -5.89103386668983625E-02
 -5.99946290957398959E-02 -6.10637391500658336E-02 -6.21149023661708363E-02
 -6.31452136020372867E-02 -6.41516287268417834E-02 -6.51309650614309843E-02
 -6.60799025510592913E-02 -6.69949857859502701E-02 -6.78726270303447732E-02
 -6.87091101778623675E-02 -6.95005959754965569E-02 -7.02431283845807164E-02
 -7.09326423238299947E-02 -7.15649729437904530E-02 -7.21358663094659180E-02
 -7.26409920081836219E-02 -7.30759573551256897E-02 -7.34363236657440688E-02
 -7.37176246199500312E-02 -7.39153866094425932E-02 -7.40251517324931191E-02
 -7.40425028325401996E-02 -7.39630913706466608E-02 -7.37826678518833795E-02
 -7.34971148242868216E-02 -7.31024831296085004E-02 -7.25950304974352367E-02
 -7.19712636282816842E-02 -7.12279829609425708E-02 -7.03623304239107128E-02
 -6.93718405895263485E-02 -6.82544940937981071E-02 -6.70087747030108927E-02
 -6.56337285151346594E-02 -6.41290259953217062E-02 -6.24950266136709842E-02
 -6.07328449057215614E-02 -5.88444192239201691E-02 -5.68325809356303446E-02
 -5.47011251001264034E-02 -5.24548813757304208E-02 -5.00997841562154864E-02
 -4.76429425126845135E-02 -4.50927072337055784E-02 -4.24587358836830062E-02
 -3.97520535567726652E-02 -3.69851085438378246E-02 -3.41718222027497312E-02
 -3.13276304335985412E-02 -2.84695166760613738E-02 -2.56160336469916788E-02
 -2.27873127738622457E-02 -2.00050592997260517E-02 -1.72925311079444519E-02
 -1.46744992294384601E-02 -1.21771882524929556E-02 -9.82819412978752811E-03
 -7.65637736016425239E-03 -5.69173017445112010E-03 -3.96521366447381493E-03
 -2.50856607985181380E-03 -1.35407728297234626E-03 -5.34322776473651270E-04
 -8.14686347514664085E-05  3.45272994748054423E-07 -3.38480533903466437E-08
  0.00000000000000000E+00  0.00000000000000000E+00  0.00000000000000000E+00
  0.00000000000000000E+00  0.00000000000000000E+00  0.00000000000000000E+00
  0.00000000000000000E+00  0.00000000000000000E+00  0.00000000000000000E+00
  0.00000000000000000E+00  0.00000000000000000E+00  0.00000000000000000E+00
  0.00000000000000000E+00  0.00000000000000000E+00  0.00000000000000000E+00
  0.00000000000000000E+00  0.00000000000000000E+00  0.00000000000000000E+00
  0.00000000000000000E+00  0.00000000000000000E+00  0.00000000000000000E+00
  0.00000000000000000E+00  0.00000000000000000E+00  0.00000000000000000E+00
  0.00000000000000000E+00  0.00000000000000000E+00  0.00000000000000000E+00
  0.00000000000000000E+00  0.00000000000000000E+00  0.00000000000000000E+00
  0.00000000000000000E+00  0.00000000000000000E+00  0.00000000000000000E+00
  0.00000000000000000E+00  0.00000000000000000E+00  0.00000000000000000E+00
  0.00000000000000000E+00  0.00000000000000000E+00  0.00000000000000000E+00
  0.00000000000000000E+00  0.00000000000000000E+00  0.00000000000000000E+00
  0.00000000000000000E+00  0.00000000000000000E+00  0.00000000000000000E+00
  0.00000000000000000E+00  0.00000000000000000E+00  0.00000000000000000E+00
  0.00000000000000000E+00  0.00000000000000000E+00  0.00000000000000000E+00
  0.00000000000000000E+00  0.00000000000000000E+00  0.00000000000000000E+00
  0.00000000000000000E+00  0.00000000000000000E+00  0.00000000000000000E+00
  0.00000000000000000E+00  0.00000000000000000E+00  0.00000000000000000E+00
  0.00000000000000000E+00  0.00000000000000000E+00  0.00000000000000000E+00
  0.00000000000000000E+00  0.00000000000000000E+00  0.00000000000000000E+00
  0.00000000000000000E+00  0.00000000000000000E+00  0.00000000000000000E+00
  0.00000000000000000E+00  0.00000000000000000E+00  0.00000000000000000E+00
  0.00000000000000000E+00  0.00000000000000000E+00  0.00000000000000000E+00
  0.00000000000000000E+00  0.00000000000000000E+00  0.00000000000000000E+00
  0.00000000000000000E+00  0.00000000000000000E+00  0.00000000000000000E+00
  0.00000000000000000E+00  0.00000000000000000E+00  0.00000000000000000E+00
  0.00000000000000000E+00  0.00000000000000000E+00  0.00000000000000000E+00
  0.00000000000000000E+00  0.00000000000000000E+00  0.00000000000000000E+00
  0.00000000000000000E+00  0.00000000000000000E+00  0.00000000000000000E+00
  0.00000000000000000E+00  0.00000000000000000E+00  0.00000000000000000E+00
  0.00000000000000000E+00  0.00000000000000000E+00  0.00000000000000000E+00
  0.00000000000000000E+00  0.00000000000000000E+00  0.00000000000000000E+00
  0.00000000000000000E+00  0.00000000000000000E+00  0.00000000000000000E+00
  0.00000000000000000E+00  0.00000000000000000E+00  0.00000000000000000E+00
  0.00000000000000000E+00  0.00000000000000000E+00  0.00000000000000000E+00
  0.00000000000000000E+00  0.00000000000000000E+00  0.00000000000000000E+00
  0.00000000000000000E+00  0.00000000000000000E+00  0.00000000000000000E+00
  0.00000000000000000E+00  0.00000000000000000E+00  0.00000000000000000E+00
  0.00000000000000000E+00  0.00000000000000000E+00  0.00000000000000000E+00
  0.00000000000000000E+00  0.00000000000000000E+00  0.00000000000000000E+00
  0.00000000000000000E+00  0.00000000000000000E+00  0.00000000000000000E+00
  0.00000000000000000E+00  0.00000000000000000E+00  0.00000000000000000E+00
  0.00000000000000000E+00  0.00000000000000000E+00  0.00000000000000000E+00
  0.00000000000000000E+00  0.00000000000000000E+00  0.00000000000000000E+00
  0.00000000000000000E+00  0.00000000000000000E+00  0.00000000000000000E+00
  0.00000000000000000E+00  0.00000000000000000E+00  0.00000000000000000E+00
  0.00000000000000000E+00  0.00000000000000000E+00  0.00000000000000000E+00
  0.00000000000000000E+00  0.00000000000000000E+00  0.00000000000000000E+00
  0.00000000000000000E+00  0.00000000000000000E+00  0.00000000000000000E+00
  0.00000000000000000E+00  0.00000000000000000E+00  0.00000000000000000E+00
  0.00000000000000000E+00  0.00000000000000000E+00  0.00000000000000000E+00
  0.00000000000000000E+00  0.00000000000000000E+00  0.00000000000000000E+00
  0.00000000000000000E+00  0.00000000000000000E+00  0.00000000000000000E+00
  0.00000000000000000E+00  0.00000000000000000E+00  0.00000000000000000E+00
  0.00000000000000000E+00  0.00000000000000000E+00  0.00000000000000000E+00
  0.00000000000000000E+00  0.00000000000000000E+00  0.00000000000000000E+00
  0.00000000000000000E+00  0.00000000000000000E+00  0.00000000000000000E+00
  0.00000000000000000E+00  0.00000000000000000E+00  0.00000000000000000E+00
  0.00000000000000000E+00  0.00000000000000000E+00  0.00000000000000000E+00
  0.00000000000000000E+00  0.00000000000000000E+00  0.00000000000000000E+00
  0.00000000000000000E+00  0.00000000000000000E+00  0.00000000000000000E+00
  0.00000000000000000E+00  0.00000000000000000E+00  0.00000000000000000E+00
  0.00000000000000000E+00  0.00000000000000000E+00
                       </PP_QIJL.2.3.1>
 <PP_QIJL.3.3.0 type="real" size="   833" columns="3" first_index=" 3" second_index=" 3" composite_index=" 6" angular_momentum="0">
  1.49210643547707293E-08  1.52987927412745808E-08  1.56860833594106898E-08
  1.60831782778155534E-08  1.64903256930997325E-08  1.69077800849817445E-08
  1.73358023753389902E-08  1.77746600912939616E-08  1.82246275324264807E-08
  1.86859859422130746E-08  1.91590236838176827E-08  1.96440364203206434E-08
  2.01413272995173549E-08  2.06512071433954788E-08  2.11739946424004641E-08
  2.17100165546322495E-08  2.22596079100699723E-08  2.28231122199784447E-08
  2.34008816916094563E-08  2.39932774483373224E-08  2.46006697553747776E-08
  2.52234382511894048E-08  2.58619721847953794E-08  2.65166706590337356E-08
  2.71879428800287779E-08  2.78762084129440675E-08  2.85818974442246600E-08
  2.93054510504699733E-08  3.00473214741168958E-08  3.08079724061015867E-08
  3.15878792756735455E-08  3.23875295475517340E-08  3.32074230265958949E-08
  3.40480721701985567E-08  3.49100024085766920E-08  3.57937524731793154E-08
  3.66998747334012578E-08  3.76289355418267814E-08  3.85815155882085921E-08
  3.95582102624091097E-08  4.05596300265311647E-08  4.15864007964627520E-08
  4.26391643330916251E-08  4.37185786434066507E-08  4.48253183917737103E-08
  4.59600753215990243E-08  4.71235586876897217E-08  4.83164956995405258E-08
  4.95396319758526266E-08  5.07937320105577747E-08  5.20795796506290110E-08
  5.33979785860053176E-08  5.47497528518968926E-08  5.61357473438226932E-08
  5.75568283456796402E-08  5.90138840711716697E-08  6.05078252189618173E-08
  6.20395855418591740E-08  6.36101224304236213E-08  6.52204175113484052E-08
  6.68714772609741203E-08  6.85643336343490040E-08  7.03000447102090038E-08
  7.20796953522741467E-08  7.39043978873000684E-08  7.57752928002870012E-08
  7.76935494472796249E-08  7.96603667862219679E-08  8.16769741263101444E-08
  8.37446318963062547E-08  8.58646324323067401E-08  8.80383007854558095E-08
  9.02669955500976781E-08  9.25521097128900125E-08  9.48950715234215049E-08
  9.72973453868609062E-08  9.97604327792001600E-08  1.02285873185665621E-07
  1.04875245062888576E-07  1.07530166825428185E-07  1.10252297857262980E-07
  1.13043339548886562E-07  1.15905036360659975E-07  1.18839176913077522E-07
  1.21847595104630334E-07  1.24932171257963125E-07  1.28094833295044855E-07
  1.31337557942088562E-07  1.34662371964967873E-07  1.38071353435906054E-07
  1.41566633032225532E-07  1.45150395367972159E-07  1.48824880359246710E-07
  1.52592384624096057E-07  1.56455262917838156E-07  1.60415929604715409E-07
  1.64476860166801135E-07  1.68640592751096762E-07  1.72909729755789050E-07
  1.77286939456659505E-07  1.81774957674656608E-07  1.86376589485680850E-07
  1.91094710973643950E-07  1.95932271027900194E-07  2.00892293186174295E-07
  2.05977877524131650E-07  2.11192202592778691E-07  2.16538527404898487E-07
  2.22020193471764328E-07  2.27640626891404755E-07  2.33403340489719885E-07
  2.39311936015793484E-07  2.45370106392766895E-07  2.51581638025681820E-07
  2.57950413167736736E-07  2.64480412346429179E-07  2.71175716851104312E-07
  2.78040511283462402E-07  2.85079086172616767E-07  2.92295840656337919E-07
  2.99695285230153793E-07  3.07282044566031023E-07  3.15060860402389579E-07
  3.23036594507261502E-07  3.31214231716442339E-07  3.39598883048528868E-07
  3.48195788898796429E-07  3.57010322313903312E-07  3.66047992349472447E-07
  3.75314447512645067E-07  3.84815479291751061E-07  3.94557025775311030E-07
  4.04545175362619860E-07  4.14786170568233430E-07  4.25286411922728704E-07
  4.36052461972187595E-07  4.47091049378880652E-07  4.58409073125731624E-07
  4.70013606827171258E-07  4.81911903149073537E-07  4.94111398340545266E-07
  5.06619716880391747E-07  5.19444676241163217E-07  5.32594291773742185E-07
  5.46076781715519647E-07  5.59900572325321732E-07  5.74074303148257338E-07
  5.88606832413782765E-07  6.03507242570327437E-07  6.18784845959993352E-07
  6.34449190636841027E-07  6.50510066332350788E-07  6.66977510571824082E-07
  6.83861814945583536E-07  7.01173531538799744E-07  7.18923479523971248E-07
  7.37122751920249574E-07  7.55782722523764341E-07  7.74915053013206151E-07
  7.94531700235272805E-07  8.14644923674395045E-07  8.35267293111345143E-07
  8.56411696475740014E-07  8.78091347897076460E-07  9.00319795959428504E-07
  9.23110932165087414E-07  9.46478999612087300E-07  9.70438601891420869E-07
  9.95004712209217081E-07  1.02019268273961299E-06  1.04601825421436070E-06
  1.07249756575472887E-06  1.09964716495236638E-06  1.12748401820486704E-06
  1.15602552131293713E-06  1.18528951034544562E-06  1.21529427277930780E-06
  1.24605855892109395E-06  1.27760159361742795E-06  1.30994308826160948E-06
  1.34310325310374179E-06  1.37710280987225848E-06  1.41196300471448652E-06
  1.44770562146451825E-06  1.48435299524648573E-06  1.52192802642179383E-06
  1.56045419488904090E-06  1.59995557474530654E-06  1.64045684931839489E-06
  1.68198332657867748E-06  1.72456095494104958E-06  1.76821633946582846E-06
  1.81297675846957327E-06  1.85887018055560167E-06  1.90592528207486020E-06
  1.95417146502848487E-06  2.00363887542231269E-06  2.05435842208572008E-06
  2.10636179596587280E-06  2.15968148990935035E-06  2.21435081894411439E-06
  2.27040394107351622E-06  2.32787587859585267E-06  2.38680253996282464E-06
  2.44722074218985069E-06  2.50916823383273494E-06  2.57268371854493861E-06
  2.63780687922961034E-06  2.70457840280178245E-06  2.77304000557624596E-06
  2.84323445929640087E-06  2.91520561782032388E-06  2.98899844448116465E-06
  3.06465904013825413E-06  3.14223467193631472E-06  3.22177380279104095E-06
  3.30332612161914211E-06  3.38694257433145054E-06  3.47267539560827513E-06
  3.56057814147701090E-06  3.65070572271206910E-06  3.74311443907760661E-06
  3.83786201443435064E-06  3.93500763273237366E-06  4.03461197491218408E-06
  4.13673725673672487E-06  4.24144726757772157E-06  4.34880741018040125E-06
  4.45888474143132550E-06  4.57174801415443242E-06  4.68746771996110956E-06
  4.80611613318067509E-06  4.92776735589855279E-06  5.05249736412983287E-06
  5.18038405515694066E-06  5.31150729606044352E-06  5.44594897347286664E-06
  5.58379304458640809E-06  5.72512558944582309E-06  5.87003486455879438E-06
  6.01861135785678979E-06  6.17094784504029197E-06  6.32713944734307079E-06
  6.48728369075099343E-06  6.65148056671188184E-06  6.81983259437360229E-06
  6.99244488438886768E-06  7.16942520432568488E-06  7.35088404572382760E-06
  7.53693469283843964E-06  7.72769329311278483E-06  7.92327892942366992E-06
  8.12381369414349581E-06  8.32942276506451906E-06  8.54023448323176243E-06
  8.75638043273210062E-06  8.97799552248851176E-06  9.20521807010929021E-06
  9.43818988784362190E-06  9.67705637069592310E-06  9.92196658675264951E-06
  1.01730733697768464E-05  1.04305334141266117E-05  1.06945073720555373E-05
  1.09651599534542167E-05  1.12426600280933983E-05  1.15271807304312225E-05
  1.18188995670477772E-05  1.21179985267726031E-05  1.24246641935716446E-05
  1.27390878622620906E-05  1.30614656571253732E-05  1.33919986534897214E-05
  1.37308930023561680E-05  1.40783600581429770E-05  1.44346165096256341E-05
  1.47998845141515604E-05  1.51743918352099397E-05  1.55583719834399028E-05
  1.59520643611616358E-05  1.63557144105169962E-05  1.67695737653089510E-05
  1.71939004066303414E-05  1.76289588223754779E-05  1.80750201707298483E-05
  1.85323624477354207E-05  1.90012706590318214E-05  1.94820369958752464E-05
  1.99749610155402570E-05  2.04803498262115612E-05  2.09985182764750826E-05
  2.15297891495214797E-05  2.20744933621760054E-05  2.26329701688732429E-05
  2.32055673706962376E-05  2.37926415296038015E-05  2.43945581879723221E-05
  2.50116920935799979E-05  2.56444274301662161E-05  2.62931580537007972E-05
  2.69582877345008257E-05  2.76402304053370278E-05  2.83394104156726461E-05
  2.90562627921842412E-05  2.97912335057157532E-05  3.05447797448186442E-05
  3.13173701960373974E-05  3.21094853311010053E-05  3.29216177011863758E-05
  3.37542722384205637E-05  3.46079665647975289E-05  3.54832313086858204E-05
  3.63806104291049083E-05  3.73006615479557442E-05  3.82439562903940191E-05
  3.92110806335353588E-05  4.02026352636945119E-05  4.12192359423593251E-05
  4.22615138811004810E-05  4.33301161256284344E-05  4.44257059492097296E-05
  4.55489632556595065E-05  4.67005849921448167E-05  4.78812855720166746E-05
  4.90917973079042368E-05  5.03328708553071565E-05  5.16052756669241748E-05
  5.29098004579825419E-05  5.42472536828084745E-05  5.56184640228938549E-05
  5.70242808867197823E-05  5.84655749216005850E-05  5.99432385378478386E-05
  6.14581864455082498E-05  6.30113562039609368E-05  6.46037087846525838E-05
  6.62362291472832007E-05  6.79099268297549282E-05  6.96258365521578934E-05
  7.13850188351089368E-05  7.31885606327491866E-05  7.50375759807779584E-05
  7.69332066598013900E-05  7.88766228743276589E-05  8.08690239477318602E-05
  8.29116390336038443E-05  8.50057278437891216E-05  8.71525813934565121E-05
  8.93535227635348358E-05  9.16099078809759200E-05  9.39231263171719612E-05
  9.62946021048685641E-05  9.87257945739348879E-05  1.01218199206502035E-04
  1.03773348511796134E-04  1.06392812921014718E-04  1.09078201702639307E-04
  1.11831163898762110E-04  1.14653389282702632E-04  1.17546609338289735E-04
  1.20512598261271795E-04  1.23553173983448811E-04  1.26670199219749535E-04
  1.29865582538646476E-04  1.33141279456547209E-04  1.36499293556594501E-04
  1.39941677632125414E-04  1.43470534855240725E-04  1.47088019971277397E-04
  1.50796340519340533E-04  1.54597758079222982E-04  1.58494589545451212E-04
  1.62489208428980546E-04  1.66584046186625979E-04  1.70781593578733315E-04
  1.75084402056057710E-04  1.79495085175799331E-04  1.84016320047079504E-04
  1.88650848806895326E-04  1.93401480126809323E-04  1.98271090750321618E-04
  2.03262627061762276E-04  2.08379106687527158E-04  2.13623620129250682E-04
  2.18999332429434154E-04  2.24509484870867538E-04  2.30157396709261563E-04
  2.35946466939224706E-04  2.41880176095191361E-04  2.47962088086851786E-04
  2.54195852068733307E-04  2.60585204345582257E-04  2.67133970313485720E-04
  2.73846066435803968E-04  2.80725502255471540E-04  2.87776382444110835E-04
  2.95002908886411329E-04  3.02409382801161765E-04  3.10000206899904219E-04
  3.17779887581033920E-04  3.25753037160512538E-04  3.33924376140681681E-04
  3.42298735514311831E-04  3.50881059104872679E-04  3.59676405944949114E-04
  3.68689952689187854E-04  3.77926996062651901E-04  3.87392955346840394E-04
  3.97093374898902938E-04  4.07033926704950194E-04  4.17220412969918401E-04
  4.27658768738483003E-04  4.38355064548211259E-04  4.49315509117345169E-04
  4.60546452060514285E-04  4.72054386634221780E-04  4.83845952513996659E-04
  4.95927938595198373E-04  5.08307285820476496E-04  5.20991090034561457E-04
  5.33986604857132011E-04  5.47301244578475674E-04  5.60942587076364340E-04
  5.74918376744053272E-04  5.89236527436279149E-04  6.03905125428115010E-04
  6.18932432376615186E-04  6.34326888294392088E-04  6.50097114524916223E-04
  6.66251916711128314E-04  6.82800287767878654E-04  6.99751410841777241E-04
  7.17114662254179696E-04  7.34899614436488246E-04  7.53116038835461069E-04
  7.71773908790908967E-04  7.90883402389273523E-04  8.10454905267222895E-04
  8.30499013375735691E-04  8.51026535697503995E-04  8.72048496892553738E-04
  8.93576139889869529E-04  9.15620928402718871E-04  9.38194549350148104E-04
  9.61308915204196735E-04  9.84976166224487120E-04  1.00920867257824932E-03
  1.03401903635509879E-03  1.05942009342915432E-03  1.08542491518537928E-03
  1.11204681009644457E-03  1.13929932510642711E-03  1.16719624685236788E-03
  1.19575160267847971E-03  1.22497966142050534E-03  1.25489493398725852E-03
  1.28551217366793934E-03  1.31684637617741690E-03  1.34891277943472387E-03
  1.38172686300070389E-03  1.41530434721724263E-03  1.44966119199185024E-03
  1.48481359518321866E-03  1.52077799063199924E-03  1.55757104573330907E-03
  1.59520965856386056E-03  1.63371095455979950E-03  1.67309228263637149E-03
  1.71337121081110316E-03  1.75456552124546978E-03  1.79669320464733166E-03
  1.83977245409212408E-03  1.88382165811135462E-03  1.92885939308084869E-03
  1.97490441488270933E-03  2.02197564969923286E-03  2.07009218403204779E-03
  2.11927325379862152E-03  2.16953823246373613E-03  2.22090661825719276E-03
  2.27339802026586520E-03  2.32703214348366130E-03  2.38182877272242197E-03
  2.43780775523821588E-03  2.49498898219354271E-03  2.55339236870634218E-03
  2.61303783251499956E-03  2.67394527124261089E-03  2.73613453801110776E-03
  2.79962541556103310E-03  2.86443758863770504E-03  2.93059061457876663E-03
  2.99810389217962511E-03  3.06699662849886341E-03  3.13728780375682487E-03
  3.20899613413720437E-03  3.28214003231105207E-03  3.35673756584740565E-03
  3.43280641311152377E-03  3.51036381676776048E-03  3.58942653477094427E-03
  3.67001078855048839E-03  3.75213220861750959E-03  3.83580577717094855E-03
  3.92104576775841041E-03  4.00786568196023242E-03  4.09627818270537000E-03
  4.18629502448598922E-03  4.27792698005938915E-03  4.37118376362126415E-03
  4.46607395049984646E-03  4.56260489291987481E-03  4.66078263211175143E-03
  4.76061180639881804E-03  4.86209555518706590E-03  4.96523541896816325E-03
  5.07003123488104432E-03  5.17648102808955079E-03  5.28458089868090800E-03
  5.39432490398772044E-03  5.50570493646805256E-03  5.61871059676882084E-03
  5.73332906218366849E-03  5.84954495031174589E-03  5.96734017786519633E-03
  6.08669381472525060E-03  6.20758193307556060E-03  6.32997745173928886E-03
  6.45384997567038758E-03  6.57916563069007622E-03  6.70588689344915525E-03
  6.83397241683112756E-03  6.96337685077284222E-03  7.09405065867218035E-03
  7.22593992974393182E-03  7.35898618706867357E-03  7.49312619220558057E-03
  7.62829174607542859E-03  7.76440948664434884E-03  7.90140068418130823E-03
  8.03918103344888717E-03  8.17766044474306855E-03  8.31674283299635268E-03
  8.45632590610104554E-03  8.59630095375676744E-03  8.73655263564727252E-03
  8.87695877244495252E-03  9.01739013798098094E-03  9.15771025483755850E-03
  9.29777519521623672E-03  9.43743338518930781E-03  9.57652541811100481E-03
  9.71488387402838667E-03  9.85233314924548187E-03  9.98868929822551571E-03
  1.01237598852218294E-02  1.02573438545025160E-02  1.03892314135850556E-02
  1.05192039367873399E-02  1.06470338909410590E-02  1.07724847802315362E-02
  1.08953111228911274E-02  1.10152584504989264E-02  1.11320633421662599E-02
  1.12454534937128058E-02  1.13551478192518915E-02  1.14608566021869272E-02
  1.15622816812807026E-02  1.16591166914134289E-02  1.17510473549626848E-02
  1.18377518235181119E-02  1.19189010906790554E-02  1.19941594552905352E-02
  1.20631850646401688E-02  1.21256305257545979E-02  1.21811435899535931E-02
  1.22293679328265795E-02  1.22699440024721402E-02  1.23025099773209426E-02
  1.23267028092983420E-02  1.23421593674267749E-02  1.23485177004910244E-02
  1.23454183867755026E-02  1.23325060238871926E-02  1.23094308172455452E-02
  1.22758502974880893E-02  1.22314311738694701E-02  1.21758512911359969E-02
  1.21088017507344492E-02  1.20299891343762025E-02  1.19391378794320765E-02
  1.18359927912900197E-02  1.17203216666011221E-02  1.15919180866778694E-02
  1.14506042991218120E-02  1.12962342558246727E-02  1.11286967604022936E-02
  1.09479187133738106E-02  1.07538684969694671E-02  1.05465594052008456E-02
  1.03260531959609159E-02  1.00924636816770493E-02  9.84596036528440771E-03
  9.58677212719061776E-03  9.31519087051786016E-03  9.03157518779454903E-03
  8.73635393693004969E-03  8.43002974386825206E-03  8.11318238923913922E-03
  7.78647200204430224E-03  7.45064207936930317E-03  7.10652221615633121E-03
  6.75503054515599281E-03  6.39717580553721653E-03  6.03405898088217683E-03
  5.66687445546750369E-03  5.29691060914236431E-03  4.92554978403140446E-03
  4.55426755009223638E-03  4.18463120095388316E-03  3.81829736535819119E-03
  3.45700872774804902E-03  3.10258967157692753E-03  2.75694087107729649E-03
  2.42203268717855729E-03  2.09989726381417828E-03  1.79261939219322762E-03
  1.50232582575635923E-03  1.23117328171185383E-03  9.81334819400019780E-04
  7.54984663833830998E-04  5.54281552466585176E-04  3.81350247706845188E-04
  2.38261737364019806E-04  1.27011641007255719E-04  4.94965746609924386E-05
  7.45334104024672637E-06 -3.13391160234156079E-08  3.07225901968059421E-09
  0.00000000000000000E+00  0.00000000000000000E+00  0.00000000000000000E+00
  0.00000000000000000E+00  0.00000000000000000E+00  0.00000000000000000E+00
  0.00000000000000000E+00  0.00000000000000000E+00  0.00000000000000000E+00
  0.00000000000000000E+00  0.00000000000000000E+00  0.00000000000000000E+00
  0.00000000000000000E+00  0.00000000000000000E+00  0.00000000000000000E+00
  0.00000000000000000E+00  0.00000000000000000E+00  0.00000000000000000E+00
  0.00000000000000000E+00  0.00000000000000000E+00  0.00000000000000000E+00
  0.00000000000000000E+00  0.00000000000000000E+00  0.00000000000000000E+00
  0.00000000000000000E+00  0.00000000000000000E+00  0.00000000000000000E+00
  0.00000000000000000E+00  0.00000000000000000E+00  0.00000000000000000E+00
  0.00000000000000000E+00  0.00000000000000000E+00  0.00000000000000000E+00
  0.00000000000000000E+00  0.00000000000000000E+00  0.00000000000000000E+00
  0.00000000000000000E+00  0.00000000000000000E+00  0.00000000000000000E+00
  0.00000000000000000E+00  0.00000000000000000E+00  0.00000000000000000E+00
  0.00000000000000000E+00  0.00000000000000000E+00  0.00000000000000000E+00
  0.00000000000000000E+00  0.00000000000000000E+00  0.00000000000000000E+00
  0.00000000000000000E+00  0.00000000000000000E+00  0.00000000000000000E+00
  0.00000000000000000E+00  0.00000000000000000E+00  0.00000000000000000E+00
  0.00000000000000000E+00  0.00000000000000000E+00  0.00000000000000000E+00
  0.00000000000000000E+00  0.00000000000000000E+00  0.00000000000000000E+00
  0.00000000000000000E+00  0.00000000000000000E+00  0.00000000000000000E+00
  0.00000000000000000E+00  0.00000000000000000E+00  0.00000000000000000E+00
  0.00000000000000000E+00  0.00000000000000000E+00  0.00000000000000000E+00
  0.00000000000000000E+00  0.00000000000000000E+00  0.00000000000000000E+00
  0.00000000000000000E+00  0.00000000000000000E+00  0.00000000000000000E+00
  0.00000000000000000E+00  0.00000000000000000E+00  0.00000000000000000E+00
  0.00000000000000000E+00  0.00000000000000000E+00  0.00000000000000000E+00
  0.00000000000000000E+00  0.00000000000000000E+00  0.00000000000000000E+00
  0.00000000000000000E+00  0.00000000000000000E+00  0.00000000000000000E+00
  0.00000000000000000E+00  0.00000000000000000E+00  0.00000000000000000E+00
  0.00000000000000000E+00  0.00000000000000000E+00  0.00000000000000000E+00
  0.00000000000000000E+00  0.00000000000000000E+00  0.00000000000000000E+00
  0.00000000000000000E+00  0.00000000000000000E+00  0.00000000000000000E+00
  0.00000000000000000E+00  0.00000000000000000E+00  0.00000000000000000E+00
  0.00000000000000000E+00  0.00000000000000000E+00  0.00000000000000000E+00
  0.00000000000000000E+00  0.00000000000000000E+00  0.00000000000000000E+00
  0.00000000000000000E+00  0.00000000000000000E+00  0.00000000000000000E+00
  0.00000000000000000E+00  0.00000000000000000E+00  0.00000000000000000E+00
  0.00000000000000000E+00  0.00000000000000000E+00  0.00000000000000000E+00
  0.00000000000000000E+00  0.00000000000000000E+00  0.00000000000000000E+00
  0.00000000000000000E+00  0.00000000000000000E+00  0.00000000000000000E+00
  0.00000000000000000E+00  0.00000000000000000E+00  0.00000000000000000E+00
  0.00000000000000000E+00  0.00000000000000000E+00  0.00000000000000000E+00
  0.00000000000000000E+00  0.00000000000000000E+00  0.00000000000000000E+00
  0.00000000000000000E+00  0.00000000000000000E+00  0.00000000000000000E+00
  0.00000000000000000E+00  0.00000000000000000E+00  0.00000000000000000E+00
  0.00000000000000000E+00  0.00000000000000000E+00  0.00000000000000000E+00
  0.00000000000000000E+00  0.00000000000000000E+00  0.00000000000000000E+00
  0.00000000000000000E+00  0.00000000000000000E+00  0.00000000000000000E+00
  0.00000000000000000E+00  0.00000000000000000E+00  0.00000000000000000E+00
  0.00000000000000000E+00  0.00000000000000000E+00  0.00000000000000000E+00
  0.00000000000000000E+00  0.00000000000000000E+00  0.00000000000000000E+00
  0.00000000000000000E+00  0.00000000000000000E+00  0.00000000000000000E+00
  0.00000000000000000E+00  0.00000000000000000E+00  0.00000000000000000E+00
  0.00000000000000000E+00  0.00000000000000000E+00  0.00000000000000000E+00
  0.00000000000000000E+00  0.00000000000000000E+00  0.00000000000000000E+00
  0.00000000000000000E+00  0.00000000000000000E+00  0.00000000000000000E+00
  0.00000000000000000E+00  0.00000000000000000E+00  0.00000000000000000E+00
  0.00000000000000000E+00  0.00000000000000000E+00  0.00000000000000000E+00
  0.00000000000000000E+00  0.00000000000000000E+00  0.00000000000000000E+00
  0.00000000000000000E+00  0.00000000000000000E+00  0.00000000000000000E+00
  0.00000000000000000E+00  0.00000000000000000E+00  0.00000000000000000E+00
  0.00000000000000000E+00  0.00000000000000000E+00  0.00000000000000000E+00
  0.00000000000000000E+00  0.00000000000000000E+00  0.00000000000000000E+00
  0.00000000000000000E+00  0.00000000000000000E+00
                       </PP_QIJL.3.3.0>
 <PP_QIJL.3.3.2 type="real" size="   833" columns="3" first_index=" 3" second_index=" 3" composite_index=" 6" angular_momentum="2">
  3.60238202852538902E-15  3.78708023833091543E-15  3.98124801866407443E-15
  4.18537069254039666E-15  4.39995948767791683E-15  4.62555000849160052E-15
  4.86270693746445299E-15  5.11202345576836310E-15  5.37412212136171381E-15
  5.64965943724537945E-15  5.93932350735647642E-15  6.24383896263879761E-15
  6.56396763022930498E-15  6.90050901861628193E-15  7.25430589259561279E-15
  7.62624179308336650E-15  8.01724751228408080E-15  8.42830056830832566E-15
  8.86042842279299022E-15  9.31471249919264720E-15  9.79228749573003167E-15
  1.02943490114186519E-14  1.08221510617956264E-14  1.13770146712539881E-14
  1.19603262937089667E-14  1.25735452132142700E-14  1.32182043860127949E-14
  1.38959159252368495E-14  1.46083745694468645E-14  1.53573615231522587E-14
  1.61447501063232324E-14  1.69725086216589228E-14  1.78427075331617573E-14
  1.87575221292037869E-14  1.97192405488518315E-14  2.07302670341612299E-14
  2.17931300919884951E-14  2.29104872019477112E-14  2.40851323111039814E-14
  2.53200029703150623E-14  2.66181863077216413E-14  2.79829295145195914E-14
  2.94176437260613080E-14  3.09259181579338062E-14  3.25115224765658255E-14
  3.41784231553789466E-14  3.59307871150681820E-14  3.77729966799665551E-14
  3.97096586574549173E-14  4.17456145321995756E-14  4.38859569173676266E-14
  4.61360360812011260E-14  4.85014794866789511E-14  5.09882019513470172E-14
  5.36024204261555476E-14  5.63506734853066480E-14  5.92398318244309659E-14
  6.22771200938308286E-14  6.54701340788785163E-14  6.88268562954174090E-14
  7.23556813420513083E-14  7.60654335107999883E-14  7.99653875132714294E-14
  8.40652964832755553E-14  8.83754125906767847E-14  9.29065118290716530E-14
  9.76699252877624950E-14  1.02677564516563962E-13  1.07941949847485805E-13
  1.13476245196223547E-13  1.19294290191289063E-13  1.25410632274703284E-13
  1.31840564469948898E-13  1.38600166040882779E-13  1.45706339778602054E-13
  1.53176853829598656E-13  1.61030387849911226E-13  1.69286580709684098E-13
  1.77966077311876036E-13  1.87090580142746373E-13  1.96682904434589161E-13
  2.06767036659026154E-13  2.17368192707846666E-13  2.28512880669703467E-13
  2.40228967253967715E-13  2.52545748334520900E-13  2.65494022721291405E-13
  2.79106167960365803E-13  2.93416221252881839E-13  3.08459964655459716E-13
  3.24275014657927523E-13  3.40900916836820673E-13  3.58379244696497479E-13
  3.76753703042098875E-13  3.96070237288754342E-13  4.16377148396943420E-13
  4.37725213690617749E-13  4.60167813860266101E-13  4.83761066473187547E-13
  5.08563966448220781E-13  5.34638533548264072E-13  5.62049967270303429E-13
  5.90866809882362984E-13  6.21161117826945994E-13  6.53008641907739313E-13
  6.86489016710563657E-13  7.21685959732749877E-13  7.58687480719329741E-13
  7.97586101730001104E-13  8.38479088487633614E-13  8.81468693587225489E-13
  9.26662412173895545E-13  9.74173250729523758E-13  1.02412000964036179E-12
  1.07662758025228169E-12  1.13182725715631860E-12  1.18985706648514623E-12
  1.25086211104082976E-12  1.31499493311602682E-12  1.38241589591473099E-12
  1.45329358452468628E-12  1.52780522744215544E-12  1.60613713970044808E-12
  1.68848518870713344E-12  1.77505528395092041E-12  1.86606389190210664E-12
  1.96173857770953114E-12  2.06231857403531195E-12  2.16805537907706470E-12
  2.27921338534403883E-12  2.39607054063445696E-12  2.51891904285681820E-12
  2.64806607042102520E-12  2.78383455078327992E-12  2.92656396969543076E-12
  3.07661121852142779E-12  3.23435148586755047E-12  3.40017919524039195E-12
  3.57450899079284053E-12  3.75777677724010317E-12  3.95044081085757669E-12
  4.15298284131668239E-12  4.36590931506674904E-12  4.58975264194470499E-12
  4.82507253423587705E-12  5.07245740121429234E-12  5.33252581544658426E-12
  5.60592805975725591E-12  5.89334776543018074E-12  6.19550361352867873E-12
  6.51315112374963109E-12  6.84708455123630195E-12  7.19813888378300619E-12
  7.56719191025243404E-12  7.95516641552293667E-12  8.36303251179564238E-12
  8.79181004206821590E-12  9.24257112333793132E-12  9.71644285960418384E-12
  1.02146101325372850E-11  1.07383185585676898E-11  1.12888776414831211E-11
  1.18676640029022785E-11  1.24761248422147448E-11  1.31157815759957924E-11
  1.37882335906926314E-11  1.44951623007099398E-11  1.52383353105372204E-11
  1.60196108408466099E-11  1.68409424071575822E-11  1.77043836395167263E-11
  1.86120935002507562E-11  1.95663415956961224E-11  2.05695139264443150E-11
  2.16241187955081523E-11  2.27327931152596974E-11  2.38983089861127612E-11
  2.51235806222542558E-11  2.64116716582985017E-11  2.77658027770129693E-11
  2.91893598000543260E-11  3.06859021129151869E-11  3.22591716001545667E-11
  3.39131019743022866E-11  3.56518286202736313E-11  3.74796989483578899E-11
  3.94012832187378689E-11  4.14213860470596973E-11  4.35450583013214417E-11
  4.57776098726496115E-11  4.81246227974156072E-11  5.05919653479372332E-11
  5.31858066166129100E-11  5.59126319500045686E-11  5.87792592351301684E-11
  6.17928558071737123E-11  6.49609565204476534E-11  6.82914824840224672E-11
  7.17927608586575445E-11  7.54735457865965564E-11  7.93430401267803484E-11
  8.34109185478949689E-11  8.76873517498965065E-11  9.21830317625383705E-11
  9.69091987836275697E-11  1.01877669283954283E-10  1.07100865435284939E-10
  1.12591846257088188E-10  1.18364340292620069E-10  1.24432779813072438E-10
  1.30812336938280756E-10  1.37518961658259108E-10  1.44569421591600395E-10
  1.51981343882690617E-10  1.59773259361480986E-10  1.67964648850978834E-10
  1.76575991783731418E-10  1.85628817402334438E-10  1.95145758666986682E-10
  2.05150608787404365E-10  2.15668380640864757E-10  2.26725369296169392E-10
  2.38349217802520152E-10  2.50568986292090984E-10  2.63415224547940712E-10
  2.76920048358899025E-10  2.91117219796906373E-10  3.06042231661684015E-10
  3.21732396168095505E-10  3.38226938159862949E-10  3.55567093144103640E-10
  3.73796210350578803E-10  3.92959861088298425E-10  4.13105952674942129E-10
  4.34284848120531724E-10  4.56549491979442578E-10  4.79955542663795318E-10
  5.04561511536907232E-10  5.30428909134110542E-10  5.57622398887078451E-10
  5.86209958732023228E-10  6.16263050950432737E-10  6.47856800736204071E-10
  6.81070183918308428E-10  7.15986224301838844E-10  7.52692201120064166E-10
  7.91279867115413914E-10  8.31845677793728531E-10  8.74491032424077998E-10
  9.19322527388753643E-10  9.66452222514704203E-10  1.01599792103453768E-09
  1.06808346389801481E-09  1.12283903916303269E-09  1.18040150723610821E-09
  1.24091474277394897E-09  1.30452999409927757E-09  1.37140626102764412E-09
  1.44171069204794322E-09  1.51561900184752121E-09  1.59331591022344259E-09
  1.67499560347487114E-09  1.76086221942737473E-09  1.85113035729900482E-09
  1.94602561367975456E-09  2.04578514596105939E-09  2.15065826462047932E-09
  2.26090705583834219E-09  2.37680703599889329E-09  2.49864783970768651E-09
  2.62673394304045605E-09  2.76138542382645106E-09  2.90293876086123746E-09
  3.05174767404102803E-09  3.20818400751226284E-09  3.37263865803720161E-09
  3.54552255088889486E-09  3.72726766570680839E-09  3.91832811486896801E-09
  4.11918127706683632E-09  4.33032898890625850E-09  4.55229879750244241E-09
  4.78564527719646609E-09  5.03095141368987958E-09  5.28883005897505176E-09
  5.55992546073287529E-09  5.84491487000519161E-09  6.14451023113604520E-09
  6.45945995818763753E-09  6.79055080225102328E-09  7.13860981429705832E-09
  7.50450640845082441E-09  7.88915453082081082E-09  8.29351493929511796E-09
  8.71859760013003044E-09  9.16546420692293470E-09  9.63523082835277425E-09
  1.01290706914307020E-08  1.06482171070894641E-08  1.11939665453791467E-08
  1.17676818679084423E-08  1.23707957255772763E-08  1.30048141304302988E-08
  1.36713202098529006E-08  1.43719781521912693E-08  1.51085373543879653E-08
  1.58828367816264938E-08  1.66968095497825460E-08  1.75524877421178916E-08
  1.84520074730267647E-08  1.93976142095489023E-08  2.03916683641227466E-08
  2.14366511736722109E-08  2.25351708790127962E-08  2.36899692199474662E-08
  2.49039282636212860E-08  2.61800775802816802E-08  2.75216017838644280E-08
  2.89318484587945241E-08  3.04143364914911702E-08  3.19727648279940905E-08
  3.36110216808289885E-08  3.53331942006012827E-08  3.71435786423001236E-08
  3.90466910511378039E-08  4.10472784943051738E-08  4.31503308697524407E-08
  4.53610933101165545E-08  4.76850792194813660E-08  5.01280839767623171E-08
  5.26961993397017344E-08  5.53958285879423439E-08  5.82337024261596216E-08
  6.12168957005766372E-08  6.43528449691955433E-08  6.76493669741478732E-08
  7.11146780513912178E-08  7.47574145174908139E-08  7.85866541014536523E-08
  8.26119384723300284E-08  8.68432969224544886E-08  9.12912712327051734E-08
  9.59669418093139210E-08  1.00881955156373769E-07  1.06048552761781346E-07
  1.11479601425059766E-07  1.17188625126527354E-07  1.23189838527225971E-07
  1.29498182193028205E-07  1.36129359576339924E-07  1.43099875870542983E-07
  1.50427078854523438E-07  1.58129201839195259E-07  1.66225408748031040E-07
  1.74735841482630601E-07  1.83681669716238123E-07  1.93085143244184697E-07
  2.02969646919124990E-07  2.13359758384836789E-07  2.24281308775176284E-07
  2.35761446499728070E-07  2.47828704176328463E-07  2.60513068991902375E-07
  2.73846056686877884E-07  2.87860789226540009E-07  3.02592076350928475E-07
  3.18076501314772862E-07  3.34352511021427157E-07  3.51460510567493647E-07
  3.69442962600122952E-07  3.88344491794700850E-07  4.08211994541184233E-07
  4.29094754062960779E-07  4.51044561455361123E-07  4.74115842905948977E-07
  4.98365793102771322E-07  5.23854515439829629E-07  5.50645169447529245E-07
  5.78804125458285061E-07  6.08401126983932983E-07  6.39509461467465616E-07
  6.72206139582256938E-07  7.06572083276120239E-07  7.42692323472042036E-07
  7.80656207830737789E-07  8.20557618525908171E-07  8.62495201099843753E-07
  9.06572605067252375E-07  9.52898736125943089E-07  1.00158802101574563E-06
  1.05276068602154112E-06  1.10654304901505845E-06  1.16306782591204039E-06
  1.22247445292339002E-06  1.28490942460815320E-06  1.35052664838163527E-06
  1.41948781726276453E-06  1.49196280102893308E-06  1.56813005620167817E-06
  1.64817705706367194E-06  1.73230074805695501E-06  1.82070801777983757E-06
  1.91361619721644484E-06  2.01125358272559392E-06  2.11385998384231878E-06
  2.22168729899672117E-06  2.33500011981649677E-06  2.45407636396152031E-06
  2.57920794012839772E-06  2.71070144595195767E-06  2.84887889873697568E-06
  2.99407850327278347E-06  3.14665545738660571E-06  3.30698279530034667E-06
  3.47545227373895916E-06  3.65247530118256001E-06  3.83848391069868195E-06
  4.03393178204012302E-06  4.23929531288969477E-06  4.45507474043072745E-06
  4.68179531961380949E-06  4.92000855722037926E-06  5.17029350416846174E-06
  5.43325811289616152E-06  5.70954065793046201E-06  5.99981122401150333E-06
  6.30477326859829006E-06  6.62516525587269589E-06  6.96176236922929538E-06
  7.31537830824857448E-06  7.68686716676669330E-06  8.07712540212925697E-06
  8.48709389959081101E-06  8.91776012933996777E-06  9.37016040904976016E-06
  9.84538227273856431E-06  1.03445669463636738E-05  1.08689119446082378E-05
  1.14196737859130162E-05  1.19981708313757882E-05  1.26057862613798702E-05
  1.32439711838388446E-05  1.39142478866868556E-05  1.46182132447441907E-05
  1.53575422743933974E-05  1.61339918557048913E-05  1.69494046249909292E-05
  1.78057130361639906E-05  1.87049436139492351E-05  1.96492213938622692E-05
  2.06407745574261615E-05  2.16819392833102506E-05  2.27751648038022253E-05
  2.39230186879253607E-05  2.51281923624234151E-05  2.63935068623584774E-05
  2.77219188421055014E-05  2.91165268440100079E-05  3.05805778293474350E-05
  3.21174740016753372E-05  3.37307799090400771E-05  3.54242298483454534E-05
  3.72017355894093356E-05  3.90673944057779723E-05  4.10254974501890945E-05
  4.30805384718148607E-05  4.52372228794210423E-05  4.75004771867184258E-05
  4.98754588224769528E-05  5.23675663337494501E-05  5.49824499996537269E-05
  5.77260228416591630E-05  6.06044720733939300E-05  6.36242709817046853E-05
  6.67921912482291201E-05  7.01153157454884865E-05  7.36010517870570532E-05
  7.72571448658738769E-05  8.10916928876727881E-05  8.51131608917487457E-05
  8.93303962962437460E-05  9.37526446526634782E-05  9.83895659261431292E-05
  1.03251251316994157E-04  1.08348240609644906E-04  1.13691540073351837E-04
  1.19292640906851213E-04  1.25163538229719604E-04  1.31316750625476002E-04
  1.37765340229409431E-04  1.44522933361255969E-04  1.51603741690865644E-04
  1.59022583940564830E-04  1.66794908092764073E-04  1.74936814108305719E-04
  1.83465077131877578E-04  1.92397171139518025E-04  2.01751293056039898E-04
  2.11546387245294950E-04  2.21802170384672952E-04  2.32539156690336735E-04
  2.43778683368682140E-04  2.55542936372881780E-04  2.67854976273776489E-04
  2.80738764239088783E-04  2.94219188105745196E-04  3.08322088277675677E-04
  3.23074283605729576E-04  3.38503596941340198E-04  3.54638880296463818E-04
  3.71510039656802228E-04  3.89148058953151302E-04  4.07585023454069329E-04
  4.26854142130945959E-04  4.46989768801083409E-04  4.68027422219552815E-04
  4.90003804286169814E-04  5.12956816773652577E-04  5.36925575960035253E-04
  5.61950424757985049E-04  5.88072942717691375E-04  6.15335952585464776E-04
  6.43783524020950424E-04  6.73460973647189531E-04  7.04414860710440524E-04
  7.36692979039653981E-04  7.70344343312245991E-04  8.05419170515030624E-04
  8.41968855497110449E-04  8.80045939467472439E-04  9.19704072577063095E-04
  9.60997967668488742E-04  1.00398334651909484E-03  1.04871687707885301E-03
  1.09525610004179296E-03  1.14365934650666125E-03  1.19398564257587928E-03
  1.24629460290495079E-03  1.30064631111114089E-03  1.35710118484134307E-03
  1.41571982805480069E-03  1.47656286477382075E-03  1.53969075739230146E-03
  1.60516360654658634E-03  1.67304092992854691E-03  1.74338142356583650E-03
  1.81624269786169533E-03  1.89168099313311282E-03  1.96975087029385102E-03
  2.05050487402029047E-03  2.13399317298580433E-03  2.22026316724114681E-03
  2.30935906988820935E-03  2.40132145675155638E-03  2.49618678212417625E-03
  2.59398686615430188E-03  2.69474834180414040E-03  2.79849207181970001E-03
  2.90523252687141693E-03  3.01497712498928396E-03  3.12772553849507929E-03
  3.24346895493570625E-03  3.36218930656110790E-03  3.48385845664966366E-03
  3.60843734669621897E-03  3.73587511067733496E-03  3.86610814326030384E-03
  3.99905914097044377E-03  4.13463610236580910E-03  4.27273129721509291E-03
  4.41322021024522382E-03  4.55596044990556372E-03  4.70079064502468974E-03
  4.84752931568234024E-03  4.99597373577889171E-03  5.14589879230643952E-03
  5.29705583990536938E-03  5.44917157543406416E-03  5.60194692480649702E-03
  5.75505596644518974E-03  5.90814489829202902E-03  6.06083105968697675E-03
  6.21270203171588476E-03  6.36331482360379726E-03  6.51219517155524324E-03
  6.65883696641679599E-03  6.80270183562681815E-03  6.94321889987704194E-03
  7.07978473943969479E-03  7.21176358761174002E-03  7.33848779243419149E-03
  7.45925857905633573E-03  7.57334713288337642E-03  7.67999607592610798E-03
  7.77842132746939339E-03  7.86781443911503328E-03  7.94734542042837243E-03
  8.01616608894872504E-03  8.07341405186327160E-03  8.11821726536699796E-03
  8.14969933761065801E-03  8.16698553130807553E-03  8.16920954352504634E-03
  8.15552117288073294E-03  8.12509476677247128E-03  8.07713870257108224E-03
  8.01090573659737210E-03  7.92570438521839928E-03  7.82091137464841976E-03
  7.69598501358826660E-03  7.55047979999125436E-03  7.38406191037468702E-03
  7.19652585651169713E-03  6.98781215053894539E-03  6.75802583727247268E-03
  6.50745615539953873E-03  6.23659676381581318E-03  5.94616691105540919E-03
  5.63713306215551501E-03  5.31073089447811793E-03  4.96848768170949241E-03
  4.61224434177781931E-03  4.24417746467066915E-03  3.86682045587035316E-03
  3.48308373768365081E-03  3.09627358422731157E-03  2.71010881963721067E-03
  2.32873534684631357E-03  1.95673740336258558E-03  1.59914532004915705E-03
  1.26143890168656453E-03  9.49545692935046788E-04  6.69833467753016762E-04
  4.29096005079356599E-04  2.34531430436830935E-04  9.37108579504411146E-05
  1.44672897297590481E-05 -6.17994415376554020E-08  6.05836780888856622E-09
  0.00000000000000000E+00  0.00000000000000000E+00  0.00000000000000000E+00
  0.00000000000000000E+00  0.00000000000000000E+00  0.00000000000000000E+00
  0.00000000000000000E+00  0.00000000000000000E+00  0.00000000000000000E+00
  0.00000000000000000E+00  0.00000000000000000E+00  0.00000000000000000E+00
  0.00000000000000000E+00  0.00000000000000000E+00  0.00000000000000000E+00
  0.00000000000000000E+00  0.00000000000000000E+00  0.00000000000000000E+00
  0.00000000000000000E+00  0.00000000000000000E+00  0.00000000000000000E+00
  0.00000000000000000E+00  0.00000000000000000E+00  0.00000000000000000E+00
  0.00000000000000000E+00  0.00000000000000000E+00  0.00000000000000000E+00
  0.00000000000000000E+00  0.00000000000000000E+00  0.00000000000000000E+00
  0.00000000000000000E+00  0.00000000000000000E+00  0.00000000000000000E+00
  0.00000000000000000E+00  0.00000000000000000E+00  0.00000000000000000E+00
  0.00000000000000000E+00  0.00000000000000000E+00  0.00000000000000000E+00
  0.00000000000000000E+00  0.00000000000000000E+00  0.00000000000000000E+00
  0.00000000000000000E+00  0.00000000000000000E+00  0.00000000000000000E+00
  0.00000000000000000E+00  0.00000000000000000E+00  0.00000000000000000E+00
  0.00000000000000000E+00  0.00000000000000000E+00  0.00000000000000000E+00
  0.00000000000000000E+00  0.00000000000000000E+00  0.00000000000000000E+00
  0.00000000000000000E+00  0.00000000000000000E+00  0.00000000000000000E+00
  0.00000000000000000E+00  0.00000000000000000E+00  0.00000000000000000E+00
  0.00000000000000000E+00  0.00000000000000000E+00  0.00000000000000000E+00
  0.00000000000000000E+00  0.00000000000000000E+00  0.00000000000000000E+00
  0.00000000000000000E+00  0.00000000000000000E+00  0.00000000000000000E+00
  0.00000000000000000E+00  0.00000000000000000E+00  0.00000000000000000E+00
  0.00000000000000000E+00  0.00000000000000000E+00  0.00000000000000000E+00
  0.00000000000000000E+00  0.00000000000000000E+00  0.00000000000000000E+00
  0.00000000000000000E+00  0.00000000000000000E+00  0.00000000000000000E+00
  0.00000000000000000E+00  0.00000000000000000E+00  0.00000000000000000E+00
  0.00000000000000000E+00  0.00000000000000000E+00  0.00000000000000000E+00
  0.00000000000000000E+00  0.00000000000000000E+00  0.00000000000000000E+00
  0.00000000000000000E+00  0.00000000000000000E+00  0.00000000000000000E+00
  0.00000000000000000E+00  0.00000000000000000E+00  0.00000000000000000E+00
  0.00000000000000000E+00  0.00000000000000000E+00  0.00000000000000000E+00
  0.00000000000000000E+00  0.00000000000000000E+00  0.00000000000000000E+00
  0.00000000000000000E+00  0.00000000000000000E+00  0.00000000000000000E+00
  0.00000000000000000E+00  0.00000000000000000E+00  0.00000000000000000E+00
  0.00000000000000000E+00  0.00000000000000000E+00  0.00000000000000000E+00
  0.00000000000000000E+00  0.00000000000000000E+00  0.00000000000000000E+00
  0.00000000000000000E+00  0.00000000000000000E+00  0.00000000000000000E+00
  0.00000000000000000E+00  0.00000000000000000E+00  0.00000000000000000E+00
  0.00000000000000000E+00  0.00000000000000000E+00  0.00000000000000000E+00
  0.00000000000000000E+00  0.00000000000000000E+00  0.00000000000000000E+00
  0.00000000000000000E+00  0.00000000000000000E+00  0.00000000000000000E+00
  0.00000000000000000E+00  0.00000000000000000E+00  0.00000000000000000E+00
  0.00000000000000000E+00  0.00000000000000000E+00  0.00000000000000000E+00
  0.00000000000000000E+00  0.00000000000000000E+00  0.00000000000000000E+00
  0.00000000000000000E+00  0.00000000000000000E+00  0.00000000000000000E+00
  0.00000000000000000E+00  0.00000000000000000E+00  0.00000000000000000E+00
  0.00000000000000000E+00  0.00000000000000000E+00  0.00000000000000000E+00
  0.00000000000000000E+00  0.00000000000000000E+00  0.00000000000000000E+00
  0.00000000000000000E+00  0.00000000000000000E+00  0.00000000000000000E+00
  0.00000000000000000E+00  0.00000000000000000E+00  0.00000000000000000E+00
  0.00000000000000000E+00  0.00000000000000000E+00  0.00000000000000000E+00
  0.00000000000000000E+00  0.00000000000000000E+00  0.00000000000000000E+00
  0.00000000000000000E+00  0.00000000000000000E+00  0.00000000000000000E+00
  0.00000000000000000E+00  0.00000000000000000E+00  0.00000000000000000E+00
  0.00000000000000000E+00  0.00000000000000000E+00  0.00000000000000000E+00
  0.00000000000000000E+00  0.00000000000000000E+00  0.00000000000000000E+00
  0.00000000000000000E+00  0.00000000000000000E+00  0.00000000000000000E+00
  0.00000000000000000E+00  0.00000000000000000E+00  0.00000000000000000E+00
  0.00000000000000000E+00  0.00000000000000000E+00  0.00000000000000000E+00
  0.00000000000000000E+00  0.00000000000000000E+00  0.00000000000000000E+00
  0.00000000000000000E+00  0.00000000000000000E+00  0.00000000000000000E+00
  0.00000000000000000E+00  0.00000000000000000E+00  0.00000000000000000E+00
  0.00000000000000000E+00  0.00000000000000000E+00
                       </PP_QIJL.3.3.2>
                                   </PP_AUGMENTATION> 
                                   </PP_NONLOCAL> 
<PP_PSWFC> 
 <PP_CHI.1 type="real" size="   833" l="0" occupation=" 2.0000" columns="3" label= "1S">
  8.62245650758469771E-04  8.73091361465654059E-04  8.84073494250227853E-04
  8.95193765084215782E-04  9.06453911523668601E-04  9.17855692980143185E-04
  9.29400890995603400E-04  9.41091309520776975E-04  9.52928775197009470E-04
  9.64915137641671173E-04  9.77052269737143601E-04  9.89342067923447074E-04
  1.00178645249454786E-03  1.01438736789839020E-03  1.02714678304070524E-03
  1.04006669159263415E-03  1.05314911230222695E-03  1.06639608930985687E-03
  1.07980969246759795E-03  1.09339201766262841E-03  1.10714518714468899E-03
  1.12107134985766905E-03  1.13517268177535996E-03  1.14945138624142915E-03
  1.16390969431367521E-03  1.17854986511260382E-03  1.19337418617439565E-03
  1.20838497380830923E-03  1.22358457345857815E-03  1.23897536007086485E-03
  1.25455973846331321E-03  1.27034014370227643E-03  1.28631904148276597E-03
  1.30249892851368458E-03  1.31888233290790931E-03  1.33547181457726997E-03
  1.35226996563250356E-03  1.36927941078823496E-03  1.38650280777305001E-03
  1.40394284774473035E-03  1.42160225571069903E-03  1.43948379095376524E-03
  1.45759024746321543E-03  1.47592445437132831E-03  1.49448927639538195E-03
  1.51328761428520938E-03  1.53232240527639211E-03  1.55159662354914865E-03
  1.57111328069299214E-03  1.59087542617723679E-03  1.61088614782740826E-03
  1.63114857230765853E-03  1.65166586560923844E-03  1.67244123354511336E-03
  1.69347792225080598E-03  1.71477921869152023E-03  1.73634845117565779E-03
  1.75818898987478429E-03  1.78030424735013226E-03  1.80269767908573125E-03
  1.82537278402822821E-03  1.84833310513350842E-03  1.87158222992018152E-03
  1.89512379103002715E-03  1.91896146679549490E-03  1.94309898181432373E-03
  1.96754010753139898E-03  1.99228866282792193E-03  2.01734851461797928E-03
  2.04272357845262844E-03  2.06841781913155720E-03  2.09443525132244762E-03
  2.12077994018812065E-03  2.14745600202156635E-03  2.17446760488896121E-03
  2.20181896928075410E-03  2.22951436877095663E-03  2.25755813068470677E-03
  2.28595463677422903E-03  2.31470832390329780E-03  2.34382368474028973E-03
  2.37330526845995916E-03  2.40315768145403291E-03  2.43338558805073239E-03
  2.46399371124335007E-03  2.49498683342796318E-03  2.52636979715044254E-03
  2.55814750586283316E-03  2.59032492468924984E-03  2.62290708120140091E-03
  2.65589906620384295E-03  2.68930603452912330E-03  2.72313320584290260E-03
  2.75738586545919801E-03  2.79206936516588353E-03  2.82718912406053216E-03
  2.86275062939679798E-03  2.89875943744141067E-03  2.93522117434194194E-03
  2.97214153700548758E-03  3.00952629398836729E-03  3.04738128639702463E-03
  3.08571242880023100E-03  3.12452571015275644E-03  3.16382719473065534E-03
  3.20362302307827069E-03  3.24391941296716616E-03  3.28472266036709164E-03
  3.32603914042914166E-03  3.36787530848127849E-03  3.41023770103633488E-03
  3.45313293681269885E-03  3.49656771776780994E-03  3.54054883014463372E-03
  3.58508314553128990E-03  3.63017762193396402E-03  3.67583930486331360E-03
  3.72207532843451096E-03  3.76889291648109439E-03  3.81629938368281511E-03
  3.86430213670762527E-03  3.91290867536802506E-03  3.96212659379191218E-03
  4.01196358160813872E-03  4.06242742514695537E-03  4.11352600865549142E-03
  4.16526731552854280E-03  4.21765942955475929E-03  4.27071053617850485E-03
  4.32442892377754660E-03  4.37882298495675427E-03  4.43390121785806977E-03
  4.48967222748688274E-03  4.54614472705507002E-03  4.60332753934086531E-03
  4.66122959806582107E-03  4.71985994928898235E-03  4.77922775281861782E-03
  4.83934228364161188E-03  4.90021293337079573E-03  4.96184921171044773E-03
  5.02426074794012478E-03  5.08745729241714875E-03  5.15144871809789743E-03
  5.21624502207818346E-03  5.28185632715294333E-03  5.34829288339545503E-03
  5.41556506975637581E-03  5.48368339568280298E-03  5.55265850275762224E-03
  5.62250116635942734E-03  5.69322229734317304E-03  5.76483294374194235E-03
  5.83734429249000309E-03  5.91076767116744360E-03  5.98511454976668241E-03
  6.06039654248104881E-03  6.13662540951580293E-03  6.21381305892181306E-03
  6.29197154845216947E-03  6.37111308744207818E-03  6.45125003871222305E-03
  6.53239492049598365E-03  6.61456040839075807E-03  6.69775933733367940E-03
  6.78200470360208404E-03  6.86730966683893069E-03  6.95368755210360508E-03
  7.04115185194833983E-03  7.12971622852058215E-03  7.21939451569166956E-03
  7.31020072121205209E-03  7.40214902889348939E-03  7.49525380081849085E-03
  7.58952957957732995E-03  7.68499109053305974E-03  7.78165324411470190E-03
  7.87953113813915675E-03  7.97864006016203720E-03  8.07899548985785768E-03
  8.18061310142992500E-03  8.28350876605023906E-03  8.38769855432987266E-03
  8.49319873882013916E-03  8.60002579654488286E-03  8.70819641156443322E-03
  8.81772747757137397E-03  8.92863610051872550E-03  9.04093960128084934E-03
  9.15465551834743207E-03  9.26980161055106916E-03  9.38639585982869833E-03
  9.50445647401744823E-03  9.62400188968524049E-03  9.74505077499655641E-03
  9.86762203261386944E-03  9.99173480263505255E-03  1.01174084655673274E-02
  1.02446626453381196E-02  1.03735172123432685E-02  1.05039922865331238E-02
  1.06361082405367971E-02  1.07698857028252666E-02  1.09053455609136492E-02
  1.10425089646031035E-02  1.11813973292629858E-02  1.13220323391534997E-02
  1.14644359507895810E-02  1.16086303963463412E-02  1.17546381871066127E-02
  1.19024821169511474E-02  1.20521852658918450E-02  1.22037710036486981E-02
  1.23572629932708188E-02  1.25126851948021631E-02  1.26700618689924768E-02
  1.28294175810538848E-02  1.29907772044638263E-02  1.31541659248147879E-02
  1.33196092437113649E-02  1.34871329827153212E-02  1.36567632873389900E-02
  1.38285266310878546E-02  1.40024498195526793E-02  1.41785599945518336E-02
  1.43568846383244440E-02  1.45374515777748018E-02  1.47202889887688478E-02
  1.49054254004831205E-02  1.50928896998069294E-02  1.52827111357982850E-02
  1.54749193241941543E-02  1.56695442519757880E-02  1.58666162819896608E-02
  1.60661661576246596E-02  1.62682250075462317E-02  1.64728243504879239E-02
  1.66799961001013082E-02  1.68897725698645799E-02  1.71021864780507640E-02
  1.73172709527560503E-02  1.75350595369888965E-02  1.77555861938207236E-02
  1.79788853115987191E-02  1.82049917092215879E-02  1.84339406414787098E-02
  1.86657678044537360E-02  1.89005093409928895E-02  1.91382018462390828E-02
  1.93788823732323548E-02  1.96225884385772438E-02  1.98693580281780850E-02
  2.01192296030426737E-02  2.03722421051551889E-02  2.06284349634190609E-02
  2.08878480996704530E-02  2.11505219347632098E-02  2.14164973947258315E-02
  2.16858159169914175E-02  2.19585194567012247E-02  2.22346504930824307E-02
  2.25142520359012561E-02  2.27973676319916524E-02  2.30840413718608299E-02
  2.33743178963720412E-02  2.36682424035054330E-02  2.39658606551978806E-02
  2.42672189842623245E-02  2.45723643013875809E-02  2.48813441022192501E-02
  2.51942064745224806E-02  2.55110001054275025E-02  2.58317742887584183E-02
  2.61565789324462276E-02  2.64854645660268471E-02  2.68184823482245684E-02
  2.71556840746222279E-02  2.74971221854182352E-02  2.78428497732716891E-02
  2.81929205912360911E-02  2.85473890607823647E-02  2.89063102799120217E-02
  2.92697400313610932E-02  2.96377347908956396E-02  3.00103517356994955E-02
  3.03876487528547574E-02  3.07696844479162721E-02  3.11565181535799901E-02
  3.15482099384465850E-02  3.19448206158806092E-02  3.23464117529658479E-02
  3.27530456795577379E-02  3.31647854974331038E-02  3.35816950895382049E-02
  3.40038391293354461E-02  3.44312830902492664E-02  3.48640932552120378E-02
  3.53023367263101892E-02  3.57460814345312780E-02  3.61953961496125215E-02
  3.66503504899909141E-02  3.71110149328559222E-02  3.75774608243046454E-02
  3.80497603896002151E-02  3.85279867435335405E-02  3.90122139008888397E-02
  3.95025167870132962E-02  3.99989712484908749E-02  4.05016540639209083E-02
  4.10106429548012241E-02  4.15260165965161618E-02  4.20478546294297123E-02
  4.25762376700834777E-02  4.31112473224997128E-02  4.36529661895896162E-02
  4.42014778846659823E-02  4.47568670430612270E-02  4.53192193338494212E-02
  4.58886214716729482E-02  4.64651612286729673E-02  4.70489274465234128E-02
  4.76400100485681391E-02  4.82385000520605955E-02  4.88444895805053222E-02
  4.94580718761009272E-02  5.00793413122832543E-02  5.07083934063682490E-02
  5.13453248322936207E-02  5.19902334334577387E-02  5.26432182356553133E-02
  5.33043794601079993E-02  5.39738185365888912E-02  5.46516381166394852E-02
  5.53379420868770414E-02  5.60328355823913049E-02  5.67364250002281786E-02
  5.74488180129584802E-02  5.81701235823301049E-02  5.89004519730003534E-02
  5.96399147663472032E-02  6.03886248743558951E-02  6.11466965535785723E-02
  6.19142454191641475E-02  6.26913884589547082E-02  6.34782440476461540E-02
  6.42749319610081554E-02  6.50815733901611987E-02  6.58982909559057972E-02
  6.67252087231000046E-02  6.75624522150811563E-02  6.84101484281265798E-02
  6.92684258459489860E-02  7.01374144542213085E-02  7.10172457551251496E-02
  7.19080527819177112E-02  7.28099701135107996E-02  7.37231338890558946E-02
  7.46476818225285249E-02  7.55837532173048166E-02  7.65314889807235527E-02
  7.74910316386251269E-02  7.84625253498602571E-02  7.94461159207595219E-02
  8.04419508195549499E-02  8.14501791907449590E-02  8.24709518693915733E-02
  8.35044213953415743E-02  8.45507420273599181E-02  8.56100697571639813E-02
  8.66825623233480613E-02  8.77683792251852113E-02  8.88676817362940713E-02
  8.99806329181571940E-02  9.11073976334767083E-02  9.22481425593544707E-02
  9.34030362002786912E-02  9.45722489009038214E-02  9.57559528586066216E-02
  9.69543221357998808E-02  9.81675326719874120E-02  9.93957622955409514E-02
  1.00639190735179726E-01  1.01897999631131678E-01  1.03172372545955335E-01
  1.04462494975001957E-01  1.05768554356491420E-01  1.07090740081180497E-01
  1.08429243501599271E-01  1.09784257940825900E-01  1.11155978700776079E-01
  1.12544603069978225E-01  1.13950330330803998E-01  1.15373361766123381E-01
  1.16813900665354894E-01  1.18272152329875549E-01  1.19748324077755139E-01
  1.21242625247782648E-01  1.22755267202746002E-01  1.24286463331921976E-01
  1.25836429052743920E-01  1.27405381811600688E-01  1.28993541083721103E-01
  1.30601128372104081E-01  1.32228367205446062E-01  1.33875483135011158E-01
  1.35542703730401171E-01  1.37230258574171482E-01  1.38938379255229588E-01
  1.40667299360971110E-01  1.42417254468090504E-01  1.44188482131997031E-01
  1.45981221874785100E-01  1.47795715171688741E-01  1.49632205435941856E-01
  1.51490938001990150E-01  1.53372160106972244E-01  1.55276120870385254E-01
  1.57203071271875022E-01  1.59153264127055938E-01  1.61126954061268479E-01
  1.63124397481209160E-01  1.65145852544320931E-01  1.67191579125848477E-01
  1.69261838783484775E-01  1.71356894719477515E-01  1.73477011740098497E-01
  1.75622456212390948E-01  1.77793496018041147E-01  1.79990400504281722E-01
  1.82213440431720719E-01  1.84462887918924623E-01  1.86739016383666079E-01
  1.89042100480705577E-01  1.91372416035916287E-01  1.93730239976673102E-01
  1.96115850258330449E-01  1.98529525786599659E-01  2.00971546335744933E-01
  2.03442192462369470E-01  2.05941745414621985E-01  2.08470487036723939E-01
  2.11028699668531911E-01  2.13616666040006814E-01  2.16234669160439208E-01
  2.18882992202105581E-01  2.21561918378277684E-01  2.24271730815338716E-01
  2.27012712418695639E-01  2.29785145732429169E-01  2.32589312792316871E-01
  2.35425494971991833E-01  2.38293972822141070E-01  2.41195025902267546E-01
  2.44128932604904453E-01  2.47095969972051938E-01  2.50096413503332282E-01
  2.53130536955862462E-01  2.56198612135393244E-01  2.59300908678330777E-01
  2.62437693824632445E-01  2.65609232180902988E-01  2.68815785473553170E-01
  2.72057612291818407E-01  2.75334967819878762E-01  2.78648103558198468E-01
  2.81997267033486709E-01  2.85382701496745050E-01  2.88804645609540112E-01
  2.92263333117509239E-01  2.95758992511041541E-01  2.99291846672908035E-01
  3.02862112511767978E-01  3.06470000581935298E-01  3.10115714688478761E-01
  3.13799451477083768E-01  3.17521400009001364E-01  3.21281741319566050E-01
  3.25080647960606373E-01  3.28918283526265343E-01  3.32794802160893077E-01
  3.36710348049885921E-01  3.40665054891813923E-01  3.44659045351663973E-01
  3.48692430495532002E-01  3.52765309204558397E-01  3.56877767569356685E-01
  3.61029878263553261E-01  3.65221699895358909E-01  3.69453276338549963E-01
  3.73724636039934666E-01  3.78035791304532187E-01  3.82386737557904199E-01
  3.86777452583265846E-01  3.91207895735933620E-01  3.95678007131762544E-01
  4.00187706810286759E-01  4.04736893873405335E-01  4.09325445595638104E-01
  4.13953216509738486E-01  4.18620037464280670E-01  4.23325714652919793E-01
  4.28070028618125209E-01  4.32852733223634489E-01  4.37673554600560566E-01
  4.42532190064280517E-01  4.47428307000220793E-01  4.52361541723900695E-01
  4.57331498307591677E-01  4.62337747379541086E-01  4.67379824894048668E-01
  4.72457230868309985E-01  4.77569428094666015E-01  4.82715840818576769E-01
  4.87895853389214096E-01  4.93108808882839422E-01  4.98354007692003775E-01
  5.03630706093388225E-01  5.08938114782296780E-01  5.14275397381713462E-01
  5.19641668928749412E-01  5.25035994327860411E-01  5.30457386789024765E-01
  5.35904806236104814E-01  5.41377157694639122E-01  5.46873289665349094E-01
  5.52391992468197146E-01  5.57931996582141543E-01  5.63491970962197830E-01
  5.69070521345083735E-01  5.74666188553967006E-01  5.80277446781563788E-01
  5.85902701885836708E-01  5.91540289674889253E-01  5.97188474195696095E-01
  6.02845446041984423E-01  6.08509320653813246E-01  6.14178136654979001E-01
  6.19849854197654371E-01  6.25522353334517112E-01  6.31193432438565627E-01
  6.36860806635391796E-01  6.42522106309434071E-01  6.48174875643116821E-01
  6.53816571218408304E-01  6.59444560704941729E-01  6.65056121591057869E-01
  6.70648440038738247E-01  6.76218609806182425E-01  6.81763631282368499E-01
  6.87280410658999141E-01  6.92765759188173402E-01  6.98216392630388594E-01
  7.03628930815283105E-01  7.08999897382212585E-01  7.14325719721779939E-01
  7.19602729061117219E-01  7.24827160824416894E-01  7.29995155162357134E-01
  7.35102757750759173E-01  7.40145920865801887E-01  7.45120504678863593E-01
  7.50022278930022046E-01  7.54846924837287214E-01  7.59590037387716799E-01
  7.64247127989374886E-01  7.68813627438134861E-01  7.73284889381166352E-01
  7.77656194091537079E-01  7.81922752758478001E-01  7.86079712224073468E-01
  7.90122160147933683E-01  7.94045130790684839E-01  7.97843611187455837E-01
  8.01512547982343504E-01  8.05046854783105226E-01  8.08441420067302574E-01
  8.11691115812930297E-01  8.14790806591375483E-01  8.17735359456000621E-01
  8.20519654392298681E-01  8.23138595433802078E-01  8.25587122558428477E-01
  8.27860224092720753E-01  8.29952949995502065E-01  8.31860425681107407E-01
  8.33577866574177317E-01  8.35100593402742120E-01  8.36424047980747321E-01
  8.37543809838845688E-01  8.38455613265718491E-01  8.39155365029547684E-01
  8.39639162633307845E-01  8.39903312914230926E-01  8.39944351254050314E-01
  8.39759060904833765E-01  8.39344492719983459E-01  8.38697984976641164E-01
  8.37817183172731350E-01  8.36700059878876079E-01  8.35344934169630959E-01
  8.33750490819884171E-01  8.31915798839154674E-01  8.29840329252039988E-01
  8.27523971957427107E-01  8.24967051298910903E-01  8.22170340253216114E-01
  8.19135072851941759E-01  8.15862954617585179E-01  8.12356170657625110E-01
  8.08617391197129276E-01  8.04649774025560260E-01  8.00456963783268471E-01
  7.96043087477833589E-01  7.91412745975422216E-01  7.86571001317397767E-01
  7.81523358940443780E-01  7.76275745370841985E-01  7.70834480126496802E-01
  7.65206242293202221E-01  7.59398031475330360E-01  7.53417122302089903E-01
  7.47271013989183719E-01  7.40967373114987060E-01  7.34513971753274708E-01
  7.27918620354078616E-01  7.21189095929940738E-01  7.14333068191613019E-01
  7.07358022271045384E-01  7.00271183024625432E-01  6.93079440624312593E-01
  6.85789281574701204E-01  6.78406729528600372E-01  6.70937297913763775E-01
  6.63385963480095819E-01  6.55757163839067680E-01  6.48054829604167049E-01
  6.40282459840582185E-01  6.32443251674303375E-01  6.24540292025260735E-01
  6.16576699715098320E-01  6.08555642063449920E-01  6.00480332789904536E-01
  5.92354029862126374E-01  5.84180033525541820E-01  5.75961683893078225E-01
  5.67702358825655229E-01  5.59405471475895033E-01  5.51074467839845705E-01
  5.42712824350650935E-01  5.34324045119144553E-01  5.25911659464724512E-01
  5.17479219038938565E-01  5.09030295096210672E-01  5.00568475658178857E-01
  4.92097362466028754E-01  4.83620568154428665E-01  4.75141713023778833E-01
  4.66664422051408678E-01  4.58192321673639491E-01  4.49729036516915648E-01
  4.41278186239989823E-01  4.32843382052712888E-01  4.24428223501337076E-01
  4.16036294960680231E-01  4.07671162219887584E-01  3.99336369060405871E-01
  3.91035433644952413E-01  3.82771845134263600E-01  3.74549060025682223E-01
  3.66370498682093038E-01  3.58239541764835412E-01  3.50159526629330475E-01
  3.42133743872781393E-01  3.34165433688440150E-01  3.26257782445216582E-01
  3.18413919144364677E-01  3.10636911966329032E-01  3.02929764896436582E-01
  2.95295414284071744E-01  2.87736725605441279E-01  2.80256490149819737E-01
  2.72857421868502092E-01  2.65542154269725272E-01  2.58313237371880555E-01
  2.51173134814383303E-01  2.44124220992554847E-01  2.37168778364858890E-01
  2.30308994836921327E-01  2.23546961282013734E-01  2.16884669193394608E-01
  2.10324008472357826E-01  2.03866765354232204E-01  1.97514620501368365E-01
  1.91269147239914589E-01  1.85131809957288868E-01  1.79103962705727343E-01
  1.73186847908885555E-01  1.67381595347808471E-01  1.61689221233897340E-01
  1.56110627535673147E-01  1.50646601500788319E-01  1.45297815292269095E-01
  1.40064825981456337E-01  1.34948075546326623E-01  1.29947891254654724E-01
  1.25064486143090015E-01  1.20297959694949608E-01  1.15648298859492252E-01
  1.11115379032106276E-01  1.06698965528097184E-01  1.02398714997521470E-01
  9.82141771861158586E-02  9.41447969068857499E-02  9.01899160101443387E-02
  8.63487758685243939E-02  8.26205196572050715E-02  7.90041951391777519E-02
  7.54987574373642140E-02  7.21030719372057760E-02  6.88159175871122242E-02
  6.56359899369152872E-02  6.25619047712240028E-02  5.95922014794260588E-02
  5.67253467469296738E-02  5.39597383952495693E-02  5.12937090265792178E-02
  4.87255302220806624E-02  4.62534162868876372E-02  4.38755284910313931E-02
  4.15899791385781828E-02  3.93948356190233426E-02  3.72881248103788462E-02
  3.52678369833367908E-02  3.33319302693162109E-02  3.14783346599292746E-02
  2.97049562146926675E-02  2.80096813000759032E-02  2.63903804407555724E-02
  2.48449126497790988E-02  2.33711291101830407E-02  2.19668772483155895E-02
  2.06300044917014785E-02  1.93583618621278007E-02  1.81498078107577634E-02
  1.70022114079774744E-02  1.59134559802533680E-02  1.48814421631491972E-02
  1.39040910389911492E-02  1.29793471997973059E-02  1.21051813300740198E-02
  1.12795931424308684E-02  1.05006136150216194E-02  9.76630749682845002E-03
  9.07477544442239145E-03  8.42415593121985558E-03  7.81262729579785056E-03
  7.23840916206409685E-03  6.69976417843120772E-03  6.19499920637232252E-03
  5.72246652837428340E-03  5.28056494545831555E-03  4.86774044702339547E-03
  4.48248712393297267E-03  4.12334750150286991E-03  3.78891305580393752E-03
  3.47782442361655245E-03  3.18877142884368059E-03  2.92049319647674083E-03
  2.67177780190609076E-03  2.44146214771536179E-03  2.22843144764650657E-03
  2.03161873424223842E-03  1.85000429415581357E-03  1.68261483003818275E-03
  1.52852279928039907E-03  1.38684538905573277E-03  1.25674363640699595E-03
  1.13742137263547522E-03  1.02812408557248947E-03  9.28137862156652813E-04
  8.36788082038419879E-04  7.53438283297127340E-04  6.77488828838209182E-04
  6.08375629398785018E-04  5.45568859448394470E-04  4.88571563326154965E-04
  4.36918399212149076E-04  3.90174226202831065E-04  3.47932815020206179E-04
  3.09815505239199125E-04  2.75469867644223044E-04  2.44568448034180577E-04
  2.16807431254482631E-04  1.91905434037026074E-04  1.69602242121413393E-04
  1.49657620092531014E-04  1.31850156720108279E-04  1.15976103598795479E-04
  1.01848315356651333E-04  8.92951595947658744E-05  7.81595207956585058E-05
  6.82978167271756632E-05  5.95790556841213018E-05  5.18839607312636525E-05
  4.51040966431805803E-05  3.91410807378331571E-05  3.39058025502516188E-05
  2.93177027783349814E-05  2.53040928007839339E-05  2.17995003609647407E-05
  1.87450771819142827E-05  1.60880206937390832E-05  1.37810521077278386E-05
  1.17819199881241351E-05  1.00529390527564001E-05  8.56056948695880180E-06
  7.27501588250981349E-06  6.16986927127479868E-06  5.22176756886598087E-06
  4.41008893454935276E-06  3.71667020335659361E-06  3.12554594209519123E-06
  2.62271620990699540E-06  2.19592907377636109E-06  1.83448812771053083E-06
  1.52907552798686089E-06  1.27159253522971402E-06  1.05501742929300868E-06
  8.73275219664512875E-07  7.21123693429273165E-07  5.94049316312935167E-07
  4.88175696929036297E-07  4.00181989834039451E-07
                              </PP_CHI.1>
 <PP_CHI.2 type="real" size="   833" l="0" occupation=" 0.0000" columns="3" label= "0S">
 -1.20846608930012356E-03 -1.22366670999769496E-03 -1.23905853052875495E-03
 -1.25464395587443055E-03 -1.27042542126615254E-03 -1.28640539256612524E-03
 -1.30258636665259468E-03 -1.31897087180995434E-03 -1.33556146812375642E-03
 -1.35236074788069958E-03 -1.36937133597363116E-03 -1.38659589031165710E-03
 -1.40403710223540147E-03 -1.42169769693749099E-03 -1.43958043388832976E-03
 -1.45768810726721828E-03 -1.47602354639890586E-03 -1.49458961619562615E-03
 -1.51338921760469096E-03 -1.53242528806172185E-03 -1.55170080194956365E-03
 -1.57121877106298547E-03 -1.59098224507921572E-03 -1.61099431203439781E-03
 -1.63125809880603954E-03 -1.65177677160151790E-03 -1.67255353645274162E-03
 -1.69359163971702256E-03 -1.71489436858424799E-03 -1.73646505159043806E-03
 -1.75830705913774545E-03 -1.78042380402100597E-03 -1.80281874196090469E-03
 -1.82549537214384623E-03 -1.84845723776861921E-03 -1.87170792659992007E-03
 -1.89525107152885113E-03 -1.91909035114045745E-03 -1.94322949028840090E-03
 -1.96767226067686742E-03 -1.99242248144977348E-03 -2.01748401978739562E-03
 -2.04286079151049481E-03 -2.06855676169203544E-03 -2.09457594527660352E-03
 -2.12092240770759546E-03 -2.14760026556230560E-03 -2.17461368719499377E-03
 -2.20196689338803637E-03 -2.22966415801126782E-03 -2.25770980868959890E-03
 -2.28610822747904148E-03 -2.31486385155122223E-03 -2.34398117388650434E-03
 -2.37346474397582760E-03 -2.40331916853135479E-03 -2.43354911220606835E-03
 -2.46415929832240069E-03 -2.49515450961002765E-03 -2.52653958895294149E-03
 -2.55831944014589530E-03 -2.59049902866037487E-03 -2.62308338242018668E-03
 -2.65607759258679622E-03 -2.68948681435454392E-03 -2.72331626775583610E-03
 -2.75757123847647544E-03 -2.79225707868122671E-03 -2.82737920784975746E-03
 -2.86294311362309721E-03 -2.89895435266070882E-03 -2.93541855150834981E-03
 -2.97234140747683383E-03 -3.00972868953182805E-03 -3.04758623919484809E-03
 -3.08591997145554351E-03 -3.12473587569547621E-03 -3.16404001662348852E-03
 -3.20383853522282448E-03 -3.24413764971016221E-03 -3.28494365650666958E-03
 -3.32626293122128495E-03 -3.36810192964633352E-03 -3.41046718876565581E-03
 -3.45336532777540785E-03 -3.49680304911766061E-03 -3.54078713952700247E-03
 -3.58532447109028264E-03 -3.63042200231965696E-03 -3.67608677923912490E-03
 -3.72232593648468739E-03 -3.76914669841834369E-03 -3.81655638025606711E-03
 -3.86456238920994269E-03 -3.91317222564466216E-03 -3.96239348424850223E-03
 -4.01223385521904969E-03 -4.06270112546378362E-03 -4.11380317981573530E-03
 -4.16554800226442458E-03 -4.21794367720221795E-03 -4.27099839068635721E-03
 -4.32472043171681659E-03 -4.37911819353019836E-03 -4.43420017490988271E-03
 -4.48997498151258289E-03 -4.54645132721158418E-03 -4.60363803545681474E-03
 -4.66154404065199490E-03 -4.72017838954906163E-03 -4.77955024266007219E-03
 -4.83966887568683651E-03 -4.90054368096847978E-03 -4.96218416894715283E-03
 -5.02459996965214355E-03 -5.08780083420256983E-03 -5.15179663632894802E-03
 -5.21659737391382342E-03 -5.28221317055171686E-03 -5.34865427712865032E-03
 -5.41593107342143009E-03 -5.48405406971702071E-03 -5.55303390845218736E-03
 -5.62288136587370604E-03 -5.69360735371937741E-03 -5.76522292092007411E-03
 -5.83773925532315736E-03 -5.91116768543745175E-03 -5.98551968220009840E-03
 -6.06080686076553802E-03 -6.13704098231686659E-03 -6.21423395589992388E-03
 -6.29239784028030359E-03 -6.37154484582364618E-03 -6.45168733639944411E-03
 -6.53283783130870384E-03 -6.61500900723568670E-03 -6.69821370022412061E-03
 -6.78246490767812123E-03 -6.86777579038812779E-03 -6.95415967458222397E-03
 -7.04163005400304520E-03 -7.13020059201073010E-03 -7.21988512371211488E-03
 -7.31069765811656093E-03 -7.40265238031875827E-03 -7.49576365370873288E-03
 -7.59004602220954457E-03 -7.68551421254290695E-03 -7.78218313652309038E-03
 -7.88006789337952762E-03 -7.97918377210834161E-03 -8.07954625385329424E-03
 -8.18117101431642922E-03 -8.28407392619878030E-03 -8.38827106167158894E-03
 -8.49377869487824913E-03 -8.60061330446755534E-03 -8.70879157615848248E-03
 -8.81833040533692818E-03 -8.92924689968488221E-03 -9.04155838184226082E-03
 -9.15528239210196965E-03 -9.27043669113851616E-03 -9.38703926277057246E-03
 -9.50510831675796704E-03 -9.62466229163341964E-03 -9.74571985756955347E-03
 -9.86829991928156285E-03 -9.99242161896594754E-03 -1.01181043392757977E-02
 -1.02453677063330164E-02 -1.03742315927780066E-02 -1.05047161208571913E-02
 -1.06368416655488671E-02 -1.07706288577279052E-02 -1.09060985873695952E-02
 -1.10432720067933452E-02 -1.11821705339465085E-02 -1.13228158557289356E-02
 -1.14652299313587423E-02 -1.16094349957796585E-02 -1.17554535631106370E-02
 -1.19033084301381330E-02 -1.20530226798515015E-02 -1.22046196850222281E-02
 -1.23581231118272197E-02 -1.25135569235169906E-02 -1.26709453841290388E-02
 -1.28303130622470802E-02 -1.29916848348066681E-02 -1.31550858909476268E-02
 -1.33205417359140415E-02 -1.34880781950022302E-02 -1.36577214175572989E-02
 -1.38294978810188894E-02 -1.40034343950165684E-02 -1.41795581055156241E-02
 -1.43578964990137038E-02 -1.45384774067889785E-02 -1.47213290092003887E-02
 -1.49064798400405391E-02 -1.50939587909419484E-02 -1.52837951158372176E-02
 -1.54760184354736808E-02 -1.56706587419833329E-02 -1.58677464035083711E-02
 -1.60673121688833867E-02 -1.62693871723744339E-02 -1.64740029384759859E-02
 -1.66811913867661935E-02 -1.68909848368211449E-02 -1.71034160131889254E-02
 -1.73185180504239582E-02 -1.75363244981824769E-02 -1.77568693263796991E-02
 -1.79801869304093628E-02 -1.82063121364264384E-02 -1.84352802066936675E-02
 -1.86671268449924779E-02 -1.89018882020993498E-02 -1.91396008813277986E-02
 -1.93803019441372675E-02 -1.96240289158092426E-02 -1.98708197911914609E-02
 -2.01207130405110790E-02 -2.03737476152571519E-02 -2.06299629541335725E-02
 -2.08893989890830585E-02 -2.11520961513827904E-02 -2.14180953778127688E-02
 -2.16874381168972140E-02 -2.19601663352202436E-02 -2.22363225238161911E-02
 -2.25159497046355725E-02 -2.27990914370874466E-02 -2.30857918246586483E-02
 -2.33760955216111739E-02 -2.36700477397580496E-02 -2.39676942553186147E-02
 -2.42690814158542205E-02 -2.45742561472845622E-02 -2.48832659609860805E-02
 -2.51961589609726935E-02 -2.55129838511600725E-02 -2.58337899427137398E-02
 -2.61586271614823278E-02 -2.64875460555162798E-02 -2.68205978026730962E-02
 -2.71578342183098724E-02 -2.74993077630636060E-02 -2.78450715507205585E-02
 -2.81951793561748473E-02 -2.85496856234775942E-02 -2.89086454739770002E-02
 -2.92721147145502333E-02 -2.96401498459279815E-02 -3.00128080711121771E-02
 -3.03901473038878933E-02 -3.07722261774300357E-02 -3.11591040530053813E-02
 -3.15508410287710372E-02 -3.19474979486696897E-02 -3.23491364114225216E-02
 -3.27558187796205269E-02 -3.31676081889145727E-02 -3.35845685573053568E-02
 -3.40067645945334521E-02 -3.44342618115703464E-02 -3.48671265302110678E-02
 -3.53054258927687076E-02 -3.57492278718719234E-02 -3.61986012803654431E-02
 -3.66536157813144928E-02 -3.71143418981135578E-02 -3.75808510246997407E-02
 -3.80532154358716665E-02 -3.85315082977138040E-02 -3.90158036781270215E-02
 -3.95061765574657511E-02 -4.00027028392816592E-02 -4.05054593611748476E-02
 -4.10145239057521857E-02 -4.15299752116934859E-02 -4.20518929849255513E-02
 -4.25803579099040749E-02 -4.31154516610040561E-02 -4.36572569140180611E-02
 -4.42058573577629732E-02 -4.47613377057950318E-02 -4.53237837082327566E-02
 -4.58932821636882857E-02 -4.64699209313060510E-02 -4.70537889429094996E-02
 -4.76449762152549444E-02 -4.82435738623919752E-02 -4.88496741081308194E-02
 -4.94633702986151114E-02 -5.00847569150002642E-02 -5.07139295862362588E-02
 -5.13509851019543079E-02 -5.19960214254565067E-02 -5.26491377068073821E-02
 -5.33104342960263947E-02 -5.39800127563804244E-02 -5.46579758777744340E-02
 -5.53444276902395754E-02 -5.60394734775166853E-02 -5.67432197907340938E-02
 -5.74557744621775196E-02 -5.81772466191504134E-02 -5.89077466979228900E-02
 -5.96473864577665366E-02 -6.03962789950735907E-02 -6.11545387575573654E-02
 -6.19222815585314043E-02 -6.26996245912650879E-02 -6.34866864434117106E-02
 -6.42835871115069735E-02 -6.50904480155338194E-02 -6.59073920135500868E-02
 -6.67345434163755385E-02 -6.75720280023340003E-02 -6.84199730320463606E-02
 -6.92785072632703530E-02 -7.01477609657816803E-02 -7.10278659362922477E-02
 -7.19189555133999819E-02 -7.28211645925642831E-02 -7.37346296411021118E-02
 -7.46594887131978024E-02 -7.55958814649206889E-02 -7.65439491692435914E-02
 -7.75038347310546410E-02 -7.84756827021559911E-02 -7.94596392962402115E-02
 -8.04558524038372358E-02 -8.14644716072227965E-02 -8.24856481952788989E-02
 -8.35195351782975770E-02 -8.45662873027175216E-02 -8.56260610657830906E-02
 -8.66990147301149039E-02 -8.77853083381805732E-02 -8.88851037266539384E-02
 -8.99985645406494311E-02 -9.11258562478190343E-02 -9.22671461522987374E-02
 -9.34226034084885276E-02 -9.45923990346529409E-02 -9.57767059263245207E-02
 -9.69756988694955996E-02 -9.81895545535806241E-02 -9.94184515841304850E-02
 -1.00662570495281767E-01 -1.01922093761919949E-01 -1.03197205811537865E-01
 -1.04488093035767018E-01 -1.05794943801559710E-01 -1.07117948462000526E-01
 -1.08457299366721230E-01 -1.09813190871895380E-01 -1.11185819349785969E-01
 -1.12575383197819387E-01 -1.13982082847157426E-01 -1.15406120770736573E-01
 -1.16847701490745762E-01 -1.18307031585510522E-01 -1.19784319695747210E-01
 -1.21279776530156633E-01 -1.22793614870318604E-01 -1.24326049574850522E-01
 -1.25877297582790176E-01 -1.27447577916162430E-01 -1.29037111681689187E-01
 -1.30646122071594178E-01 -1.32274834363460575E-01 -1.33923475919093482E-01
 -1.35592276182334825E-01 -1.37281466675780950E-01 -1.38991280996349664E-01
 -1.40721954809640920E-01 -1.42473725843029780E-01 -1.44246833877435449E-01
 -1.46041520737703906E-01 -1.47858030281533021E-01 -1.49696608386877955E-01
 -1.51557502937768040E-01 -1.53440963808453734E-01 -1.55347242845814526E-01
 -1.57276593849948909E-01 -1.59229272552860707E-01 -1.61205536595155741E-01
 -1.63205645500667601E-01 -1.65229860648914539E-01 -1.67278445245288510E-01
 -1.69351664288888509E-01 -1.71449784537889033E-01 -1.73573074472328587E-01
 -1.75721804254225455E-01 -1.77896245684894261E-01 -1.80096672159338694E-01
 -1.82323358617611231E-01 -1.84576581493006098E-01 -1.86856618656938339E-01
 -1.89163749360392874E-01 -1.91498254171792809E-01 -1.93860414911120243E-01
 -1.96250514580163793E-01 -1.98668837288723032E-01 -2.01115668176582857E-01
 -2.03591293331120360E-01 -2.06095999700352833E-01 -2.08630075001217941E-01
 -2.11193807622938046E-01 -2.13787486525248649E-01 -2.16411401131262393E-01
 -2.19065841214807655E-01 -2.21751096781986845E-01 -2.24467457946710192E-01
 -2.27215214800025683E-01 -2.29994657272951680E-01 -2.32806074992551931E-01
 -2.35649757131058235E-01 -2.38525992247691498E-01 -2.41435068122921093E-01
 -2.44377271584936662E-01 -2.47352888327925152E-01 -2.50362202721903349E-01
 -2.53405497613830022E-01 -2.56483054119535703E-01 -2.59595151406238900E-01
 -2.62742066465297630E-01 -2.65924073874694800E-01 -2.69141445551046521E-01
 -2.72394450490670681E-01 -2.75683354499214772E-01 -2.79008419909629768E-01
 -2.82369905287888412E-01 -2.85768065125998505E-01 -2.89203149522050229E-01
 -2.92675403846545334E-01 -2.96185068394670015E-01 -2.99732378024115398E-01
 -3.03317561777592448E-01 -3.06940842489835108E-01 -3.10602436378447866E-01
 -3.14302552617779452E-01 -3.18041392895674124E-01 -3.21819150952142530E-01
 -3.25636012099330185E-01 -3.29492152722537346E-01 -3.33387739761039859E-01
 -3.37322930168423740E-01 -3.41297870351835730E-01 -3.45312695588827601E-01
 -3.49367529421801160E-01 -3.53462483028874341E-01 -3.57597654570163348E-01
 -3.61773128509475017E-01 -3.65988974909640274E-01 -3.70245248701139174E-01
 -3.74541988923498825E-01 -3.78879217937476420E-01 -3.83256940608355801E-01
 -3.87675143458799554E-01 -3.92133793789859797E-01 -3.96632838770539620E-01
 -4.01172204493302931E-01 -4.05751794995406090E-01 -4.10371491245483277E-01
 -4.15031150092568746E-01 -4.19730603178612827E-01 -4.24469655812061031E-01
 -4.29248085801027579E-01 -4.34065642246956263E-01 -4.38922044294788094E-01
 -4.43816979840538250E-01 -4.48750104195044464E-01 -4.53721038700390544E-01
 -4.58729369301375534E-01 -4.63774645067678570E-01 -4.68856376666327734E-01
 -4.73974034785405784E-01 -4.79127048503213859E-01 -4.84314803606270161E-01
 -4.89536640852548222E-01 -4.94791854177165202E-01 -5.00079688844251802E-01
 -5.05399339537328851E-01 -5.10749948391532538E-01 -5.16130602966289542E-01
 -5.21540334152244434E-01 -5.26978114019326593E-01 -5.32442853597172805E-01
 -5.37933400589920785E-01 -5.43448537027718115E-01 -5.48986976844525687E-01
 -5.54547363392390635E-01 -5.60128266883359260E-01 -5.65728181758357929E-01
 -5.71345523990651416E-01 -5.76978628308742469E-01 -5.82625745352000957E-01
 -5.88285038751572009E-01 -5.93954582131732356E-01 -5.99632356046164827E-01
 -6.05316244829032901E-01 -6.11004033376905009E-01 -6.16693403857211053E-01
 -6.22381932332610521E-01 -6.28067085324533703E-01 -6.33746216290395625E-01
 -6.39416562033140234E-01 -6.45075239043875759E-01 -6.50719239759376955E-01
 -6.56345428768961292E-01 -6.61950538939164335E-01 -6.67531167477689924E-01
 -6.73083771944597897E-01 -6.78604666182833216E-01 -6.84090016217101637E-01
 -6.89535836082151188E-01 -6.94937983605658727E-01 -7.00292156163082269E-01
 -7.05593886364534129E-01 -7.10838537741519394E-01 -7.16021300385037862E-01
 -7.21137186565899646E-01 -7.26181026366170990E-01 -7.31147463266985986E-01
 -7.36030949785279498E-01 -7.40825743097666800E-01 -7.45525900691626164E-01
 -7.50125276086112791E-01 -7.54617514549010382E-01 -7.58996048936386281E-01
 -7.63254095572660440E-01 -7.67384650227363907E-01 -7.71380484244248654E-01
 -7.75234140729444521E-01 -7.78937930965818093E-01 -7.82483930944637529E-01
 -7.85863978095848181E-01 -7.89069668284085979E-01 -7.92092352954716694E-01
 -7.94923136650707352E-01 -7.97552874750829921E-01 -7.99972171551503908E-01
 -8.02171378763853582E-01 -8.04140594288962895E-01 -8.05869661557912509E-01
 -8.07348169229652579E-01 -8.08565451432249338E-01 -8.09510588609002157E-01
 -8.10172408817861345E-01 -8.10539489846655914E-01 -8.10600161859233892E-01
 -8.10342510851154274E-01 -8.09754382940883422E-01 -8.08823389346515542E-01
 -8.07536912490031455E-01 -8.05882112844385490E-01 -8.03845936931735783E-01
 -8.01415126423664304E-01 -7.98576228224977092E-01 -7.95315606052241275E-01
 -7.91619453004876683E-01 -7.87473805705180996E-01 -7.82864559828242212E-01
 -7.77777486982517252E-01 -7.72198253486761521E-01 -7.66112440420357643E-01
 -7.59505565720098419E-01 -7.52363107948339604E-01 -7.44670531837931304E-01
 -7.36413316123643913E-01 -7.27576982942049977E-01 -7.18147129768108239E-01
 -7.08109463252315607E-01 -6.97449835282272890E-01 -6.86154281631804697E-01
 -6.74209062447781227E-01 -6.61600705685009061E-01 -6.48316052548085331E-01
 -6.34342305541308438E-01 -6.19667079201664972E-01 -6.04278452832465396E-01
 -5.88165026364437904E-01 -5.71315978105316868E-01 -5.53721125257464863E-01
 -5.35370986849583952E-01 -5.16256848581977956E-01 -4.96370830519326678E-01
 -4.75705956188102741E-01 -4.54256224118650964E-01 -4.32016680974026679E-01
 -4.08983496021044224E-01 -3.85154037416736317E-01 -3.60526948864332619E-01
 -3.35102227542745656E-01 -3.08881302037152305E-01 -2.81867110213440963E-01
 -2.54064176831983457E-01 -2.25478689705061991E-01 -1.96118574707760424E-01
 -1.65993568303962807E-01 -1.35115287383735544E-01 -1.03497295579632220E-01
 -7.11551652713146993E-02 -3.81065345397811339E-02 -4.37115831262175573E-03
  3.00290473000860668E-02  6.50699683361207759E-02  1.00725264498677039E-01
  1.36966350720842789E-01  1.73762388102741305E-01  2.11080286778366488E-01
  2.48884720161081818E-01  2.87138151360771254E-01  3.25800873756848020E-01
  3.64831062858043564E-01  4.04184843648618009E-01  4.43816369139001077E-01
  4.83677911762927293E-01  5.23719966854789942E-01  5.63891362622080283E-01
  6.04139380377668456E-01  6.44409874056732890E-01  6.84647390553080770E-01
  7.24795282094614302E-01  7.64795801242320716E-01  8.04590175439953814E-01
  8.44118640233339268E-01  8.83320426333756958E-01  9.22133676502273958E-01
  9.60495273729288668E-01  9.98340558076192597E-01  1.03560291242161528E+00
  1.07221346117437610E+00  1.10810104479418303E+00  1.14319224347871318E+00
  1.17741141055759391E+00  1.21068071378250997E+00  1.24292019055215697E+00
  1.27404781150233060E+00  1.30397955899462259E+00  1.33262951826555653E+00
  1.35990998148505371E+00  1.38573157033245464E+00  1.41000337033522749E+00
  1.43263308663977429E+00  1.45352721510750693E+00  1.47259123295700811E+00
  1.48972981200458032E+00  1.50484704829295457E+00  1.51784671985415320E+00
  1.52863256222415123E+00  1.53710857131580547E+00  1.54317933156058329E+00
  1.54675036622421413E+00  1.54772852122871485E+00  1.54602236878048083E+00
  1.54154264593241375E+00  1.53420271863154700E+00  1.52391907414909711E+00
  1.51061184876250199E+00  1.49420537670371667E+00  1.47462877861516306E+00
  1.45181657221782867E+00  1.42570931585098992E+00  1.39625428288014475E+00
  1.36340615691007749E+00  1.32712776423641254E+00  1.28739082058122611E+00
  1.24417670939904279E+00  1.19747727816550986E+00  1.14729565005440759E+00
  1.09364705911448268E+00  1.03655968561182443E+00  9.76075509776702321E-01
  9.12251160275021622E-01  8.45158762276604247E-01  7.74886779925708868E-01
  7.01540835368513527E-01  6.25244514632369852E-01  5.46140133242118964E-01
  4.64389467650927645E-01  3.80174435209329531E-01  2.93697711769871139E-01
  2.05183281998346484E-01  1.14876901459056310E-01  2.30464654103780461E-02
 -7.00177343358999033E-02 -1.64002876209520199E-01 -2.58573617512181386E-01
 -3.53372254178740630E-01 -4.48019059501078842E-01 -5.42112803546576871E-01
 -6.35231483886438797E-01 -7.26933280495140055E-01 -8.16757740583231806E-01
 -9.04227241764170131E-01 -9.88848702648965183E-01 -1.07011561015117751E+00
 -1.14751033661163859E+00 -1.22050677442065258E+00 -1.28857332741897346E+00
 -1.35117619955461321E+00 -1.40778308892171578E+00 -1.45786718557406969E+00
 -1.50091155474760019E+00 -1.53641387816467279E+00 -1.56389149742027045E+00
 -1.58288686667281953E+00 -1.59297322956745502E+00 -1.59376066514382453E+00
 -1.58490234792089413E+00 -1.56610101740122043E+00 -1.53711568027525436E+00
 -1.49776832004907590E+00 -1.44795077099904401E+00 -1.38763145955217237E+00
 -1.31686208012083927E+00 -1.23578406396725371E+00 -1.14463465070915937E+00
 -1.04375262806719760E+00 -9.33583372258380728E-01 -8.14683272652604318E-01
 -6.87723241603679591E-01 -5.53491197658734557E-01 -4.12893415304961764E-01
 -2.66954447706547859E-01 -1.16815596936503632E-01  3.62683575034532732E-02
  1.90934264956494348E-01  3.45717738087180482E-01  4.99062431851475530E-01
  6.49331658263481826E-01  7.94822332627861727E-01  9.33781468628399058E-01
  1.06442515914812286E+00  1.18496004000835065E+00  1.29360737757712907E+00
  1.38862928966208998E+00  1.46835746756284036E+00  1.53122362002433055E+00
  1.57579170840351046E+00  1.60079152787085466E+00  1.60515278750797741E+00
  1.58803987551111292E+00  1.54888565894967067E+00  1.48742451926957542E+00
  1.40372313827069251E+00  1.29820824123189960E+00  1.17169073952375635E+00
  1.02538432373558064E+00  8.60918513395506291E-01  6.80344057999460294E-01
  4.86130241660535145E-01  2.81152847316368970E-01  6.86716179482045747E-02
 -1.47703225995965720E-01 -3.64056454163603327E-01 -5.76225484097774743E-01
 -7.79870478309526161E-01 -9.70556547283455751E-01 -1.14384793358552939E+00
 -1.29541222779672660E+00 -1.42113446685474076E+00 -1.51723760266094376E+00
 -1.58040782748126696E+00 -1.60792149757080627E+00 -1.59776877409074003E+00
 -1.54877223183310675E+00 -1.46069255995603942E+00 -1.33431948409167056E+00
 -1.17154053607975794E+00 -9.75382922619287274E-01 -7.50024485402395857E-01
 -5.00766591716906628E-01 -2.33967616973389442E-01  4.30685400315106298E-02
  3.22249369900253824E-01  5.94897156061048205E-01  8.51996885056612641E-01
  1.08448598761053705E+00  1.28357798856115290E+00  1.44111388221792214E+00
  1.54992806068686129E+00  1.60421520065295953E+00  1.59988472287000527E+00
  1.53487905537768055E+00  1.40944400712132611E+00  1.22632356813902965E+00
  9.90865011225357861E-01  7.11014471806513670E-01  3.97185733264528107E-01
  6.19959380251330350E-02 -2.80142129288881436E-01 -6.13565275911870045E-01
 -9.22034487974119021E-01 -1.18951767598455249E+00 -1.40105402553615077E+00
 -1.54365431850462631E+00 -1.60719847969773233E+00 -1.58526318819347622E+00
 -1.47582722281295253E+00 -1.28178888801453383E+00 -1.01122959847313565E+00
 -6.77382713639243517E-01 -2.98251399404747430E-01  1.04132628876566283E-01
  5.04817578167347958E-01  8.77373320850775906E-01  1.19560956881090230E+00
  1.43547156877463444E+00  1.57700281414298416E+00  1.60621026809982159E+00
  1.51668047339404910E+00  1.31076998730229421E+00  1.00019845927681761E+00
  6.05929634282818652E-01  1.57219481695999114E-01 -3.10172849287829955E-01
 -7.56581382904217170E-01 -1.14169313543635420E+00 -1.42825489563755159E+00
 -1.58590102920750398E+00 -1.59475594641210838E+00 -1.44836116354858602E+00
 -1.15554934566746148E+00 -7.40891781875158473E-01
                              </PP_CHI.2>
 <PP_CHI.3 type="real" size="   833" l="1" occupation=" 0.0000" columns="3" label= "0P">
  3.02465395224105548E-07  3.10122342137877163E-07  3.17973125533284044E-07
  3.26022652401538975E-07  3.34275953954781557E-07  3.42738188770766897E-07
  3.51414646017098591E-07  3.60310748757140823E-07  3.69432057339602604E-07
  3.78784272873894314E-07  3.88373240793532894E-07  3.98204954509680983E-07
  4.08285559157221434E-07  4.18621355435665696E-07  4.29218803547244085E-07
  4.40084527234769969E-07  4.51225317921633525E-07  4.62648138956674161E-07
  4.74360129966469952E-07  4.86368611317803768E-07  4.98681088693140923E-07
  5.11305257781852376E-07  5.24249009090305363E-07  5.37520432873601555E-07
  5.51127824192278630E-07  5.65079688096916883E-07  5.79384744944077347E-07
  5.94051935846757854E-07  6.09090428262851503E-07  6.24509621725080505E-07
  6.40319153715954549E-07  6.56528905691496431E-07  6.73149009257407457E-07
  6.90189852501635471E-07  7.07662086487198762E-07  7.25576631909421924E-07
  7.43944685921655892E-07  7.62777729133829749E-07  7.82087532788139466E-07
  8.01886166116404672E-07  8.22186003883677696E-07  8.42999734122786855E-07
  8.64340366064748284E-07  8.86221238269826205E-07  9.08656026964572767E-07
  9.31658754589751453E-07  9.55243798564813040E-07  9.79425900274115141E-07
  1.00422017428069589E-06  1.02964211777329349E-06  1.05570762025243913E-06
  1.08243297346188164E-06  1.10983488157127836E-06  1.13793047161677026E-06
  1.16673730420582561E-06  1.19627338449300801E-06  1.22655717343372153E-06
  1.25760759932271677E-06  1.28944406962474924E-06  1.32208648310476824E-06
  1.35555524226505614E-06  1.38987126609733147E-06  1.42505600315763038E-06
  1.46113144497210753E-06  1.49812013978230756E-06  1.53604520663833554E-06
  1.57493034984875648E-06  1.61479987379635819E-06  1.65567869812894986E-06
  1.69759237333467227E-06  1.74056709671160570E-06  1.78462972874168882E-06
  1.82980780987907799E-06  1.87612957776348517E-06  1.92362398486934069E-06
  1.97232071660166606E-06  2.02225020985005199E-06  2.07344367201230860E-06
  2.12593310049972366E-06  2.17975130273607717E-06  2.23493191666287838E-06
  2.29150943176369974E-06  2.34951921062075458E-06  2.40899751101714618E-06
  2.46998150859863070E-06  2.53250932010900534E-06  2.59662002721372225E-06
  2.66235370092658193E-06  2.72975142665475380E-06  2.79885532987781080E-06
  2.86970860247677017E-06  2.94235552972965951E-06  3.01684151799044897E-06
  3.09321312306864794E-06  3.17151807932732919E-06  3.25180532951768165E-06
  3.33412505536886243E-06  3.41852870895216024E-06  3.50506904483911536E-06
  3.59380015307372514E-06  3.68477749297922509E-06  3.77805792782074130E-06
  3.87369976034533093E-06  3.97176276922169115E-06  4.07230824640232753E-06
  4.17539903543142169E-06  4.28109957072248978E-06  4.38947591783027171E-06
  4.50059581474204068E-06  4.61452871421418605E-06  4.73134582718041402E-06
  4.85112016725882533E-06  4.97392659638560863E-06  5.09984187160385637E-06
  5.22894469303681909E-06  5.36131575307543897E-06  5.49703778681105746E-06
  5.63619562374471754E-06  5.77887624080537762E-06  5.92516881671023712E-06
  6.07516478770099784E-06  6.22895790469108038E-06  6.38664429185935539E-06
  6.54832250672705894E-06  6.71409360175549133E-06  6.88406118750280448E-06
  7.05833149737958431E-06  7.23701345404352417E-06  7.42021873747471984E-06
  7.60806185477419485E-06  7.80066021172907715E-06  7.99813418618940064E-06
  8.20060720330218649E-06  8.40820581264987982E-06  8.62105976734132187E-06
  8.83930210510477684E-06  9.06306923143347036E-06  9.29250100483583201E-06
  9.52774082424353566E-06  9.76893571863196276E-06  1.00162364389092197E-05
  1.02697975521309283E-05  1.05297775380998847E-05  1.07963388884107008E-05
  1.10696482080013301E-05  1.13498763192752600E-05  1.16371983688589559E-05
  1.19317939370616235E-05  1.22338471501052580E-05  1.25435467951956137E-05
  1.28610864385058105E-05  1.31866645461458026E-05  1.35204846081938592E-05
  1.38627552658675933E-05  1.42136904419134873E-05  1.45735094742965443E-05
  1.49424372532738616E-05  1.53207043619376745E-05  1.57085472203149525E-05
  1.61062082331148040E-05  1.65139359412152186E-05  1.69319851769831285E-05
  1.73606172235267170E-05  1.78000999779774068E-05  1.82507081189044453E-05
  1.87127232779674862E-05  1.91864342159119165E-05  1.96721370030199084E-05
  2.01701352041276839E-05  2.06807400683249906E-05  2.12042707234567195E-05
  2.17410543755450694E-05  2.22914265132608197E-05  2.28557311175673466E-05
  2.34343208766716177E-05  2.40275574064142609E-05  2.46358114762371381E-05
  2.52594632408697493E-05  2.58989024778784171E-05  2.65545288312274831E-05
  2.72267520610036215E-05  2.79159922994601127E-05  2.86226803135400077E-05
  2.93472577740431781E-05  3.00901775316041719E-05  3.08519038996540662E-05
  3.16329129445425258E-05  3.24336927830006367E-05  3.32547438871324793E-05
  3.40965793971215081E-05  3.49597254418530006E-05  3.58447214676456467E-05
  3.67521205753040237E-05  3.76824898656981657E-05  3.86364107940863769E-05
  3.96144795334058399E-05  4.06173073467513013E-05  4.16455209692814663E-05
  4.26997629997866691E-05  4.37806923021622434E-05  4.48889844170426071E-05
  4.60253319838461962E-05  4.71904451734995453E-05  4.83850521321102725E-05
  4.96098994358618685E-05  5.08657525574181715E-05  5.21533963441275146E-05
  5.34736355083227454E-05  5.48272951300248995E-05  5.62152211723649037E-05
  5.76382810100426951E-05  5.90973639711521136E-05  6.05933818927150566E-05
  6.21272696902659791E-05  6.36999859418423570E-05  6.53125134867483614E-05
  6.69658600394626408E-05  6.86610588190736203E-05  7.03991691946331588E-05
  7.21812773468333849E-05  7.40084969464189384E-05  7.58819698497544622E-05
  7.78028668119832732E-05  7.97723882182210331E-05  8.17917648332411773E-05
  8.38622585701179039E-05  8.59851632783041370E-05  8.81618055516382508E-05
  9.03935455567815403E-05  9.26817778826028842E-05  9.50279324110394881E-05
  9.74334752099742632E-05  9.98999094486886259E-05  1.02428776336458284E-04
  1.05021656084878641E-04  1.07680168894517769E-04  1.10405975966508969E-04
  1.13200780539716642E-04  1.16066328954117536E-04  1.19004411741059854E-04
  1.22016864741079909E-04  1.25105570249969426E-04  1.28272458193808518E-04
  1.31519507333693826E-04  1.34848746500911291E-04  1.38262255863320709E-04
  1.41762168223741905E-04  1.45350670351145533E-04  1.49030004345479869E-04
  1.52802469036980132E-04  1.56670421420827491E-04  1.60636278128054250E-04
  1.64702516933602934E-04  1.68871678302480308E-04  1.73146366974964548E-04
  1.77529253591848503E-04  1.82023076360731664E-04  1.86630642764389532E-04
  1.91354831312285988E-04  1.96198593336312070E-04  2.01164954831863899E-04
  2.06257018345406249E-04  2.11477964909686231E-04  2.16831056027801334E-04
  2.22319635707349619E-04  2.27947132545921089E-04  2.33717061869226090E-04
  2.39633027923180072E-04  2.45698726121306506E-04  2.51917945348846724E-04
  2.58294570325002669E-04  2.64832584024776675E-04  2.71536070161901635E-04
  2.78409215734403293E-04  2.85456313634363718E-04  2.92681765323499817E-04
  3.00090083576213477E-04  3.07685895291801828E-04  3.15473944377570698E-04
  3.23459094704628262E-04  3.31646333138179913E-04  3.40040772644201823E-04
  3.48647655474400178E-04  3.57472356431427188E-04  3.66520386216362935E-04
  3.75797394860523815E-04  3.85309175243718320E-04  3.95061666701104850E-04
  4.05060958720882360E-04  4.15313294735083940E-04  4.25825076005800079E-04
  4.36602865609231068E-04  4.47653392520003539E-04  4.58983555798270465E-04
  4.70600428882157599E-04  4.82511263988192392E-04  4.94723496622418942E-04
  5.07244750204956436E-04  5.20082840810839300E-04  5.33245782030042077E-04
  5.46741789949656905E-04  5.60579288261285678E-04  5.74766913496747205E-04
  5.89313520395319556E-04  6.04228187405793848E-04  6.19520222326681077E-04
  6.35199168088032345E-04  6.51274808678375754E-04  6.67757175220399114E-04
  6.84656552199055753E-04  7.01983483845904739E-04  7.19748780683568336E-04
  7.37963526234261470E-04  7.56639083896476494E-04  7.75787103993997988E-04
  7.95419531001487689E-04  8.15548610951071559E-04  8.36186899024385800E-04
  8.57347267334665746E-04  8.79042912903582174E-04  9.01287365837622097E-04
  9.24094497708947602E-04  9.47478530145843428E-04  9.71454043637866825E-04
  9.96035986561000578E-04  1.02123968442821502E-03  1.04708084937097236E-03
  1.07357558985746778E-03  1.10074042065334268E-03  1.12859227303082959E-03
  1.15714850523239952E-03  1.18642691319514534E-03  1.21644574154246526E-03
  1.24722369484942235E-03  1.27877994918851063E-03  1.31113416396259615E-03
  1.34430649403218514E-03  1.37831760214428625E-03  1.41318867166999166E-03
  1.44894141965836516E-03  1.48559811021422975E-03  1.52318156820812093E-03
  1.56171519332613698E-03  1.60122297446790287E-03  1.64172950450101104E-03
  1.68325999538098976E-03  1.72584029364537773E-03  1.76949689629079675E-03
  1.81425696704210870E-03  1.86014835302371557E-03  1.90719960184236137E-03
  1.95543997909107493E-03  2.00489948628420830E-03  2.05560887923469287E-03
  2.10759968688364928E-03  2.16090423059278397E-03  2.21555564391055131E-03
  2.27158789282445525E-03  2.32903579651010887E-03  2.38793504858855667E-03
  2.44832223890412929E-03  2.51023487583624562E-03  2.57371140915635919E-03
  2.63879125344256265E-03  2.70551481206632609E-03  2.77392350176464434E-03
  2.84405977781001813E-03  2.91596715979224042E-03  2.98969025802847026E-03
  3.06527480061425609E-03  3.14276766112947309E-03  3.22221688701623040E-03
  3.30367172864469124E-03  3.38718266908009111E-03  3.47280145456744117E-03
  3.56058112575369928E-03  3.65057604966085572E-03  3.74284195242591353E-03
  3.83743595282906710E-03  3.93441659662664787E-03  4.03384389170364545E-03
  4.13577934406692774E-03  4.24028599470063685E-03  4.34742845729735143E-03
  4.45727295688529666E-03  4.56988736937764383E-03  4.68534126205766115E-03
  4.80370593501870495E-03  4.92505446358817382E-03  5.04946174175152206E-03
  5.17700452659335380E-03  5.30776148378659957E-03  5.44181323414979178E-03
  5.57924240128713448E-03  5.72013366034335429E-03  5.86457378789816911E-03
  6.01265171301272171E-03  6.16445856946029255E-03  6.32008774917147600E-03
  6.47963495690360991E-03  6.64319826616705748E-03  6.81087817644393610E-03
  6.98277767170615328E-03  7.15900228026615255E-03  7.33966013600081003E-03
  7.52486204095230427E-03  7.71472152934066843E-03  7.90935493303280938E-03
  8.10888144846818627E-03  8.31342320507820649E-03  8.52310533524778917E-03
  8.73805604581445738E-03  8.95840669114645986E-03  9.18429184785026290E-03
  9.41584939109718286E-03  9.65322057261748176E-03  9.89655010041167772E-03
  1.01459862201623494E-02  1.04016807984053990E-02  1.06637894075051441E-02
  1.09324714124106222E-02  1.12078900592668326E-02  1.14902125659128405E-02
  1.17796102142412699E-02  1.20762584445108859E-02  1.23803369516229996E-02
  1.26920297833392343E-02  1.30115254405516762E-02  1.33390169795843967E-02
  1.36747021165185469E-02  1.40187833336653991E-02  1.43714679881267442E-02
  1.47329684224669372E-02  1.51035020776159653E-02  1.54832916079052831E-02
  1.58725649983109188E-02  1.62715556839880364E-02  1.66805026719771474E-02
  1.70996506652175660E-02  1.75292501888819723E-02  1.79695577189210864E-02
  1.84208358130104055E-02  1.88833532438107930E-02  1.93573851344887131E-02
  1.98432130967064434E-02  2.03411253708841548E-02  2.08514169687944208E-02
  2.13743898186331514E-02  2.19103529123069914E-02  2.24596224551378253E-02
  2.30225220179694871E-02  2.35993826914457257E-02  2.41905432427693863E-02
  2.47963502747047711E-02  2.54171583867486284E-02  2.60533303387593881E-02
  2.67052372166179698E-02  2.73732586001040855E-02  2.80577827330534615E-02
  2.87592066953492424E-02  2.94779365771638789E-02  3.02143876551409299E-02
  3.09689845702906842E-02  3.17421615080415789E-02  3.25343623797825707E-02
  3.33460410061054285E-02  3.41776613018364914E-02  3.50296974621472981E-02
  3.59026341503355523E-02  3.67969666867509621E-02  3.77132012385429025E-02
  3.86518550108098241E-02  3.96134564381037044E-02  4.05985453766717214E-02
  4.16076732973724162E-02  4.26414034782781823E-02  4.37003111978470984E-02
  4.47849839276286063E-02  4.58960215242983013E-02  4.70340364215922763E-02
  4.81996538205598582E-02  4.93935118789683159E-02  5.06162618992222341E-02
  5.18685685137279806E-02  5.31511098688813299E-02  5.44645778057316204E-02
  5.58096780377207100E-02  5.71871303255338942E-02  5.85976686470447150E-02
  6.00420413638913589E-02  6.15210113827431779E-02  6.30353563108194820E-02
  6.45858686065482329E-02  6.61733557224253727E-02  6.77986402416589362E-02
  6.94625600070111898E-02  7.11659682402499549E-02  7.29097336539957230E-02
  7.46947405522196267E-02  7.65218889206960573E-02  7.83920945064532498E-02
  8.03062888832839078E-02  8.22654195059204785E-02  8.42704497485171206E-02
  8.63223589281318371E-02  8.84221423130923251E-02  9.05708111118413151E-02
  9.27693924455362251E-02  9.50189292996428403E-02  9.73204804543106733E-02
  9.96751203944004904E-02  1.02083939193217621E-01  1.04548042373762515E-01
  1.07068550742485599E-01  1.09646600194216709E-01  1.12283341490212116E-01
  1.14979940001773612E-01  1.17737575423705193E-01  1.20557441452408751E-01
  1.23440745426067658E-01  1.26388707929948524E-01  1.29402562357658707E-01
  1.32483554433045353E-01  1.35632941687343384E-01  1.38851992887816578E-01
  1.42141987421957744E-01  1.45504214626499012E-01  1.48939973066368109E-01
  1.52450569757918958E-01  1.56037319331645857E-01  1.59701543139347701E-01
  1.63444568293532710E-01  1.67267726644728554E-01  1.71172353690604268E-01
  1.75159787411454215E-01  1.79231367037630485E-01  1.83388431735594520E-01
  1.87632319218832666E-01  1.91964364277002780E-01  1.96385897217795785E-01
  2.00898242227264129E-01  2.05502715634847760E-01  2.10200624089850602E-01
  2.14993262642213329E-01  2.19881912722835027E-01  2.24867840028649763E-01
  2.29952292299505923E-01  2.35136496993670951E-01  2.40421658854737319E-01
  2.45808957366871861E-01  2.51299544102158490E-01  2.56894539949929834E-01
  2.62595032233873926E-01  2.68402071710923062E-01  2.74316669451284245E-01
  2.80339793600924814E-01  2.86472366022268166E-01  2.92715258815623991E-01
  2.99069290719431502E-01  3.05535223390950073E-01  3.12113757565735173E-01
  3.18805529101416574E-01  3.25611104901279591E-01  3.32530978725038340E-01
  3.39565566888580916E-01  3.46715203848945441E-01  3.53980137693965358E-01
  3.61360525519626441E-01  3.68856428720256535E-01  3.76467808187800568E-01
  3.84194519418339209E-01  3.92036307561983266E-01  3.99992802380256751E-01
  4.08063513165604963E-01  4.16247823602741374E-01  4.24544986581275652E-01
  4.32954119010595884E-01  4.41474196576931543E-01  4.50104048540338364E-01
  4.58842352517210839E-01  4.67687629286181905E-01  4.76638237672044496E-01
  4.85692369423350478E-01  4.94848044235845774E-01  5.04103104809490721E-01
  5.13455212031246111E-01  5.22901840316102207E-01  5.32440273008042864E-01
  5.42067598049166932E-01  5.51780703720601839E-01  5.61576274633590389E-01
  5.71450787936728322E-01  5.81400509653184017E-01  5.91421491392708054E-01
  6.01509567138702517E-01  6.11660350402325359E-01  6.21869231582143245E-01
  6.32131375499303871E-01  6.42441719335337780E-01  6.52794970574154143E-01
  6.63185605354973617E-01  6.73607866883985773E-01  6.84055763984250609E-01
  6.94523069899203205E-01  7.05003320896075758E-01  7.15489815141076346E-01
  7.25975611266455489E-01  7.36453526856581275E-01  7.46916136743417947E-01
  7.57355770683133311E-01  7.67764510841607017E-01  7.78134188310862340E-01
  7.88456379017719255E-01  7.98722398615215656E-01  8.08923296054270158E-01
  8.19049846077813171E-01  8.29092539805609263E-01  8.39041573817765340E-01
  8.48886837097738045E-01  8.58617895748785331E-01  8.68223975483547017E-01
  8.77693941290020319E-01  8.87016274642426050E-01  8.96179047744578350E-01
  9.05169895039439565E-01  9.13975982029516576E-01  9.22583971492216270E-01
  9.30979987654033447E-01  9.39149578716154010E-01  9.47077678679192458E-01
  9.54748569556651105E-01  9.62145845551214296E-01  9.69252381174088962E-01
  9.76050305979891508E-01  9.82520989179391790E-01  9.88645038358357153E-01
  9.94402317454998630E-01  9.99771990638225305E-01  1.00473259661513858E+00
  1.00926211103521424E+00  1.01333796221260575E+00  1.01693704198561052E+00
  1.02003571915660385E+00  1.02260985501086776E+00  1.02463482230780811E+00
  1.02608552646106310E+00  1.02693643041483096E+00  1.02716158270280289E+00
  1.02673464875359621E+00  1.02562894672741733E+00  1.02381748635209568E+00
  1.02127301296728956E+00  1.01796805540044666E+00  1.01387497864744969E+00
  1.00896604205995177E+00  1.00321346166560410E+00  9.96589479282169344E-01
  9.89066436128737680E-01  9.80616853118421061E-01  9.71213517402797044E-01
  9.60829574531277930E-01  9.49438628790986838E-01  9.37014848756016483E-01
  9.23533081461635152E-01  9.08968973195248497E-01  8.93299097635887773E-01
  8.76501092951222471E-01  8.58553804893677275E-01  8.39437440025618931E-01
  8.19133725418407566E-01  7.97626077317967974E-01  7.74899778508499448E-01
  7.50942162353175346E-01  7.25742807326588357E-01  6.99293737219532252E-01
  6.71589631064030468E-01  6.42628040056293925E-01  6.12409611184075886E-01
  5.80938319687693272E-01  5.48221705485506972E-01  5.14271118023991836E-01
  4.79101964623873111E-01  4.42733963840023947E-01  4.05191403151204388E-01
  3.66503397311559231E-01  3.26704150377235658E-01  2.85833215525463202E-01
  2.43935754804566890E-01  2.01062795318211002E-01  1.57271479770279388E-01
  1.12625311226341257E-01  6.71943871167649115E-02  2.10556226826417725E-02
 -2.57070406587441257E-02 -7.30024439793827140E-02 -1.20732039999227422E-01
 -1.68789745680414160E-01 -2.17061822806743354E-01 -2.65426788766628119E-01
 -3.13755363185527214E-01 -3.61910454250937708E-01 -4.09747187250625811E-01
 -4.57112985244872094E-01 -5.03847698705890412E-01 -5.49783798406300428E-01
 -5.94746629443931640E-01 -6.38554734103250143E-01 -6.81020254285265136E-01
 -7.21949405570648461E-01 -7.61143048010905821E-01 -7.98397338120630962E-01
 -8.33504483390896111E-01 -8.66253599751671044E-01 -8.96431666241469083E-01
 -9.23824607291229394E-01 -9.48218470090745336E-01 -9.69400738052483057E-01
 -9.87161755503930816E-01 -1.00129627277904532E+00 -1.01160513042464850E+00
 -1.01789703994334091E+00 -1.01999051619218783E+00 -1.01771590079869489E+00
 -1.01091751202262015E+00 -9.99455903474037566E-01 -9.83210196242554457E-01
 -9.62080531492105706E-01 -9.35990551204480159E-01 -9.04889965928239670E-01
 -8.68757136903062221E-01 -8.27601662126627668E-01 -7.81466970998051291E-01
 -7.30432828218439578E-01 -6.74617800631791442E-01 -6.14181566293982018E-01
 -5.49327079723557987E-01 -4.80302533096672590E-01 -4.07403036689058362E-01
 -3.30972024690327438E-01 -2.51402259068832012E-01 -1.69136435823134618E-01
 -8.46672920138483304E-02  1.46283563321451988E-03  8.86630592302175696E-02
  1.76295671038429802E-01  2.63678615260253879E-01  3.50088756412260838E-01
  4.34766008583809649E-01  5.16918385150957893E-01  5.95727970930147510E-01
  6.70357940202478741E-01  7.39960517534280493E-01  8.03686025359845457E-01
  8.60692916556680232E-01  9.10158773157508372E-01  9.51292337506038255E-01
  9.83346269023272157E-01  1.00563083859660929E+00  1.01752812238313739E+00
  1.01850674560564181E+00  1.00813694718315139E+00  9.86105553015234171E-01
  9.52230963857272128E-01  9.06477373863928793E-01  8.48968338209982187E-01
  7.79999009734696713E-01  7.00046708275169904E-01  6.09779578272095057E-01
  5.10062499066737174E-01  4.01960249686210525E-01  2.86737045609307906E-01
  1.65852259181399508E-01  4.09517999369966648E-02 -8.61452915345605197E-02
 -2.13465270756621528E-01 -3.38903473660212562E-01 -4.60253617919917757E-01
 -5.75242643375555196E-01 -6.81570945011685914E-01 -7.76957988355140960E-01
 -8.59192337960100416E-01 -9.26186196259109806E-01 -9.76032772033479046E-01
 -1.00706595522400977E+00 -1.01792085181261482E+00 -1.00759301822746195E+00
 -9.75495783166717922E-01 -9.21512023092618815E-01 -8.46039761596606765E-01
 -7.50028164469096148E-01 -6.35001838380158112E-01 -5.03071585046243386E-01
 -3.56928138824902486E-01 -1.99818235285688262E-01 -3.55000191453527306E-02
  1.31822697133262168E-01  2.97588373804223039E-01  4.56987665802844945E-01
  6.05094737044660103E-01  7.37017336700583670E-01  8.48063624063804311E-01
  9.33920691495370492E-01  9.90839505423727673E-01  1.01582092056323603E+00
  1.00679243712826461E+00  9.62770883197657912E-01  8.83997914541240326E-01
  7.72041627916395856E-01  6.29853821529154034E-01  4.61772841762149944E-01
  2.73467131473223990E-01  7.18101163206636972E-02 -1.35313953864877545E-01
 -3.39275363127834184E-01 -5.31030953790261773E-01 -7.01515935041840066E-01
 -8.42081114007680154E-01 -9.44961644065415718E-01 -1.00375116597827563E+00
 -1.01385905723076153E+00 -9.72920404907901659E-01 -8.81124886992408429E-01
 -7.41439915573772867E-01 -5.59689458653632399E-01 -3.44472618375120554E-01
 -1.06897270596770025E-01  1.39876560253574450E-01  3.81280164910626773E-01
  6.02148871494986415E-01  7.87671533815504366E-01  9.24424093724272811E-01
  1.00142648565759118E+00  1.01114451040496411E+00
                              </PP_CHI.3>
                             </PP_PSWFC> 
<PP_FULL_WFC number_of_wfc=" 3">
 <PP_AEWFC.1 type="real" size="   833" l="0" columns="3" label= "1S">
  2.14575750418388679E-03  2.17271999833610133E-03  2.20002097205889953E-03
  2.22766466649733461E-03  2.25565537572928109E-03  2.28399744743477484E-03
  2.31269528354415650E-03  2.34175334091828819E-03  2.37117613203141446E-03
  2.40096822564656205E-03  2.43113424752796486E-03  2.46167888113400096E-03
  2.49260686833451027E-03  2.52392301013850632E-03  2.55563216741260153E-03
  2.58773926163607818E-03  2.62024927563633651E-03  2.65316725435515727E-03
  2.68649830561400096E-03  2.72024760088579063E-03  2.75442037609037026E-03
  2.78902193237692830E-03  2.82405763694289560E-03  2.85953292383533259E-03
  2.89545329478668690E-03  2.93182432004065975E-03  2.96865163920242200E-03
  3.00594096209033440E-03  3.04369806960157110E-03  3.08192881458887015E-03
  3.12063912274372374E-03  3.15983499349682456E-03  3.19952250092105095E-03
  3.23970779465451632E-03  3.28039710082527435E-03  3.32159672299616165E-03
  3.36331304311290272E-03  3.40555252247016528E-03  3.44832170268465077E-03
  3.49162720668183633E-03  3.53547573969551420E-03  3.57987409027498392E-03
  3.62482913131204109E-03  3.67034782106922912E-03  3.71643720423391272E-03
  3.76310441297011185E-03  3.81035666799713329E-03  3.85820127966943378E-03
  3.90664564907644563E-03  3.95569726915409592E-03  4.00536372580508841E-03
  4.05565269904135332E-03  4.10657196412957289E-03  4.15812939275893561E-03
  4.21033295421897359E-03  4.26319071658898784E-03  4.31671084794838910E-03
  4.37090161759380244E-03  4.42577139727480008E-03  4.48132866244531098E-03
  4.53758199352447596E-03  4.59454007717793357E-03  4.65221170761244331E-03
  4.71060578788265114E-03  4.76973133121796726E-03  4.82959746236301737E-03
  4.89021341893155961E-03  4.95158855277987985E-03  5.01373233139519679E-03
  5.07665433929826992E-03  5.14036427946437408E-03  5.20487197476136778E-03
  5.27018736940289452E-03  5.33632053041833022E-03  5.40328164914179610E-03
  5.47108104271734185E-03  5.53972915562098243E-03  5.60923656120072486E-03
  5.67961396323541333E-03  5.75087219751081995E-03  5.82302223341366141E-03
  5.89607517554398969E-03  5.97004226534701438E-03  6.04493488276322717E-03
  6.12076454789739748E-03  6.19754292270653737E-03  6.27528181270742540E-03
  6.35399316870399571E-03  6.43368908853419498E-03  6.51438181883679229E-03
  6.59608375683829080E-03  6.67880745216016796E-03  6.76256560864676396E-03
  6.84737108621402690E-03  6.93323690271911621E-03  7.02017623585112892E-03
  7.10820242504325503E-03  7.19732897340650581E-03  7.28756954968522424E-03
  7.37893799023463335E-03  7.47144830102055950E-03  7.56511465964167587E-03
  7.65995141737432425E-03  7.75597310124021000E-03  7.85319441609719920E-03
  7.95163024675335159E-03  8.05129566010452831E-03  8.15220590729569955E-03
  8.25437642590622599E-03  8.35782284215930323E-03  8.46256097315577736E-03
  8.56860682913261444E-03  8.67597661574619032E-03  8.78468673638064211E-03
  8.89475379448153441E-03  9.00619459591497050E-03  9.11902615135250054E-03
  9.23326567868198306E-03  9.34893060544461640E-03  9.46603857129840569E-03
  9.58460743050822475E-03  9.70465525446281667E-03  9.82620033421882644E-03
  9.94926118307220414E-03  1.00738565391571486E-02  1.02000053680727735E-02
  1.03277268655378243E-02  1.04570404600736380E-02  1.05879658157155363E-02
  1.07205228347529470E-02  1.08547316604983811E-02  1.09906126800855802E-02
  1.11281865272970116E-02  1.12674740854209424E-02  1.14084964901382813E-02
  1.15512751324395591E-02  1.16958316615721151E-02  1.18421879880177966E-02
  1.19903662865012955E-02  1.21403889990293386E-02  1.22922788379610706E-02
  1.24460587891098897E-02  1.26017521148768172E-02  1.27593823574155291E-02
  1.29189733418292527E-02  1.30805491794001652E-02  1.32441342708511482E-02
  1.34097533096400323E-02  1.35774312852864221E-02  1.37471934867319217E-02
  1.39190655057336334E-02  1.40930732402905871E-02  1.42692428981038358E-02
  1.44476010000708713E-02  1.46281743838135147E-02  1.48109902072397874E-02
  1.49960759521405636E-02  1.51834594278207110E-02  1.53731687747641396E-02
  1.55652324683346246E-02  1.57596793225113462E-02  1.59565384936587763E-02
  1.61558394843331829E-02  1.63576121471235812E-02  1.65618866885283433E-02
  1.67686936728683698E-02  1.69780640262346891E-02  1.71900290404733078E-02
  1.74046203772055368E-02  1.76218700718842082E-02  1.78418105378872344E-02
  1.80644745706459789E-02  1.82898953518118232E-02  1.85181064534577049E-02
  1.87491418423175217E-02  1.89830358840613854E-02  1.92198233476079741E-02
  1.94595394094736994E-02  1.97022196581583611E-02  1.99479000985681824E-02
  2.01966171564750760E-02  2.04484076830133525E-02  2.07033089592127545E-02
  2.09613587005688384E-02  2.12225950616497412E-02  2.14870566407399585E-02
  2.17547824845208924E-02  2.20258120927875611E-02  2.23001854232028202E-02
  2.25779428960867917E-02  2.28591253992441248E-02  2.31437742928259985E-02
  2.34319314142294594E-02  2.37236390830321067E-02  2.40189401059623768E-02
  2.43178777819063399E-02  2.46204959069485536E-02  2.49268387794492445E-02
  2.52369512051559761E-02  2.55508785023495395E-02  2.58686665070253195E-02
  2.61903615781076092E-02  2.65160106026981653E-02  2.68456610013585728E-02
  2.71793607334249315E-02  2.75171583023556751E-02  2.78591027611116045E-02
  2.82052437175675901E-02  2.85556313399555929E-02  2.89103163623389385E-02
  2.92693500901166428E-02  2.96327844055572186E-02  3.00006717733624743E-02
  3.03730652462595799E-02  3.07500184706208553E-02  3.11315856921114131E-02
  3.15178217613631823E-02  3.19087821396750460E-02  3.23045229047378424E-02
  3.27051007563840326E-02  3.31105730223610201E-02  3.35209976641268684E-02
  3.39364332826678702E-02  3.43569391243371131E-02  3.47825750867128344E-02
  3.52134017244757902E-02  3.56494802553040460E-02  3.60908725657847554E-02
  3.65376412173413073E-02  3.69898494521749832E-02  3.74475611992197421E-02
  3.79108410801084067E-02  3.83797544151497638E-02  3.88543672293144987E-02
  3.93347462582289073E-02  3.98209589541748468E-02  4.03130734920937525E-02
  4.08111587755944291E-02  4.13152844429616195E-02  4.18255208731642472E-02
  4.23419391918618757E-02  4.28646112774065460E-02  4.33936097668391960E-02
  4.39290080618781054E-02  4.44708803348973156E-02  4.50193015348929609E-02
  4.55743473934356394E-02  4.61360944306059978E-02  4.67046199609119431E-02
  4.72800020991844400E-02  4.78623197664496750E-02  4.84516526957751714E-02
  4.90480814380868171E-02  4.96516873679547083E-02  5.02625526893444863E-02
  5.08807604413312672E-02  5.15063945037737905E-02  5.21395396029448038E-02
  5.27802813171153948E-02  5.34287060820895637E-02  5.40849011966854989E-02
  5.47489548281608548E-02  5.54209560175773358E-02  5.61009946851021568E-02
  5.67891616352417319E-02  5.74855485620039477E-02  5.81902480539853786E-02
  5.89033535993786703E-02  5.96249595908966076E-02  6.03551613306079759E-02
  6.10940550346809746E-02  6.18417378380297159E-02  6.25983077988586240E-02
  6.33638639031005868E-02  6.41385060687435088E-02  6.49223351500396173E-02
  6.57154529415936439E-02  6.65179621823229761E-02  6.73299665592851926E-02
  6.81515707113671265E-02  6.89828802328292939E-02  6.98240016767001231E-02
  7.06750425580134067E-02  7.15361113568831614E-02  7.24073175214090675E-02
  7.32887714704056892E-02  7.41805845959495752E-02  7.50828692657357355E-02
  7.59957388252379823E-02  7.69193075996646436E-02  7.78536908957024459E-02
  7.87990050030413919E-02  7.97553671956715698E-02  8.07228957329450963E-02
  8.17017098603941699E-02  8.26919298102966188E-02  8.36936768019808375E-02
  8.47070730418607032E-02  8.57322417231916462E-02  8.67693070255385057E-02
  8.78183941139453611E-02  8.88796291377977749E-02  8.99531392293676235E-02
  9.10390525020297880E-02  9.21374980481411282E-02  9.32486059365695008E-02
  9.43725072098640233E-02  9.55093338810530379E-02  9.66592189300603255E-02
  9.78222962997265244E-02  9.89987008914244432E-02  1.00188568560256458E-01
  1.01392036109819964E-01  1.02609241286530137E-01  1.03840322773485538E-01
  1.05085420183863507E-01  1.06344674053832439E-01  1.07618225834966330E-01
  1.08906217886148127E-01  1.10208793464946872E-01  1.11526096718453802E-01
  1.12858272673562909E-01  1.14205467226680429E-01  1.15567827132847675E-01
  1.16945499994261681E-01  1.18338634248175423E-01  1.19747379154163863E-01
  1.21171884780736969E-01  1.22612301991283854E-01  1.24068782429329338E-01
  1.25541478503085280E-01  1.27030543369278687E-01  1.28536130916238778E-01
  1.30058395746223715E-01  1.31597493156967310E-01  1.33153579122425703E-01
  1.34726810272705444E-01  1.36317343873154029E-01  1.37925337802588338E-01
  1.39550950530644563E-01  1.41194341094222769E-01  1.42855669073012309E-01
  1.44535094564069905E-01  1.46232778155430537E-01  1.47948880898726348E-01
  1.49683564280794712E-01  1.51436990194250276E-01  1.53209320906996294E-01
  1.55000719030649298E-01  1.56811347487859215E-01  1.58641369478496747E-01
  1.60490948444681036E-01  1.62360248034622817E-01  1.64249432065261797E-01
  1.66158664483670004E-01  1.68088109327191704E-01  1.70037930682294003E-01
  1.72008292642107818E-01  1.73999359262626968E-01  1.76011294517534250E-01
  1.78044262251630531E-01  1.80098426132844491E-01  1.82173949602787849E-01
  1.84270995825821793E-01  1.86389727636619429E-01  1.88530307486189791E-01
  1.90692897386330551E-01  1.92877658852475820E-01  1.95084752844926906E-01
  1.97314339708422548E-01  1.99566579110013076E-01  2.01841629975219677E-01
  2.04139650422454494E-01  2.06460797695650761E-01  2.08805228095077733E-01
  2.11173096906331237E-01  2.13564558327446835E-01  2.15979765394097911E-01
  2.18418869902873958E-01  2.20882022332600236E-01  2.23369371763645741E-01
  2.25881065795207975E-01  2.28417250460561300E-01  2.30978070140200054E-01
  2.33563667472854536E-01  2.36174183264388771E-01  2.38809756394507355E-01
  2.41470523721233732E-01  2.44156619983180917E-01  2.46868177699557156E-01
  2.49605327067840693E-01  2.52368195859161148E-01  2.55156909311340108E-01
  2.57971590019513086E-01  2.60812357824363905E-01  2.63679329697955045E-01
  2.66572619627052476E-01  2.69492338493977190E-01  2.72438593954990205E-01
  2.75411490316098684E-01  2.78411128406299724E-01  2.81437605448314920E-01
  2.84491014926665009E-01  2.87571446453117996E-01  2.90678985629579001E-01
  2.93813713908259888E-01  2.96975708449159659E-01  3.00165041974957303E-01
  3.03381782623123319E-01  3.06625993795302865E-01  3.09897734004087821E-01
  3.13197056716961353E-01  3.16524010197487660E-01  3.19878637343889161E-01
  3.23260975524748917E-01  3.26671056411969085E-01  3.30108905811116848E-01
  3.33574543488869335E-01  3.37067982997750037E-01  3.40589231498271583E-01
  3.44138289578154233E-01  3.47715151068926476E-01  3.51319802859942187E-01
  3.54952224709481512E-01  3.58612389053367009E-01  3.62300260811005914E-01
  3.66015797188558034E-01  3.69758947479803646E-01  3.73529652864429351E-01
  3.77327846203551087E-01  3.81153451833147638E-01  3.85006385354895009E-01
  3.88886553424446113E-01  3.92793853537827420E-01  3.96728173815222129E-01
  4.00689392782543341E-01  4.04677379151266448E-01  4.08691991595693360E-01
  4.12733078528473629E-01  4.16800477874446129E-01  4.20894016842063512E-01
  4.25013511693640877E-01  4.29158767513871220E-01  4.33329577976298785E-01
  4.37525725109150387E-01  4.41746979059328637E-01  4.45993097855046872E-01
  4.50263827168151221E-01  4.54558900074598593E-01  4.58878036814547086E-01
  4.63220944552152958E-01  4.67587317133818958E-01  4.71976834847128157E-01
  4.76389164179224389E-01  4.80823957574472383E-01  4.85280853193612416E-01
  4.89759474672056883E-01  4.94259430878940087E-01  4.98780315677806230E-01
  5.03321707686588460E-01  5.07883170040101084E-01  5.12464250153663037E-01
  5.17064479487063910E-01  5.21683373312407883E-01  5.26320430482343227E-01
  5.30975133200847993E-01  5.35646946798018830E-01  5.40335319505271694E-01
  5.45039682235754830E-01  5.49759448367700743E-01  5.54494013529811869E-01
  5.59242755393628777E-01  5.64005033467510075E-01  5.68780188896074179E-01
  5.73567544266196827E-01  5.78366403414835140E-01  5.83176051246013460E-01
  5.87995753552135847E-01  5.92824756840215850E-01  5.97662288168674616E-01
  6.02507554986720595E-01  6.07359744983891447E-01  6.12218025948048195E-01
  6.17081545627486960E-01  6.21949431607347725E-01  6.26820791190652482E-01
  6.31694711289447763E-01  6.36570258329402838E-01  6.41446478158164468E-01
  6.46322395970775565E-01  6.51197016243297178E-01  6.56069322675602362E-01
  6.60938278153045955E-01  6.65802824712270147E-01  6.70661883525735414E-01
  6.75514354899366620E-01  6.80359118277870101E-01  6.85195032274343419E-01
  6.90020934705254385E-01  6.94835642644764273E-01  6.99637952498052940E-01
  7.04426640080576871E-01  7.09200460726630233E-01  7.13958149405420350E-01
  7.18698420856116127E-01  7.23419969748445135E-01  7.28121470847407082E-01
  7.32801579211663112E-01  7.37458930402427160E-01  7.42092140709982862E-01
  7.46699807412776195E-01  7.51280509038590227E-01  7.55832805663231744E-01
  7.60355239223188040E-01  7.64846333843704151E-01  7.69304596206754843E-01
  7.73728515918630011E-01  7.78116565918465231E-01  7.82467202904331138E-01
  7.86778867771692259E-01  7.91049986099304436E-01  7.95278968631458083E-01
  7.99464211804440272E-01  8.03604098293787539E-01  8.07696997570091391E-01
  8.11741266509905302E-01  8.15735249998535084E-01  8.19677281580442507E-01
  8.23565684132814946E-01  8.27398770543140372E-01  8.31174844449642736E-01
  8.34892200967435216E-01  8.38549127466214905E-01  8.42143904371986496E-01
  8.45674805967698395E-01  8.49140101264486580E-01  8.52538054850269900E-01
  8.55866927794843746E-01  8.59124978577577081E-01  8.62310464008730682E-01
  8.65421640228902000E-01  8.68456763674811394E-01  8.71414092108160010E-01
  8.74291885662421997E-01  8.77088407878428789E-01  8.79801926824887004E-01
  8.82430716171327179E-01  8.84973056332959196E-01  8.87427235624425714E-01
  8.89791551398984137E-01  8.92064311277912858E-01  8.94243834315615049E-01
  8.96328452248281393E-01  8.98316510736828944E-01  9.00206370594807126E-01
  9.01996409109008135E-01  9.03685021276847245E-01  9.05270621142040266E-01
  9.06751643103223426E-01  9.08126543211757342E-01  9.09393800560090892E-01
  9.10551918567154672E-01  9.11599426379579136E-01  9.12534880217038102E-01
  9.13356864717644101E-01  9.14063994364768262E-01  9.14654914792749962E-01
  9.15128304227426415E-01  9.15482874834567251E-01  9.15717374087649749E-01
  9.15830586198187024E-01  9.15821333412023209E-01  9.15688477458069472E-01
  9.15430920862855158E-01  9.15047608313168115E-01  9.14537528049796933E-01
  9.13899713124404989E-01  9.13133242820321045E-01  9.12237243894783667E-01
  9.11210891907006215E-01  9.10053412531405259E-01  9.08764082745886492E-01
  9.07342232184074504E-01  9.05787244267386105E-01  9.04098557467263308E-01
  9.02275666492048378E-01  9.00318123379107771E-01  8.98225538734252260E-01
  8.95997582718604080E-01  8.93633986211586295E-01  8.91134541826080651E-01
  8.88499104878833768E-01  8.85727594470006374E-01  8.82819994295118371E-01
  8.79776353672284905E-01  8.76596788343655731E-01  8.73281481300255513E-01
  8.69830683652817682E-01  8.66244715246765717E-01  8.62523965512554946E-01
  8.58668894018007611E-01  8.54680031124033235E-01  8.50557978598522890E-01
  8.46303410019627278E-01  8.41917071403763262E-01  8.37399781482272787E-01
  8.32752432162503164E-01  8.27975988840966126E-01  8.23071490584050935E-01
  8.18040050486455561E-01  8.12882855655275960E-01  8.07601167446378998E-01
  8.02196321440750926E-01  7.96669727392864235E-01  7.91022869271680640E-01
  7.85257304946099133E-01  7.79374666158975771E-01  7.73376658141628370E-01
  7.67265059317649323E-01  7.61041720980316749E-01  7.54708566683013005E-01
  7.48267591904628659E-01  7.41720863290518451E-01  7.35070518092984959E-01
  7.28318763446737960E-01  7.21467875469258835E-01  7.14520198569126630E-01
  7.07478144313755219E-01  7.00344190578550685E-01  6.93120880394790362E-01
  6.85810820761157514E-01  6.78416681548677403E-01  6.70941194007638964E-01
  6.63387149586752933E-01  6.55757398344806508E-01  6.48054847467880557E-01
  6.40282459732317566E-01  6.32443251672690332E-01  6.24540292025418831E-01
  6.16576699715104981E-01  6.08555642063449698E-01  6.00480332789904536E-01
  5.92354029862126374E-01  5.84180033525541820E-01  5.75961683893078225E-01
  5.67702358825655229E-01  5.59405471475895033E-01  5.51074467839845705E-01
  5.42712824350650935E-01  5.34324045119144553E-01  5.25911659464724512E-01
  5.17479219038938565E-01  5.09030295096210672E-01  5.00568475658178857E-01
  4.92097362466028754E-01  4.83620568154428665E-01  4.75141713023778833E-01
  4.66664422051408678E-01  4.58192321673639491E-01  4.49729036516915648E-01
  4.41278186239989823E-01  4.32843382052712888E-01  4.24428223501337076E-01
  4.16036294960680231E-01  4.07671162219887584E-01  3.99336369060405871E-01
  3.91035433644952413E-01  3.82771845134263600E-01  3.74549060025682223E-01
  3.66370498682093038E-01  3.58239541764835412E-01  3.50159526629330475E-01
  3.42133743872781393E-01  3.34165433688440150E-01  3.26257782445216582E-01
  3.18413919144364677E-01  3.10636911966329032E-01  3.02929764896436582E-01
  2.95295414284071744E-01  2.87736725605441279E-01  2.80256490149819737E-01
  2.72857421868502092E-01  2.65542154269725272E-01  2.58313237371880555E-01
  2.51173134814383303E-01  2.44124220992554847E-01  2.37168778364858890E-01
  2.30308994836921327E-01  2.23546961282013734E-01  2.16884669193394608E-01
  2.10324008472357826E-01  2.03866765354232204E-01  1.97514620501368365E-01
  1.91269147239914589E-01  1.85131809957288868E-01  1.79103962705727343E-01
  1.73186847908885555E-01  1.67381595347808471E-01  1.61689221233897340E-01
  1.56110627535673147E-01  1.50646601500788319E-01  1.45297815292269095E-01
  1.40064825981456337E-01  1.34948075546326623E-01  1.29947891254654724E-01
  1.25064486143090015E-01  1.20297959694949608E-01  1.15648298859492252E-01
  1.11115379032106276E-01  1.06698965528097184E-01  1.02398714997521470E-01
  9.82141771861158586E-02  9.41447969068857499E-02  9.01899160101443387E-02
  8.63487758685243939E-02  8.26205196572050715E-02  7.90041951391777519E-02
  7.54987574373642140E-02  7.21030719372057760E-02  6.88159175871122242E-02
  6.56359899369152872E-02  6.25619047712240028E-02  5.95922014794260588E-02
  5.67253467469296738E-02  5.39597383952495693E-02  5.12937090265792178E-02
  4.87255302220806624E-02  4.62534162868876372E-02  4.38755284910313931E-02
  4.15899791385781828E-02  3.93948356190233426E-02  3.72881248103788462E-02
  3.52678369833367908E-02  3.33319302693162109E-02  3.14783346599292746E-02
  2.97049562146926675E-02  2.80096813000759032E-02  2.63903804407555724E-02
  2.48449126497790988E-02  2.33711291101830407E-02  2.19668772483155895E-02
  2.06300044917014785E-02  1.93583618621278007E-02  1.81498078107577634E-02
  1.70022114079774744E-02  1.59134559802533680E-02  1.48814421631491972E-02
  1.39040910389911492E-02  1.29793471997973059E-02  1.21051813300740198E-02
  1.12795931424308684E-02  1.05006136150216194E-02  9.76630749682845002E-03
  9.07477544442239145E-03  8.42415593121985558E-03  7.81262729579785056E-03
  7.23840916206409685E-03  6.69976417843120772E-03  6.19499920637232252E-03
  5.72246652837428340E-03  5.28056494545831555E-03  4.86774044702339547E-03
  4.48248712393297267E-03  4.12334750150286991E-03  3.78891305580393752E-03
  3.47782442361655245E-03  3.18877142884368059E-03  2.92049319647674083E-03
  2.67177780190609076E-03  2.44146214771536179E-03  2.22843144764650657E-03
  2.03161873424223842E-03  1.85000429415581357E-03  1.68261483003818275E-03
  1.52852279928039907E-03  1.38684538905573277E-03  1.25674363640699595E-03
  1.13742137263547522E-03  1.02812408557248947E-03  9.28137862156652813E-04
  8.36788082038419879E-04  7.53438283297127340E-04  6.77488828838209182E-04
  6.08375629398785018E-04  5.45568859448394470E-04  4.88571563326154965E-04
  4.36918399212149076E-04  3.90174226202831065E-04  3.47932815020206179E-04
  3.09815505239199125E-04  2.75469867644223044E-04  2.44568448034180577E-04
  2.16807431254482631E-04  1.91905434037026074E-04  1.69602242121413393E-04
  1.49657620092531014E-04  1.31850156720108279E-04  1.15976103598795479E-04
  1.01848315356651333E-04  8.92951595947658744E-05  7.81595207956585058E-05
  6.82978167271756632E-05  5.95790556841213018E-05  5.18839607312636525E-05
  4.51040966431805803E-05  3.91410807378331571E-05  3.39058025502516188E-05
  2.93177027783349814E-05  2.53040928007839339E-05  2.17995003609647407E-05
  1.87450771819142827E-05  1.60880206937390832E-05  1.37810521077278386E-05
  1.17819199881241351E-05  1.00529390527564001E-05  8.56056948695880180E-06
  7.27501588250981349E-06  6.16986927127479868E-06  5.22176756886598087E-06
  4.41008893454935276E-06  3.71667020335659361E-06  3.12554594209519123E-06
  2.62271620990699540E-06  2.19592907377636109E-06  1.83448812771053083E-06
  1.52907552798686089E-06  1.27159253522971402E-06  1.05501742929300868E-06
  8.73275219664512875E-07  7.21123693429273165E-07  5.94049316312935167E-07
  4.88175696929036297E-07  4.00181989834039451E-07
                              </PP_AEWFC.1>
 <PP_AEWFC.2 type="real" size="   833" l="0" columns="3" label= "0S">
 -3.48390420994414097E-03 -3.52768115641647478E-03 -3.57200766578211464E-03
 -3.61689062403656178E-03 -3.66233700311717350E-03 -3.70835386198987418E-03
 -3.75494834770145414E-03 -3.80212769648393756E-03 -3.84989923486324555E-03
 -3.89827038075573912E-03 -3.94724864462487994E-03 -3.99684163060624268E-03
 -4.04705703767211777E-03 -4.09790266081298035E-03 -4.14938639220388105E-03
 -4.20151622243033779E-03 -4.25430024168236155E-03 -4.30774664099851587E-03
 -4.36186371350839527E-03 -4.41665985568564720E-03 -4.47214356863941467E-03
 -4.52832345938462832E-03 -4.58520824217150021E-03 -4.64280673978659762E-03
 -4.70112788490970740E-03 -4.76018072145464356E-03 -4.81997440594958762E-03
 -4.88051820891986007E-03 -4.94182151629327018E-03 -5.00389383082352254E-03
 -5.06674477352407702E-03 -5.13038408513002368E-03 -5.19482162756407673E-03
 -5.26006738543513368E-03 -5.32613146753952056E-03 -5.39302410839493946E-03
 -5.46075566977969294E-03 -5.52933664230105450E-03 -5.59877764697505262E-03
 -5.66908943682842628E-03 -5.74028289852133652E-03 -5.81236905398250462E-03
 -5.88535906207648778E-03 -5.95926422027300007E-03 -6.03409596635814602E-03
 -6.10986588014201561E-03 -6.18658568520977659E-03 -6.26426725067477305E-03
 -6.34292259296400426E-03 -6.42256387762259618E-03 -6.50320342113250120E-03
 -6.58485369276716557E-03 -6.66752731645117811E-03 -6.75123707265601683E-03
 -6.83599590031215565E-03 -6.92181689873995996E-03 -7.00871332961454721E-03
 -7.09669861894160568E-03 -7.18578635906346342E-03 -7.27599031069057697E-03
 -7.36732440494836886E-03 -7.45980274545719833E-03 -7.55343961043400576E-03
 -7.64824945481362099E-03 -7.74424691240273907E-03 -7.84144679805591840E-03
 -7.93986410987341205E-03 -8.03951403143062307E-03 -8.14041193403190755E-03
 -8.24257337898741393E-03 -8.34601411991974830E-03 -8.45075010509835876E-03
 -8.55679747979846278E-03 -8.66417258868715581E-03 -8.77289197824046921E-03
 -8.88297239918663453E-03 -8.99443080897670104E-03 -9.10728437428435199E-03
 -9.22155047353622262E-03 -9.33724669947023390E-03 -9.45439086172295863E-03
 -9.57300098944684728E-03 -9.69309533395892528E-03 -9.81469237141921122E-03
 -9.93781080553973739E-03 -1.00624695703243269E-02 -1.01886878328401216E-02
 -1.03164849960212940E-02 -1.04458807015043714E-02 -1.05768948324958933E-02
 -1.07095475166726940E-02 -1.08438591291151274E-02 -1.09798502952737943E-02
 -1.11175418939700871E-02 -1.12569550604305658E-02 -1.13981111893555597E-02
 -1.15410319380225591E-02 -1.16857392294245476E-02 -1.18322552554436643E-02
 -1.19806024800606127E-02 -1.21308036425999792E-02 -1.22828817610121134E-02
 -1.24368601351915638E-02 -1.25927623503326192E-02 -1.27506122803222929E-02
 -1.29104340911709581E-02 -1.30722522444812056E-02 -1.32360915009551161E-02
 -1.34019769239403612E-02 -1.35699338830154951E-02 -1.37399880576147080E-02
 -1.39121654406925456E-02 -1.40864923424288656E-02 -1.42629953939743433E-02
 -1.44417015512370295E-02 -1.46226380987101341E-02 -1.48058326533415715E-02
 -1.49913131684455726E-02 -1.51791079376566423E-02 -1.53692455989263912E-02
 -1.55617551385633778E-02 -1.57566658953166086E-02 -1.59540075645027875E-02
 -1.61538102021779144E-02 -1.63561042293534006E-02 -1.65609204362571517E-02
 -1.67682899866399976E-02 -1.69782444221277945E-02 -1.71908156666196743E-02
 -1.74060360307326523E-02 -1.76239382162929475E-02 -1.78445553208745680E-02
 -1.80679208423853224E-02 -1.82940686837006379E-02 -1.85230331573455961E-02
 -1.87548489902256664E-02 -1.89895513284062643E-02 -1.92271757419416982E-02
 -1.94677582297536032E-02 -1.97113352245592219E-02 -1.99579435978501571E-02
 -2.02076206649218874E-02 -2.04604041899542725E-02 -2.07163323911431808E-02
 -2.09754439458835970E-02 -2.12377779960052013E-02 -2.15033741530601813E-02
 -2.17722725036635437E-02 -2.20445136148859529E-02 -2.23201385397004820E-02
 -2.25991888224830843E-02 -2.28817065045661162E-02 -2.31677341298462298E-02
 -2.34573147504475235E-02 -2.37504919324387637E-02 -2.40473097616051949E-02
 -2.43478128492766142E-02 -2.46520463382107965E-02 -2.49600559085316649E-02
 -2.52718877837249910E-02 -2.55875887366899951E-02 -2.59072060958462011E-02
 -2.62307877512992088E-02 -2.65583821610618116E-02 -2.68900383573325540E-02
 -2.72258059528328773E-02 -2.75657351471997498E-02 -2.79098767334379529E-02
 -2.82582821044294157E-02 -2.86110032595001257E-02 -2.89680928110469388E-02
 -2.93296039912201087E-02 -2.96955906586672085E-02 -3.00661073053328926E-02
 -3.04412090633193293E-02 -3.08209517118041322E-02 -3.12053916840173834E-02
 -3.15945860742777723E-02 -3.19885926450867650E-02 -3.23874698342826589E-02
 -3.27912767622523110E-02 -3.32000732392026821E-02 -3.36139197724901542E-02
 -3.40328775740093847E-02 -3.44570085676400364E-02 -3.48863753967522880E-02
 -3.53210414317708596E-02 -3.57610707777963679E-02 -3.62065282822861476E-02
 -3.66574795427908259E-02 -3.71139909147508718E-02 -3.75761295193479394E-02
 -3.80439632514152012E-02 -3.85175607874034820E-02 -3.89969915934034045E-02
 -3.94823259332249474E-02 -3.99736348765305713E-02 -4.04709903070253271E-02
 -4.09744649307008380E-02 -4.14841322841329394E-02 -4.20000667428346783E-02
 -4.25223435296603960E-02 -4.30510387232634142E-02 -4.35862292666058943E-02
 -4.41279929755187331E-02 -4.46764085473127515E-02 -4.52315555694393912E-02
 -4.57935145282000466E-02 -4.63623668175033032E-02 -4.69381947476699216E-02
 -4.75210815542835147E-02 -4.81111114070857937E-02 -4.87083694189171870E-02
 -4.93129416546996963E-02 -4.99249151404613720E-02 -5.05443778724020618E-02
 -5.11714188259981342E-02 -5.18061279651455681E-02 -5.24485962513391926E-02
 -5.30989156528875114E-02 -5.37571791541616162E-02 -5.44234807648754995E-02
 -5.50979155293972456E-02 -5.57805795360889686E-02 -5.64715699266738202E-02
 -5.71709849056283859E-02 -5.78789237495977507E-02 -5.85954868168321388E-02
 -5.93207755566425229E-02 -6.00548925188736094E-02 -6.07979413633913113E-02
 -6.15500268695822403E-02 -6.23112549458636616E-02 -6.30817326392005134E-02
 -6.38615681446276368E-02 -6.46508708147740252E-02 -6.54497511693858669E-02
 -6.62583209048467486E-02 -6.70766929036907683E-02 -6.79049812441060024E-02
 -6.87433012094252477E-02 -6.95917692975999980E-02 -7.04505032306551038E-02
 -7.13196219641198115E-02 -7.21992456964321155E-02 -7.30894958783117055E-02
 -7.39904952220985512E-02 -7.49023677110522978E-02 -7.58252386086088054E-02
 -7.67592344675889909E-02 -7.77044831393556984E-02 -7.86611137829141133E-02
 -7.96292568739502549E-02 -8.06090442138038821E-02 -8.16006089383690819E-02
 -8.26040855269186552E-02 -8.36196098108458602E-02 -8.46473189823186561E-02
 -8.56873516028401339E-02 -8.67398476117095668E-02 -8.78049483343774501E-02
 -8.88827964906888923E-02 -8.99735362030078811E-02 -9.10773130042167867E-02
 -9.21942738455834576E-02 -9.33245671044886094E-02 -9.44683425920070929E-02
 -9.56257515603343711E-02 -9.67969467100514569E-02 -9.79820821972191280E-02
 -9.91813136402942552E-02 -1.00394798126859669E-01 -1.01622694220157489E-01
 -1.02865161965418742E-01 -1.04122362895979301E-01 -1.05394460039171703E-01
 -1.06681617921985050E-01 -1.07984002576480997E-01 -1.09301781544956511E-01
 -1.10635123884843298E-01 -1.11984200173331105E-01 -1.13349182511706031E-01
 -1.14730244529390332E-01 -1.16127561387673259E-01 -1.17541309783120204E-01
 -1.18971667950647203E-01 -1.20418815666249415E-01 -1.21882934249368330E-01
 -1.23364206564886170E-01 -1.24862817024732634E-01 -1.26378951589089183E-01
 -1.27912797767178149E-01 -1.29464544617618693E-01 -1.31034382748337813E-01
 -1.32622504316016826E-01 -1.34229103025060803E-01 -1.35854374126070543E-01
 -1.37498514413803785E-01 -1.39161722224605017E-01 -1.40844197433287799E-01
 -1.42546141449450658E-01 -1.44267757213207087E-01 -1.46009249190311746E-01
 -1.47770823366660697E-01 -1.49552687242149013E-01 -1.51355049823859888E-01
 -1.53178121618569252E-01 -1.55022114624539853E-01 -1.56887242322584164E-01
 -1.58773719666374075E-01 -1.60681763071970518E-01 -1.62611590406553985E-01
 -1.64563420976326008E-01 -1.66537475513560018E-01 -1.68533976162774296E-01
 -1.70553146466000310E-01 -1.72595211347119998E-01 -1.74660397095243891E-01
 -1.76748931347101929E-01 -1.78861043068417908E-01 -1.80996962534236999E-01
 -1.83156921308177012E-01 -1.85341152220571903E-01 -1.87549889345475590E-01
 -1.89783367976494532E-01 -1.92041824601412753E-01 -1.94325496875579373E-01
 -1.96634623594020980E-01 -1.98969444662244560E-01 -2.01330201065694575E-01
 -2.03717134837825636E-01 -2.06130489026754460E-01 -2.08570507660452459E-01
 -2.11037435710437760E-01 -2.13531519053928115E-01 -2.16053004434410528E-01
 -2.18602139420588093E-01 -2.21179172363661747E-01 -2.23784352352897981E-01
 -2.26417929169444171E-01 -2.29080153238337941E-01 -2.31771275578672803E-01
 -2.34491547751864926E-01 -2.37241221807975855E-01 -2.40020550230039487E-01
 -2.42829785876344850E-01 -2.45669181920622065E-01 -2.48538991790078573E-01
 -2.51439469101229496E-01 -2.54370867593472605E-01 -2.57333441060348611E-01
 -2.60327443278430382E-01 -2.63353127933780018E-01 -2.66410748545922282E-01
 -2.69500558389268396E-01 -2.72622810411928929E-01 -2.75777757151854264E-01
 -2.78965650650241759E-01 -2.82186742362143028E-01 -2.85441283064202578E-01
 -2.88729522759462787E-01 -2.92051710579172508E-01 -2.95408094681523847E-01
 -2.98798922147242740E-01 -3.02224438871973367E-01 -3.05684889455375419E-01
 -3.09180517086862561E-01 -3.12711563427902017E-01 -3.16278268490809089E-01
 -3.19880870513952809E-01 -3.23519605833288704E-01 -3.27194708750145946E-01
 -3.30906411395194611E-01 -3.34654943588490850E-01 -3.38440532695528928E-01
 -3.42263403479220518E-01 -3.46123777947707767E-01 -3.50021875197913501E-01
 -3.53957911254761226E-01 -3.57932098905967111E-01 -3.61944647532299490E-01
 -3.65995762933230329E-01 -3.70085647147890606E-01 -3.74214498271215834E-01
 -3.78382510265191263E-01 -3.82589872765123018E-01 -3.86836770880814862E-01
 -3.91123384992544898E-01 -3.95449890541772209E-01 -3.99816457816463855E-01
 -4.04223251730906674E-01 -4.08670431599952477E-01 -4.13158150907576294E-01
 -4.17686557069613607E-01 -4.22255791190608520E-01 -4.26865987814673831E-01
 -4.31517274670208506E-01 -4.36209772408401975E-01 -4.40943594335438116E-01
 -4.45718846138233593E-01 -4.50535625603626311E-01 -4.55394022330956660E-01
 -4.60294117437842432E-01 -4.65235983259076336E-01 -4.70219683038592406E-01
 -4.75245270614294724E-01 -4.80312790095667630E-01 -4.85422275534140357E-01
 -4.90573750585968638E-01 -4.95767228167570462E-01 -5.01002710103289672E-01
 -5.06280186765341367E-01 -5.11599636705877492E-01 -5.16961026281170022E-01
 -5.22364309267625226E-01 -5.27809426469609155E-01 -5.33296305319073238E-01
 -5.38824859466668360E-01 -5.44394988364374610E-01 -5.50006576839622618E-01
 -5.55659494660557196E-01 -5.61353596092558194E-01 -5.67088719445930423E-01
 -5.72864686614417917E-01 -5.78681302604737602E-01 -5.84538355056964054E-01
 -5.90435613755437183E-01 -5.96372830130497578E-01 -6.02349736750737219E-01
 -6.08366046805526417E-01 -6.14421453578196886E-01 -6.20515629909405786E-01
 -6.26648227650598133E-01 -6.32818877107964251E-01 -6.39027186476243347E-01
 -6.45272741262567284E-01 -6.51555103700592775E-01 -6.57873812154200044E-01
 -6.64228380511277083E-01 -6.70618297567541655E-01 -6.77043026399736902E-01
 -6.83502003729059671E-01 -6.89994639274292276E-01 -6.96520315094319442E-01
 -7.03078384921006827E-01 -7.09668173481445286E-01 -7.16288975809835859E-01
 -7.22940056549756904E-01 -7.29620649245537711E-01 -7.36329955623805210E-01
 -7.43067144865208529E-01 -7.49831352865267364E-01 -7.56621681486043252E-01
 -7.63437197797605216E-01 -7.70276933309091416E-01 -7.77139883191096059E-01
 -7.84025005487457238E-01 -7.90931220317696027E-01 -7.97857409070801715E-01
 -8.04802413588434296E-01 -8.11765035340140773E-01 -8.18744034589466652E-01
 -8.25738129550294686E-01 -8.32745995536333772E-01 -8.39766264100898829E-01
 -8.46797522168785677E-01 -8.53838311161494667E-01 -8.60887126112842460E-01
 -8.67942414779033222E-01 -8.75002576741355176E-01 -8.82065962500806378E-01
 -8.89130872568929087E-01 -8.96195556550402728E-01 -9.03258212220781731E-01
 -9.10316984600451740E-01 -9.17369965020896405E-01 -9.24415190189735170E-01
 -9.31450641250559763E-01 -9.38474242838259642E-01 -9.45483862134963382E-01
 -9.52477307919889826E-01 -9.59452329619958189E-01 -9.66406616359972825E-01
 -9.73337796008844736E-01 -9.80243434231152566E-01 -9.87121033535868997E-01
 -9.93968032327446682E-01 -1.00078180396267347E+00 -1.00755965580507256E+00
 -1.01429882828920159E+00 -1.02099649398742498E+00 -1.02764975668051983E+00
 -1.03425565044146439E+00 -1.04081113871967124E+00 -1.04731311343950639E+00
 -1.05375839410872341E+00 -1.06014372693251513E+00 -1.06646578394918023E+00
 -1.07272116217086877E+00 -1.07890638274307782E+00 -1.08501789012354943E+00
 -1.09105205126940530E+00 -1.09700515485522310E+00 -1.10287341050290011E+00
 -1.10865294803507530E+00 -1.11433981675952043E+00 -1.11992998476564676E+00
 -1.12541933826224660E+00 -1.13080368093609862E+00 -1.13607873333959719E+00
 -1.14124013232318045E+00 -1.14628343048527537E+00 -1.15120409567516679E+00
 -1.15599751052826782E+00 -1.16065897203702839E+00 -1.16518369118302201E+00
 -1.16956679259368523E+00 -1.17380331426568363E+00 -1.17788820733481114E+00
 -1.18181633588982216E+00 -1.18558247686682172E+00 -1.18918131997740151E+00
 -1.19260746771990167E+00 -1.19585543545410311E+00 -1.19891965153049673E+00
 -1.20179445752306724E+00 -1.20447410850713998E+00 -1.20695277344064666E+00
 -1.20922453562870569E+00 -1.21128339325658052E+00 -1.21312326005344229E+00
 -1.21473796601506101E+00 -1.21612125825524586E+00 -1.21726680196371850E+00
 -1.21816818145039063E+00 -1.21881890135294380E+00 -1.21921238792016884E+00
 -1.21934199045599678E+00 -1.21920098289651135E+00 -1.21878256549708941E+00
 -1.21807986672140944E+00 -1.21708594522671198E+00 -1.21579379205008964E+00
 -1.21419633295796503E+00 -1.21228643093700228E+00 -1.21005688893235708E+00
 -1.20750045270729167E+00 -1.20460981395461575E+00 -1.20137761360531403E+00
 -1.19779644531995944E+00 -1.19385885928040070E+00 -1.18955736613401353E+00
 -1.18488444125313341E+00 -1.17983252922958015E+00 -1.17439404860635777E+00
 -1.16856139697020911E+00 -1.16232695623603433E+00 -1.15568309832429850E+00
 -1.14862219111552721E+00 -1.14113660471276401E+00 -1.13321871813264496E+00
 -1.12486092623848455E+00 -1.11605564715985706E+00 -1.10679533003558861E+00
 -1.09707246315541163E+00 -1.08687958260382933E+00 -1.07620928121044246E+00
 -1.06505421809588063E+00 -1.05340712859237917E+00 -1.04126083467654551E+00
 -1.02860825598130434E+00 -1.01544242119714556E+00 -1.00175648019133967E+00
 -9.87543716558920370E-01 -9.72797560823758456E-01 -9.57511604295115282E-01
 -9.41679613419202366E-01 -9.25295544978524176E-01 -9.08353561787427211E-01
 -8.90848049198723291E-01 -8.72773632336048322E-01 -8.54125193952462780E-01
 -8.34897893265366009E-01 -8.15087185359602007E-01 -7.94688841580547756E-01
 -7.73698970709695844E-01 -7.52114040922729599E-01 -7.29930902838194395E-01
 -7.07146813212251146E-01 -6.83759459808872760E-01 -6.59766987085685153E-01
 -6.35168022837923840E-01 -6.09961706014046090E-01 -5.84147715256767341E-01
 -5.57726298791067943E-01 -5.30698305123503578E-01 -5.03065214881855738E-01
 -4.74829173846128327E-01 -4.45993026778536861E-01 -4.16560352723283567E-01
 -3.86535501058283382E-01 -3.55923628852003127E-01 -3.24730739331468066E-01
 -2.92963721202340821E-01 -2.60630389463338163E-01 -2.27739526832989897E-01
 -1.94300926590391332E-01 -1.60325436296382018E-01 -1.25825002371935918E-01
 -9.08127160316373888E-02 -5.53028595741562670E-02 -1.93109540807617705E-02
  1.71461924516340056E-02  5.40504362034612898E-02  9.13822476659328642E-02
  1.29120661826548910E-01  1.67243227160649599E-01  2.05725954923632798E-01
  2.44543267898837430E-01  2.83667948963915617E-01  3.23071090305099118E-01
  3.62722042002799727E-01  4.02588362014719148E-01  4.42635766078095461E-01
  4.82828078741357025E-01  5.23127185868796807E-01  5.63492987613276819E-01
  6.03883354313778153E-01  6.44254083137701494E-01  6.84558857856506719E-01
  7.24749211195391263E-01  7.64774489511104383E-01  8.04581822374726530E-01
  8.44116094293670849E-01  8.83319922386720302E-01  9.22133638068938777E-01
  9.60495273962465257E-01  9.98340558079666596E-01  1.03560291242127467E+00
  1.07221346117436167E+00  1.10810104479418348E+00  1.14319224347871318E+00
  1.17741141055759391E+00  1.21068071378250997E+00  1.24292019055215697E+00
  1.27404781150233060E+00  1.30397955899462259E+00  1.33262951826555653E+00
  1.35990998148505371E+00  1.38573157033245464E+00  1.41000337033522749E+00
  1.43263308663977429E+00  1.45352721510750693E+00  1.47259123295700811E+00
  1.48972981200458032E+00  1.50484704829295457E+00  1.51784671985415320E+00
  1.52863256222415123E+00  1.53710857131580547E+00  1.54317933156058329E+00
  1.54675036622421413E+00  1.54772852122871485E+00  1.54602236878048083E+00
  1.54154264593241375E+00  1.53420271863154700E+00  1.52391907414909711E+00
  1.51061184876250199E+00  1.49420537670371667E+00  1.47462877861516306E+00
  1.45181657221782867E+00  1.42570931585098992E+00  1.39625428288014475E+00
  1.36340615691007749E+00  1.32712776423641254E+00  1.28739082058122611E+00
  1.24417670939904279E+00  1.19747727816550986E+00  1.14729565005440759E+00
  1.09364705911448268E+00  1.03655968561182443E+00  9.76075509776702321E-01
  9.12251160275021622E-01  8.45158762276604247E-01  7.74886779925708868E-01
  7.01540835368513527E-01  6.25244514632369852E-01  5.46140133242118964E-01
  4.64389467650927645E-01  3.80174435209329531E-01  2.93697711769871139E-01
  2.05183281998346484E-01  1.14876901459056310E-01  2.30464654103780461E-02
 -7.00177343358999033E-02 -1.64002876209520199E-01 -2.58573617512181386E-01
 -3.53372254178740630E-01 -4.48019059501078842E-01 -5.42112803546576871E-01
 -6.35231483886438797E-01 -7.26933280495140055E-01 -8.16757740583231806E-01
 -9.04227241764170131E-01 -9.88848702648965183E-01 -1.07011561015117751E+00
 -1.14751033661163859E+00 -1.22050677442065258E+00 -1.28857332741897346E+00
 -1.35117619955461321E+00 -1.40778308892171578E+00 -1.45786718557406969E+00
 -1.50091155474760019E+00 -1.53641387816467279E+00 -1.56389149742027045E+00
 -1.58288686667281953E+00 -1.59297322956745502E+00 -1.59376066514382453E+00
 -1.58490234792089413E+00 -1.56610101740122043E+00 -1.53711568027525436E+00
 -1.49776832004907590E+00 -1.44795077099904401E+00 -1.38763145955217237E+00
 -1.31686208012083927E+00 -1.23578406396725371E+00 -1.14463465070915937E+00
 -1.04375262806719760E+00 -9.33583372258380728E-01 -8.14683272652604318E-01
 -6.87723241603679591E-01 -5.53491197658734557E-01 -4.12893415304961764E-01
 -2.66954447706547859E-01 -1.16815596936503632E-01  3.62683575034532732E-02
  1.90934264956494348E-01  3.45717738087180482E-01  4.99062431851475530E-01
  6.49331658263481826E-01  7.94822332627861727E-01  9.33781468628399058E-01
  1.06442515914812286E+00  1.18496004000835065E+00  1.29360737757712907E+00
  1.38862928966208998E+00  1.46835746756284036E+00  1.53122362002433055E+00
  1.57579170840351046E+00  1.60079152787085466E+00  1.60515278750797741E+00
  1.58803987551111292E+00  1.54888565894967067E+00  1.48742451926957542E+00
  1.40372313827069251E+00  1.29820824123189960E+00  1.17169073952375635E+00
  1.02538432373558064E+00  8.60918513395506291E-01  6.80344057999460294E-01
  4.86130241660535145E-01  2.81152847316368970E-01  6.86716179482045747E-02
 -1.47703225995965720E-01 -3.64056454163603327E-01 -5.76225484097774743E-01
 -7.79870478309526161E-01 -9.70556547283455751E-01 -1.14384793358552939E+00
 -1.29541222779672660E+00 -1.42113446685474076E+00 -1.51723760266094376E+00
 -1.58040782748126696E+00 -1.60792149757080627E+00 -1.59776877409074003E+00
 -1.54877223183310675E+00 -1.46069255995603942E+00 -1.33431948409167056E+00
 -1.17154053607975794E+00 -9.75382922619287274E-01 -7.50024485402395857E-01
 -5.00766591716906628E-01 -2.33967616973389442E-01  4.30685400315106298E-02
  3.22249369900253824E-01  5.94897156061048205E-01  8.51996885056612641E-01
  1.08448598761053705E+00  1.28357798856115290E+00  1.44111388221792214E+00
  1.54992806068686129E+00  1.60421520065295953E+00  1.59988472287000527E+00
  1.53487905537768055E+00  1.40944400712132611E+00  1.22632356813902965E+00
  9.90865011225357861E-01  7.11014471806513670E-01  3.97185733264528107E-01
  6.19959380251330350E-02 -2.80142129288881436E-01 -6.13565275911870045E-01
 -9.22034487974119021E-01 -1.18951767598455249E+00 -1.40105402553615077E+00
 -1.54365431850462631E+00 -1.60719847969773233E+00 -1.58526318819347622E+00
 -1.47582722281295253E+00 -1.28178888801453383E+00 -1.01122959847313565E+00
 -6.77382713639243517E-01 -2.98251399404747430E-01  1.04132628876566283E-01
  5.04817578167347958E-01  8.77373320850775906E-01  1.19560956881090230E+00
  1.43547156877463444E+00  1.57700281414298416E+00  1.60621026809982159E+00
  1.51668047339404910E+00  1.31076998730229421E+00  1.00019845927681761E+00
  6.05929634282818652E-01  1.57219481695999114E-01 -3.10172849287829955E-01
 -7.56581382904217170E-01 -1.14169313543635420E+00 -1.42825489563755159E+00
 -1.58590102920750398E+00 -1.59475594641210838E+00 -1.44836116354858602E+00
 -1.15554934566746148E+00 -7.40891781875158473E-01
                              </PP_AEWFC.2>
 <PP_AEWFC.3 type="real" size="   833" l="1" columns="3" label= "0P">
  4.75801564726665457E-07  4.87561351569213536E-07  4.99614664530310695E-07
  5.11968876200318948E-07  5.24631545033561668E-07  5.37610419904523448E-07
  5.50913445062967428E-07  5.64548764984444375E-07  5.78524729395008280E-07
  5.92849898570328372E-07  6.07533048504073681E-07  6.22583176460751870E-07
  6.38009506527890456E-07  6.53821495291845028E-07  6.70028837815487893E-07
  6.86641473527090719E-07  7.03669592500478155E-07  7.21123641712849443E-07
  7.39014331542603945E-07  7.57352642456070587E-07  7.76149831746454026E-07
  7.95417440622739565E-07  8.15167301267246852E-07  8.35411544280849685E-07
  8.56162606130873514E-07  8.77433236933857135E-07  8.99236508331530584E-07
  9.21585821626301366E-07  9.44494916098735561E-07  9.67977877527544181E-07
  9.92049146955507763E-07  1.01672352962894193E-06  1.04201620422100345E-06
  1.06794273222420621E-06  1.09451906764413201E-06  1.12176156687687468E-06
  1.14968699888964213E-06  1.17831255561450051E-06  1.20765586263483476E-06
  1.23773499012692270E-06  1.26856846407379263E-06  1.30017527778548315E-06
  1.33257490366647038E-06  1.36578730534169131E-06  1.39983295001277899E-06
  1.43473282120826968E-06  1.47050843177655359E-06  1.50718183727072213E-06
  1.54477564963135367E-06  1.58331305122362259E-06  1.62281780924978161E-06
  1.66331429048081040E-06  1.70482747641246047E-06  1.74738297875955993E-06
  1.79100705536100539E-06  1.83572662649565920E-06  1.88156929157786769E-06
  1.92856334630965478E-06  1.97673780024457268E-06  2.02612239479064098E-06
  2.07674762169034690E-06  2.12864474194163448E-06  2.18184580520421546E-06
  2.23638366970776701E-06  2.29229202264176015E-06  2.34960540106804165E-06
  2.40835921336949383E-06  2.46858976122435318E-06  2.53033426213912191E-06
  2.59363087255730300E-06  2.65851871154218224E-06  2.72503788505500744E-06
  2.79322951085112571E-06  2.86313574400371066E-06  2.93479980306352924E-06
  3.00826599688189763E-06  3.08357975211176413E-06  3.16078764140006323E-06
  3.23993741228697039E-06  3.32107801683598101E-06  3.40425964201105303E-06
  3.48953374081902093E-06  3.57695306423345012E-06  3.66657169392418102E-06
  3.75844507581144276E-06  3.85263005446526010E-06  3.94918490837070071E-06
  4.04816938607985336E-06  4.14964474327499881E-06  4.25367378076496032E-06
  4.36032088343787796E-06  4.46965206019481494E-06  4.58173498488808563E-06
  4.69663903828975939E-06  4.81443535111682197E-06  4.93519684813900170E-06
  5.05899829339662553E-06  5.18591633655622340E-06  5.31602956043246801E-06
  5.44941852970580678E-06  5.58616584086554374E-06  5.72635617340931096E-06
  5.87007634233041471E-06  6.01741535192535350E-06  6.16846445095464923E-06
  6.32331718919072522E-06  6.48206947538786874E-06  6.64481963670975768E-06
  6.81166847965111512E-06  6.98271935249096992E-06  7.15807820931581217E-06
  7.33785367565210892E-06  7.52215711574839101E-06  7.71110270154825744E-06
  7.90480748339669204E-06  8.10339146252293013E-06  8.30697766534462639E-06
  8.51569221963867755E-06  8.72966443262551538E-06  8.94902687101482134E-06
  9.17391544306153331E-06  9.40446948268274282E-06  9.64083183568676548E-06
  9.88314894816736649E-06  1.01315709571173074E-05  1.03862517833164728E-05
  1.06473492265518565E-05  1.09150250632272688E-05  1.11894451464227212E-05
  1.14707795084646994E-05  1.17592024660699025E-05  1.20548927281269485E-05
  1.23580335061817829E-05  1.26688126276944458E-05  1.29874226521363790E-05
  1.33140609899988246E-05  1.36489300247852609E-05  1.39922372380625087E-05
  1.43441953376464981E-05  1.47050223890013862E-05  1.50749419499316455E-05
  1.54541832086488995E-05  1.58429811252986619E-05  1.62415765770325029E-05
  1.66502165067148880E-05  1.70691540753536502E-05  1.74986488183477531E-05
  1.79389668056479602E-05  1.83903808059277508E-05  1.88531704548628106E-05
  1.93276224276227992E-05  1.98140306156800965E-05  2.03126963080433402E-05
  2.08239283770235150E-05  2.13480434686478634E-05  2.18853661978376425E-05
  2.24362293484642483E-05  2.30009740784086450E-05  2.35799501297486062E-05
  2.41735160441973409E-05  2.47820393839276318E-05  2.54058969579148922E-05
  2.60454750539326899E-05  2.67011696763454132E-05  2.73733867898402996E-05
  2.80625425692431416E-05  2.87690636555747808E-05  2.94933874184963590E-05
  3.02359622253063790E-05  3.09972477166508908E-05  3.17777150891098244E-05
  3.25778473848364027E-05  3.33981397884157275E-05  3.42390999311300301E-05
  3.51012482028059049E-05  3.59851180714372998E-05  3.68912564107721819E-05
  3.78202238360620990E-05  3.87725950481759696E-05  3.97489591862833512E-05
  4.07499201893215493E-05  4.17760971664597007E-05  4.28281247767857231E-05
  4.39066536184408817E-05  4.50123506274358401E-05  4.61458994863883195E-05
  4.73080010434228640E-05  4.84993737414897804E-05  4.97207540583507589E-05
  5.09728969575049597E-05  5.22565763503122387E-05  5.35725855696014220E-05
  5.49217378550357968E-05  5.63048668505310008E-05  5.77228271140212831E-05
  5.91764946398711401E-05  6.06667673942536432E-05  6.21945658638026276E-05
  6.37608336178711969E-05  6.53665378847306767E-05  6.70126701420452781E-05
  6.87002467219795330E-05  7.04303094312944995E-05  7.22039261867952944E-05
  7.40221916665142202E-05  7.58862279770081870E-05  7.77971853371622440E-05
  7.97562427789121813E-05  8.17646088652911100E-05  8.38235224262230368E-05
  8.59342533125032103E-05  8.80981031684034764E-05  9.03164062233562299E-05
  9.25905301031844857E-05  9.49218766613554421E-05  9.73118828307417829E-05
  9.97620214963879060E-05  1.02273802389798242E-04  1.04848773005267933E-04
  1.07488519538788372E-04  1.10194667850079068E-04  1.12968884448304979E-04
  1.15812877502058113E-04  1.18728397874186199E-04  1.21717240182071308E-04
  1.24781243883977653E-04  1.27922294392095783E-04  1.31142324212933680E-04
  1.34443314115708664E-04  1.37827294329421519E-04  1.41296345769304204E-04
  1.44852601293347553E-04  1.48498246989637510E-04  1.52235523495240505E-04
  1.56066727347395318E-04  1.59994212367792188E-04  1.64020391080730237E-04
  1.68147736165973749E-04  1.72378781947134019E-04  1.76716125916431924E-04
  1.81162430296714341E-04  1.85720423641611866E-04  1.90392902474757010E-04
  1.95182732968994949E-04  2.00092852666539989E-04  2.05126272241059422E-04
  2.10286077302683391E-04  2.15575430246963811E-04  2.20997572148831417E-04
  2.26555824702620649E-04  2.32253592209256488E-04  2.38094363611729025E-04
  2.44081714579994646E-04  2.50219309646485520E-04  2.56510904393419308E-04
  2.62960347693138674E-04  2.69571584002736874E-04  2.76348655714248406E-04
  2.83295705561720950E-04  2.90416979086509667E-04  2.97716827162161635E-04
  3.05199708580301831E-04  3.12870192698945753E-04  3.20732962154714793E-04
  3.28792815640448362E-04  3.37054670749746207E-04  3.45523566890014780E-04
  3.54204668265610978E-04  3.63103266932730947E-04  3.72224785927713039E-04
  3.81574782470467302E-04  3.91158951244787053E-04  4.00983127757320612E-04
  4.11053291777042722E-04  4.21375570857088037E-04  4.31956243940852757E-04
  4.42801745054325247E-04  4.53918667086627460E-04  4.65313765660815045E-04
  4.76993963097012885E-04  4.88966352470008767E-04  5.01238201763489150E-04
  5.13816958123121371E-04  5.26710252210769092E-04  5.39925902662137980E-04
  5.53471920650226777E-04  5.67356514557007877E-04  5.81588094755785211E-04
  5.96175278506772552E-04  6.11126894968450616E-04  6.26451990327334660E-04
  6.42159833048847896E-04  6.58259919252015668E-04  6.74761978210810381E-04
  6.91675977984976633E-04  7.09012131183267558E-04  7.26780900862054446E-04
  7.44993006562364259E-04  7.63659430488431985E-04  7.82791423830938465E-04
  8.02400513238161052E-04  8.22498507438327751E-04  8.43097504016554413E-04
  8.64209896349762432E-04  8.85848380703107012E-04  9.08025963491449839E-04
  9.30755968709566246E-04  9.54052045534752448E-04  9.77928176105645345E-04
  1.00239868348113654E-03  1.02747823978325539E-03  1.05318187452808996E-03
  1.07952498314880553E-03  1.10652333571497306E-03  1.13419308585242101E-03
  1.16255077986799011E-03  1.19161336608356798E-03  1.22139820438388379E-03
  1.25192307598270911E-03  1.28320619341211364E-03  1.31526621073953915E-03
  1.34812223401758417E-03  1.38179383197130638E-03  1.41630104692817751E-03
  1.45166440599581929E-03  1.48790493249268546E-03  1.52504415763712268E-03
  1.56310413249998348E-03  1.60210744022643340E-03  1.64207720853256733E-03
  1.68303712248251986E-03  1.72501143755192138E-03  1.76802499298335590E-03
  1.81210322544000046E-03  1.85727218296357298E-03  1.90355853924281128E-03
  1.95098960819867803E-03  1.99959335889258625E-03  2.04939843076435172E-03
  2.10043414920658283E-03  2.15273054148215149E-03  2.20631835299125263E-03
  2.26122906389531137E-03  2.31749490610482292E-03  2.37514888063844291E-03
  2.43422477535994381E-03  2.49475718310079300E-03  2.55678152017603782E-03
  2.62033404530116884E-03  2.68545187891699620E-03  2.75217302293064101E-03
  2.82053638088091037E-03  2.89058177853628202E-03  2.96234998493254175E-03
  3.03588273385895597E-03  3.11122274580170064E-03  3.18841375035316477E-03
  3.26750050909420300E-03  3.34852883895920368E-03  3.43154563609314065E-03
  3.51659890020909922E-03  3.60373775945389135E-03  3.69301249579260344E-03
  3.78447457092155127E-03  3.87817665271738285E-03  3.97417264223154897E-03
  4.07251770124151136E-03  4.17326828036805424E-03  4.27648214776545684E-03
  4.38221841839681828E-03  4.49053758390539470E-03  4.60150154308935477E-03
  4.71517363298950415E-03  4.83161866060291718E-03  4.95090293523242023E-03
  5.07309430147748989E-03  5.19826217288123487E-03  5.32647756624506606E-03
  5.45781313661635858E-03  5.59234321296110237E-03  5.73014383453602887E-03
  5.87129278796730356E-03  6.01586964504281351E-03  6.16395580123542917E-03
  6.31563451496704870E-03  6.47099094761564072E-03  6.63011220428419076E-03
  6.79308737534409929E-03  6.96000757875263765E-03  7.13096600316201566E-03
  7.30605795183578068E-03  7.48538088737181993E-03  7.66903447724497696E-03
  7.85712064018969855E-03  8.04974359342159468E-03  8.24700990070595386E-03
  8.44902852129778177E-03  8.65591085975279430E-03  8.86777081661136758E-03
  9.08472483998468833E-03  9.30689197804220915E-03  9.53439393239738538E-03
  9.76735511242421243E-03  1.00059026905042776E-02  1.02501666581949497E-02
  1.05002798833560718E-02  1.07563781682331969E-02  1.10186003084830619E-02
  1.12870881531831058E-02  1.15619866658204437E-02  1.18434439862410215E-02
  1.21316114936068208E-02  1.24266438703503051E-02  1.27286991671044271E-02
  1.30379388686618601E-02  1.33545279609436733E-02  1.36786349989551914E-02
  1.40104321757900663E-02  1.43500953926472448E-02  1.46978043298450385E-02
  1.50537425188972188E-02  1.54180974155968143E-02  1.57910604741039913E-02
  1.61728272221045299E-02  1.65635973369590433E-02  1.69635747228628064E-02
  1.73729675890749655E-02  1.77919885291103856E-02  1.82208546009484974E-02
  1.86597874082955265E-02  1.91090131827722463E-02  1.95687628671250106E-02
  2.00392721994509006E-02  2.05207817983102843E-02  2.10135372488628354E-02
  2.15177891899503738E-02  2.20337934020347626E-02  2.25618108961454268E-02
  2.31021080036764234E-02  2.36549564670185189E-02  2.42206335311589693E-02
  2.47994220360114176E-02  2.53916105095730663E-02  2.59974932619617058E-02
  2.66173704800598647E-02  2.72515483229833697E-02  2.79003390182724978E-02
  2.85640609586005692E-02  2.92430387992733409E-02  2.99376035562334067E-02
  3.06480927045376869E-02  3.13748502775260951E-02  3.21182269662469294E-02
  3.28785802193518675E-02  3.36562743434685868E-02  3.44516806036202980E-02
  3.52651773241019484E-02  3.60971499894892148E-02  3.69479913455900560E-02
  3.78181015007394428E-02  3.87078880268122288E-02  3.96177660601745932E-02
  4.05481584026790923E-02  4.14994956220180872E-02  4.24722161520288549E-02
  4.34667663925107639E-02  4.44836008082414441E-02  4.55231820277915075E-02
  4.65859809412129955E-02  4.76724767969545146E-02  4.87831572981019743E-02
  4.99185186969863318E-02  5.10790658890557317E-02  5.22653125052426337E-02
  5.34777810025517247E-02  5.47170027536293541E-02  5.59835181339139037E-02
  5.72778766071358053E-02  5.86006368089605628E-02  5.99523666276624984E-02
  6.13336432831365352E-02  6.27450534027837598E-02  6.41871930944490493E-02
  6.56606680170422341E-02  6.71660934469078680E-02  6.87040943414997385E-02
  7.02753053992378474E-02  7.18803711147993490E-02  7.35199458313662429E-02
  7.51946937873206461E-02  7.69052891587442972E-02  7.86524160973453568E-02
  8.04367687619169658E-02  8.22590513456593758E-02  8.41199780965993515E-02
  8.60202733318331525E-02  8.79606714462668193E-02  8.99419169127170376E-02
  9.19647642763413986E-02  9.40299781406868790E-02  9.61383331451083067E-02
  9.82906139354472880E-02  1.00487615123636270E-01  1.02730141239571332E-01
  1.05019006672913931E-01  1.07355035603307780E-01  1.09739061922208531E-01
  1.12171929140883822E-01  1.14654490288034275E-01  1.17187607795331744E-01
  1.19772153367865369E-01  1.22409007844057463E-01  1.25099061038564940E-01
  1.27843211571510740E-01  1.30642366683176858E-01  1.33497442029454155E-01
  1.36409361464053358E-01  1.39379056799924156E-01  1.42407467553021611E-01
  1.45495540668481971E-01  1.48644230222654855E-01  1.51854497108524306E-01
  1.55127308695795885E-01  1.58463638468571727E-01  1.61864465641636007E-01
  1.65330774746785786E-01  1.68863555198428966E-01  1.72463800828314945E-01
  1.76132509392240760E-01  1.79870682050616404E-01  1.83679322812192181E-01
  1.87559437952059205E-01  1.91512035392017305E-01  1.95538124046337913E-01
  1.99638713135468854E-01  2.03814811454741757E-01  2.08067426611368927E-01
  2.12397564215499712E-01  2.16806227029041815E-01  2.21294414075050377E-01
  2.25863119692506720E-01  2.30513332552237826E-01  2.35246034616736599E-01
  2.40062200048962088E-01  2.44962794072568879E-01  2.49948771766266592E-01
  2.55021076810828973E-01  2.60180640167647248E-01  2.65428378696276612E-01
  2.70765193712099783E-01  2.76191969465120812E-01  2.81709571561333305E-01
  2.87318845300778225E-01  2.93020613943354546E-01  2.98815676900869132E-01
  3.04704807835434244E-01  3.10688752688543901E-01  3.16768227609220132E-01
  3.22943916797468866E-01  3.29216470257098437E-01  3.35586501438466356E-01
  3.42054584797899741E-01  3.48621253235721407E-01  3.55286995436052522E-01
  3.62052253095751397E-01  3.68917418025571708E-01  3.75882829151631959E-01
  3.82948769372359332E-01  3.90115462302821958E-01  3.97383068884438362E-01
  4.04751683848587507E-01  4.12221332061609269E-01  4.19791964700120979E-01
  4.27463455298873973E-01  4.35235595636816408E-01  4.43108091459303244E-01
  4.51080558060109660E-01  4.59152515667927641E-01  4.67323384690694899E-01
  4.75592480768245118E-01  4.83959009645618388E-01  4.92422061882258399E-01
  5.00980607341284134E-01  5.09633489523157457E-01  5.18379419676459063E-01
  5.27216970718677569E-01  5.36144570967536538E-01  5.45160497632669938E-01
  5.54262870141200792E-01  5.63449643210552131E-01  5.72718599728979649E-01
  5.82067343421683203E-01  5.91493291267062071E-01  6.00993665741689997E-01
  6.10565486788457124E-01  6.20205563603303478E-01  6.29910486185862428E-01
  6.39676616646910334E-01  6.49500080347318431E-01  6.59376756749583293E-01
  6.69302270117697717E-01  6.79271979967518647E-01  6.89280971307526302E-01
  6.99324044725409544E-01  7.09395706201434217E-01  7.19490156825822513E-01
  7.29601282269184415E-01  7.39722642117012663E-01  7.49847459081019796E-01
  7.59968607991868050E-01  7.70078604785674581E-01  7.80169595274314842E-01
  7.90233343909502284E-01  8.00261222478472534E-01  8.10244198698005680E-01
  8.20172824933345646E-01  8.30037226779951287E-01  8.39827091841817142E-01
  8.49531658530152334E-01  8.59139704969141382E-01  8.68639538203236028E-01
  8.78018983426699373E-01  8.87265373700033111E-01  8.96365539826464941E-01
  9.05305800669994110E-01  9.14071954001925424E-01  9.22649267650556548E-01
  9.31022471526671169E-01  9.39175750026950196E-01  9.47092735373217809E-01
  9.54756501763315724E-01  9.62149560279966676E-01  9.69253855161890554E-01
  9.76050760795657002E-01  9.82521080320491236E-01  9.88645045395053712E-01
  9.94402317411830605E-01  9.99771990637582153E-01  1.00473259661520165E+00
  1.00926211103521690E+00  1.01333796221260575E+00  1.01693704198561052E+00
  1.02003571915660385E+00  1.02260985501086776E+00  1.02463482230780811E+00
  1.02608552646106310E+00  1.02693643041483096E+00  1.02716158270280289E+00
  1.02673464875359621E+00  1.02562894672741733E+00  1.02381748635209568E+00
  1.02127301296728956E+00  1.01796805540044666E+00  1.01387497864744969E+00
  1.00896604205995177E+00  1.00321346166560410E+00  9.96589479282169344E-01
  9.89066436128737680E-01  9.80616853118421061E-01  9.71213517402797044E-01
  9.60829574531277930E-01  9.49438628790986838E-01  9.37014848756016483E-01
  9.23533081461635152E-01  9.08968973195248497E-01  8.93299097635887773E-01
  8.76501092951222471E-01  8.58553804893677275E-01  8.39437440025618931E-01
  8.19133725418407566E-01  7.97626077317967974E-01  7.74899778508499448E-01
  7.50942162353175346E-01  7.25742807326588357E-01  6.99293737219532252E-01
  6.71589631064030468E-01  6.42628040056293925E-01  6.12409611184075886E-01
  5.80938319687693272E-01  5.48221705485506972E-01  5.14271118023991836E-01
  4.79101964623873111E-01  4.42733963840023947E-01  4.05191403151204388E-01
  3.66503397311559231E-01  3.26704150377235658E-01  2.85833215525463202E-01
  2.43935754804566890E-01  2.01062795318211002E-01  1.57271479770279388E-01
  1.12625311226341257E-01  6.71943871167649115E-02  2.10556226826417725E-02
 -2.57070406587441257E-02 -7.30024439793827140E-02 -1.20732039999227422E-01
 -1.68789745680414160E-01 -2.17061822806743354E-01 -2.65426788766628119E-01
 -3.13755363185527214E-01 -3.61910454250937708E-01 -4.09747187250625811E-01
 -4.57112985244872094E-01 -5.03847698705890412E-01 -5.49783798406300428E-01
 -5.94746629443931640E-01 -6.38554734103250143E-01 -6.81020254285265136E-01
 -7.21949405570648461E-01 -7.61143048010905821E-01 -7.98397338120630962E-01
 -8.33504483390896111E-01 -8.66253599751671044E-01 -8.96431666241469083E-01
 -9.23824607291229394E-01 -9.48218470090745336E-01 -9.69400738052483057E-01
 -9.87161755503930816E-01 -1.00129627277904532E+00 -1.01160513042464850E+00
 -1.01789703994334091E+00 -1.01999051619218783E+00 -1.01771590079869489E+00
 -1.01091751202262015E+00 -9.99455903474037566E-01 -9.83210196242554457E-01
 -9.62080531492105706E-01 -9.35990551204480159E-01 -9.04889965928239670E-01
 -8.68757136903062221E-01 -8.27601662126627668E-01 -7.81466970998051291E-01
 -7.30432828218439578E-01 -6.74617800631791442E-01 -6.14181566293982018E-01
 -5.49327079723557987E-01 -4.80302533096672590E-01 -4.07403036689058362E-01
 -3.30972024690327438E-01 -2.51402259068832012E-01 -1.69136435823134618E-01
 -8.46672920138483304E-02  1.46283563321451988E-03  8.86630592302175696E-02
  1.76295671038429802E-01  2.63678615260253879E-01  3.50088756412260838E-01
  4.34766008583809649E-01  5.16918385150957893E-01  5.95727970930147510E-01
  6.70357940202478741E-01  7.39960517534280493E-01  8.03686025359845457E-01
  8.60692916556680232E-01  9.10158773157508372E-01  9.51292337506038255E-01
  9.83346269023272157E-01  1.00563083859660929E+00  1.01752812238313739E+00
  1.01850674560564181E+00  1.00813694718315139E+00  9.86105553015234171E-01
  9.52230963857272128E-01  9.06477373863928793E-01  8.48968338209982187E-01
  7.79999009734696713E-01  7.00046708275169904E-01  6.09779578272095057E-01
  5.10062499066737174E-01  4.01960249686210525E-01  2.86737045609307906E-01
  1.65852259181399508E-01  4.09517999369966648E-02 -8.61452915345605197E-02
 -2.13465270756621528E-01 -3.38903473660212562E-01 -4.60253617919917757E-01
 -5.75242643375555196E-01 -6.81570945011685914E-01 -7.76957988355140960E-01
 -8.59192337960100416E-01 -9.26186196259109806E-01 -9.76032772033479046E-01
 -1.00706595522400977E+00 -1.01792085181261482E+00 -1.00759301822746195E+00
 -9.75495783166717922E-01 -9.21512023092618815E-01 -8.46039761596606765E-01
 -7.50028164469096148E-01 -6.35001838380158112E-01 -5.03071585046243386E-01
 -3.56928138824902486E-01 -1.99818235285688262E-01 -3.55000191453527306E-02
  1.31822697133262168E-01  2.97588373804223039E-01  4.56987665802844945E-01
  6.05094737044660103E-01  7.37017336700583670E-01  8.48063624063804311E-01
  9.33920691495370492E-01  9.90839505423727673E-01  1.01582092056323603E+00
  1.00679243712826461E+00  9.62770883197657912E-01  8.83997914541240326E-01
  7.72041627916395856E-01  6.29853821529154034E-01  4.61772841762149944E-01
  2.73467131473223990E-01  7.18101163206636972E-02 -1.35313953864877545E-01
 -3.39275363127834184E-01 -5.31030953790261773E-01 -7.01515935041840066E-01
 -8.42081114007680154E-01 -9.44961644065415718E-01 -1.00375116597827563E+00
 -1.01385905723076153E+00 -9.72920404907901659E-01 -8.81124886992408429E-01
 -7.41439915573772867E-01 -5.59689458653632399E-01 -3.44472618375120554E-01
 -1.06897270596770025E-01  1.39876560253574450E-01  3.81280164910626773E-01
  6.02148871494986415E-01  7.87671533815504366E-01  9.24424093724272811E-01
  1.00142648565759118E+00  1.01114451040496411E+00
                              </PP_AEWFC.3>
 <PP_PSWFC.1 type="real" size="   833" l="0" columns="3" label= "1S">
  8.62245650758469771E-04  8.73091361465654059E-04  8.84073494250227853E-04
  8.95193765084215782E-04  9.06453911523668601E-04  9.17855692980143185E-04
  9.29400890995603400E-04  9.41091309520776975E-04  9.52928775197009470E-04
  9.64915137641671173E-04  9.77052269737143601E-04  9.89342067923447074E-04
  1.00178645249454786E-03  1.01438736789839020E-03  1.02714678304070524E-03
  1.04006669159263415E-03  1.05314911230222695E-03  1.06639608930985687E-03
  1.07980969246759795E-03  1.09339201766262841E-03  1.10714518714468899E-03
  1.12107134985766905E-03  1.13517268177535996E-03  1.14945138624142915E-03
  1.16390969431367521E-03  1.17854986511260382E-03  1.19337418617439565E-03
  1.20838497380830923E-03  1.22358457345857815E-03  1.23897536007086485E-03
  1.25455973846331321E-03  1.27034014370227643E-03  1.28631904148276597E-03
  1.30249892851368458E-03  1.31888233290790931E-03  1.33547181457726997E-03
  1.35226996563250356E-03  1.36927941078823496E-03  1.38650280777305001E-03
  1.40394284774473035E-03  1.42160225571069903E-03  1.43948379095376524E-03
  1.45759024746321543E-03  1.47592445437132831E-03  1.49448927639538195E-03
  1.51328761428520938E-03  1.53232240527639211E-03  1.55159662354914865E-03
  1.57111328069299214E-03  1.59087542617723679E-03  1.61088614782740826E-03
  1.63114857230765853E-03  1.65166586560923844E-03  1.67244123354511336E-03
  1.69347792225080598E-03  1.71477921869152023E-03  1.73634845117565779E-03
  1.75818898987478429E-03  1.78030424735013226E-03  1.80269767908573125E-03
  1.82537278402822821E-03  1.84833310513350842E-03  1.87158222992018152E-03
  1.89512379103002715E-03  1.91896146679549490E-03  1.94309898181432373E-03
  1.96754010753139898E-03  1.99228866282792193E-03  2.01734851461797928E-03
  2.04272357845262844E-03  2.06841781913155720E-03  2.09443525132244762E-03
  2.12077994018812065E-03  2.14745600202156635E-03  2.17446760488896121E-03
  2.20181896928075410E-03  2.22951436877095663E-03  2.25755813068470677E-03
  2.28595463677422903E-03  2.31470832390329780E-03  2.34382368474028973E-03
  2.37330526845995916E-03  2.40315768145403291E-03  2.43338558805073239E-03
  2.46399371124335007E-03  2.49498683342796318E-03  2.52636979715044254E-03
  2.55814750586283316E-03  2.59032492468924984E-03  2.62290708120140091E-03
  2.65589906620384295E-03  2.68930603452912330E-03  2.72313320584290260E-03
  2.75738586545919801E-03  2.79206936516588353E-03  2.82718912406053216E-03
  2.86275062939679798E-03  2.89875943744141067E-03  2.93522117434194194E-03
  2.97214153700548758E-03  3.00952629398836729E-03  3.04738128639702463E-03
  3.08571242880023100E-03  3.12452571015275644E-03  3.16382719473065534E-03
  3.20362302307827069E-03  3.24391941296716616E-03  3.28472266036709164E-03
  3.32603914042914166E-03  3.36787530848127849E-03  3.41023770103633488E-03
  3.45313293681269885E-03  3.49656771776780994E-03  3.54054883014463372E-03
  3.58508314553128990E-03  3.63017762193396402E-03  3.67583930486331360E-03
  3.72207532843451096E-03  3.76889291648109439E-03  3.81629938368281511E-03
  3.86430213670762527E-03  3.91290867536802506E-03  3.96212659379191218E-03
  4.01196358160813872E-03  4.06242742514695537E-03  4.11352600865549142E-03
  4.16526731552854280E-03  4.21765942955475929E-03  4.27071053617850485E-03
  4.32442892377754660E-03  4.37882298495675427E-03  4.43390121785806977E-03
  4.48967222748688274E-03  4.54614472705507002E-03  4.60332753934086531E-03
  4.66122959806582107E-03  4.71985994928898235E-03  4.77922775281861782E-03
  4.83934228364161188E-03  4.90021293337079573E-03  4.96184921171044773E-03
  5.02426074794012478E-03  5.08745729241714875E-03  5.15144871809789743E-03
  5.21624502207818346E-03  5.28185632715294333E-03  5.34829288339545503E-03
  5.41556506975637581E-03  5.48368339568280298E-03  5.55265850275762224E-03
  5.62250116635942734E-03  5.69322229734317304E-03  5.76483294374194235E-03
  5.83734429249000309E-03  5.91076767116744360E-03  5.98511454976668241E-03
  6.06039654248104881E-03  6.13662540951580293E-03  6.21381305892181306E-03
  6.29197154845216947E-03  6.37111308744207818E-03  6.45125003871222305E-03
  6.53239492049598365E-03  6.61456040839075807E-03  6.69775933733367940E-03
  6.78200470360208404E-03  6.86730966683893069E-03  6.95368755210360508E-03
  7.04115185194833983E-03  7.12971622852058215E-03  7.21939451569166956E-03
  7.31020072121205209E-03  7.40214902889348939E-03  7.49525380081849085E-03
  7.58952957957732995E-03  7.68499109053305974E-03  7.78165324411470190E-03
  7.87953113813915675E-03  7.97864006016203720E-03  8.07899548985785768E-03
  8.18061310142992500E-03  8.28350876605023906E-03  8.38769855432987266E-03
  8.49319873882013916E-03  8.60002579654488286E-03  8.70819641156443322E-03
  8.81772747757137397E-03  8.92863610051872550E-03  9.04093960128084934E-03
  9.15465551834743207E-03  9.26980161055106916E-03  9.38639585982869833E-03
  9.50445647401744823E-03  9.62400188968524049E-03  9.74505077499655641E-03
  9.86762203261386944E-03  9.99173480263505255E-03  1.01174084655673274E-02
  1.02446626453381196E-02  1.03735172123432685E-02  1.05039922865331238E-02
  1.06361082405367971E-02  1.07698857028252666E-02  1.09053455609136492E-02
  1.10425089646031035E-02  1.11813973292629858E-02  1.13220323391534997E-02
  1.14644359507895810E-02  1.16086303963463412E-02  1.17546381871066127E-02
  1.19024821169511474E-02  1.20521852658918450E-02  1.22037710036486981E-02
  1.23572629932708188E-02  1.25126851948021631E-02  1.26700618689924768E-02
  1.28294175810538848E-02  1.29907772044638263E-02  1.31541659248147879E-02
  1.33196092437113649E-02  1.34871329827153212E-02  1.36567632873389900E-02
  1.38285266310878546E-02  1.40024498195526793E-02  1.41785599945518336E-02
  1.43568846383244440E-02  1.45374515777748018E-02  1.47202889887688478E-02
  1.49054254004831205E-02  1.50928896998069294E-02  1.52827111357982850E-02
  1.54749193241941543E-02  1.56695442519757880E-02  1.58666162819896608E-02
  1.60661661576246596E-02  1.62682250075462317E-02  1.64728243504879239E-02
  1.66799961001013082E-02  1.68897725698645799E-02  1.71021864780507640E-02
  1.73172709527560503E-02  1.75350595369888965E-02  1.77555861938207236E-02
  1.79788853115987191E-02  1.82049917092215879E-02  1.84339406414787098E-02
  1.86657678044537360E-02  1.89005093409928895E-02  1.91382018462390828E-02
  1.93788823732323548E-02  1.96225884385772438E-02  1.98693580281780850E-02
  2.01192296030426737E-02  2.03722421051551889E-02  2.06284349634190609E-02
  2.08878480996704530E-02  2.11505219347632098E-02  2.14164973947258315E-02
  2.16858159169914175E-02  2.19585194567012247E-02  2.22346504930824307E-02
  2.25142520359012561E-02  2.27973676319916524E-02  2.30840413718608299E-02
  2.33743178963720412E-02  2.36682424035054330E-02  2.39658606551978806E-02
  2.42672189842623245E-02  2.45723643013875809E-02  2.48813441022192501E-02
  2.51942064745224806E-02  2.55110001054275025E-02  2.58317742887584183E-02
  2.61565789324462276E-02  2.64854645660268471E-02  2.68184823482245684E-02
  2.71556840746222279E-02  2.74971221854182352E-02  2.78428497732716891E-02
  2.81929205912360911E-02  2.85473890607823647E-02  2.89063102799120217E-02
  2.92697400313610932E-02  2.96377347908956396E-02  3.00103517356994955E-02
  3.03876487528547574E-02  3.07696844479162721E-02  3.11565181535799901E-02
  3.15482099384465850E-02  3.19448206158806092E-02  3.23464117529658479E-02
  3.27530456795577379E-02  3.31647854974331038E-02  3.35816950895382049E-02
  3.40038391293354461E-02  3.44312830902492664E-02  3.48640932552120378E-02
  3.53023367263101892E-02  3.57460814345312780E-02  3.61953961496125215E-02
  3.66503504899909141E-02  3.71110149328559222E-02  3.75774608243046454E-02
  3.80497603896002151E-02  3.85279867435335405E-02  3.90122139008888397E-02
  3.95025167870132962E-02  3.99989712484908749E-02  4.05016540639209083E-02
  4.10106429548012241E-02  4.15260165965161618E-02  4.20478546294297123E-02
  4.25762376700834777E-02  4.31112473224997128E-02  4.36529661895896162E-02
  4.42014778846659823E-02  4.47568670430612270E-02  4.53192193338494212E-02
  4.58886214716729482E-02  4.64651612286729673E-02  4.70489274465234128E-02
  4.76400100485681391E-02  4.82385000520605955E-02  4.88444895805053222E-02
  4.94580718761009272E-02  5.00793413122832543E-02  5.07083934063682490E-02
  5.13453248322936207E-02  5.19902334334577387E-02  5.26432182356553133E-02
  5.33043794601079993E-02  5.39738185365888912E-02  5.46516381166394852E-02
  5.53379420868770414E-02  5.60328355823913049E-02  5.67364250002281786E-02
  5.74488180129584802E-02  5.81701235823301049E-02  5.89004519730003534E-02
  5.96399147663472032E-02  6.03886248743558951E-02  6.11466965535785723E-02
  6.19142454191641475E-02  6.26913884589547082E-02  6.34782440476461540E-02
  6.42749319610081554E-02  6.50815733901611987E-02  6.58982909559057972E-02
  6.67252087231000046E-02  6.75624522150811563E-02  6.84101484281265798E-02
  6.92684258459489860E-02  7.01374144542213085E-02  7.10172457551251496E-02
  7.19080527819177112E-02  7.28099701135107996E-02  7.37231338890558946E-02
  7.46476818225285249E-02  7.55837532173048166E-02  7.65314889807235527E-02
  7.74910316386251269E-02  7.84625253498602571E-02  7.94461159207595219E-02
  8.04419508195549499E-02  8.14501791907449590E-02  8.24709518693915733E-02
  8.35044213953415743E-02  8.45507420273599181E-02  8.56100697571639813E-02
  8.66825623233480613E-02  8.77683792251852113E-02  8.88676817362940713E-02
  8.99806329181571940E-02  9.11073976334767083E-02  9.22481425593544707E-02
  9.34030362002786912E-02  9.45722489009038214E-02  9.57559528586066216E-02
  9.69543221357998808E-02  9.81675326719874120E-02  9.93957622955409514E-02
  1.00639190735179726E-01  1.01897999631131678E-01  1.03172372545955335E-01
  1.04462494975001957E-01  1.05768554356491420E-01  1.07090740081180497E-01
  1.08429243501599271E-01  1.09784257940825900E-01  1.11155978700776079E-01
  1.12544603069978225E-01  1.13950330330803998E-01  1.15373361766123381E-01
  1.16813900665354894E-01  1.18272152329875549E-01  1.19748324077755139E-01
  1.21242625247782648E-01  1.22755267202746002E-01  1.24286463331921976E-01
  1.25836429052743920E-01  1.27405381811600688E-01  1.28993541083721103E-01
  1.30601128372104081E-01  1.32228367205446062E-01  1.33875483135011158E-01
  1.35542703730401171E-01  1.37230258574171482E-01  1.38938379255229588E-01
  1.40667299360971110E-01  1.42417254468090504E-01  1.44188482131997031E-01
  1.45981221874785100E-01  1.47795715171688741E-01  1.49632205435941856E-01
  1.51490938001990150E-01  1.53372160106972244E-01  1.55276120870385254E-01
  1.57203071271875022E-01  1.59153264127055938E-01  1.61126954061268479E-01
  1.63124397481209160E-01  1.65145852544320931E-01  1.67191579125848477E-01
  1.69261838783484775E-01  1.71356894719477515E-01  1.73477011740098497E-01
  1.75622456212390948E-01  1.77793496018041147E-01  1.79990400504281722E-01
  1.82213440431720719E-01  1.84462887918924623E-01  1.86739016383666079E-01
  1.89042100480705577E-01  1.91372416035916287E-01  1.93730239976673102E-01
  1.96115850258330449E-01  1.98529525786599659E-01  2.00971546335744933E-01
  2.03442192462369470E-01  2.05941745414621985E-01  2.08470487036723939E-01
  2.11028699668531911E-01  2.13616666040006814E-01  2.16234669160439208E-01
  2.18882992202105581E-01  2.21561918378277684E-01  2.24271730815338716E-01
  2.27012712418695639E-01  2.29785145732429169E-01  2.32589312792316871E-01
  2.35425494971991833E-01  2.38293972822141070E-01  2.41195025902267546E-01
  2.44128932604904453E-01  2.47095969972051938E-01  2.50096413503332282E-01
  2.53130536955862462E-01  2.56198612135393244E-01  2.59300908678330777E-01
  2.62437693824632445E-01  2.65609232180902988E-01  2.68815785473553170E-01
  2.72057612291818407E-01  2.75334967819878762E-01  2.78648103558198468E-01
  2.81997267033486709E-01  2.85382701496745050E-01  2.88804645609540112E-01
  2.92263333117509239E-01  2.95758992511041541E-01  2.99291846672908035E-01
  3.02862112511767978E-01  3.06470000581935298E-01  3.10115714688478761E-01
  3.13799451477083768E-01  3.17521400009001364E-01  3.21281741319566050E-01
  3.25080647960606373E-01  3.28918283526265343E-01  3.32794802160893077E-01
  3.36710348049885921E-01  3.40665054891813923E-01  3.44659045351663973E-01
  3.48692430495532002E-01  3.52765309204558397E-01  3.56877767569356685E-01
  3.61029878263553261E-01  3.65221699895358909E-01  3.69453276338549963E-01
  3.73724636039934666E-01  3.78035791304532187E-01  3.82386737557904199E-01
  3.86777452583265846E-01  3.91207895735933620E-01  3.95678007131762544E-01
  4.00187706810286759E-01  4.04736893873405335E-01  4.09325445595638104E-01
  4.13953216509738486E-01  4.18620037464280670E-01  4.23325714652919793E-01
  4.28070028618125209E-01  4.32852733223634489E-01  4.37673554600560566E-01
  4.42532190064280517E-01  4.47428307000220793E-01  4.52361541723900695E-01
  4.57331498307591677E-01  4.62337747379541086E-01  4.67379824894048668E-01
  4.72457230868309985E-01  4.77569428094666015E-01  4.82715840818576769E-01
  4.87895853389214096E-01  4.93108808882839422E-01  4.98354007692003775E-01
  5.03630706093388225E-01  5.08938114782296780E-01  5.14275397381713462E-01
  5.19641668928749412E-01  5.25035994327860411E-01  5.30457386789024765E-01
  5.35904806236104814E-01  5.41377157694639122E-01  5.46873289665349094E-01
  5.52391992468197146E-01  5.57931996582141543E-01  5.63491970962197830E-01
  5.69070521345083735E-01  5.74666188553967006E-01  5.80277446781563788E-01
  5.85902701885836708E-01  5.91540289674889253E-01  5.97188474195696095E-01
  6.02845446041984423E-01  6.08509320653813246E-01  6.14178136654979001E-01
  6.19849854197654371E-01  6.25522353334517112E-01  6.31193432438565627E-01
  6.36860806635391796E-01  6.42522106309434071E-01  6.48174875643116821E-01
  6.53816571218408304E-01  6.59444560704941729E-01  6.65056121591057869E-01
  6.70648440038738247E-01  6.76218609806182425E-01  6.81763631282368499E-01
  6.87280410658999141E-01  6.92765759188173402E-01  6.98216392630388594E-01
  7.03628930815283105E-01  7.08999897382212585E-01  7.14325719721779939E-01
  7.19602729061117219E-01  7.24827160824416894E-01  7.29995155162357134E-01
  7.35102757750759173E-01  7.40145920865801887E-01  7.45120504678863593E-01
  7.50022278930022046E-01  7.54846924837287214E-01  7.59590037387716799E-01
  7.64247127989374886E-01  7.68813627438134861E-01  7.73284889381166352E-01
  7.77656194091537079E-01  7.81922752758478001E-01  7.86079712224073468E-01
  7.90122160147933683E-01  7.94045130790684839E-01  7.97843611187455837E-01
  8.01512547982343504E-01  8.05046854783105226E-01  8.08441420067302574E-01
  8.11691115812930297E-01  8.14790806591375483E-01  8.17735359456000621E-01
  8.20519654392298681E-01  8.23138595433802078E-01  8.25587122558428477E-01
  8.27860224092720753E-01  8.29952949995502065E-01  8.31860425681107407E-01
  8.33577866574177317E-01  8.35100593402742120E-01  8.36424047980747321E-01
  8.37543809838845688E-01  8.38455613265718491E-01  8.39155365029547684E-01
  8.39639162633307845E-01  8.39903312914230926E-01  8.39944351254050314E-01
  8.39759060904833765E-01  8.39344492719983459E-01  8.38697984976641164E-01
  8.37817183172731350E-01  8.36700059878876079E-01  8.35344934169630959E-01
  8.33750490819884171E-01  8.31915798839154674E-01  8.29840329252039988E-01
  8.27523971957427107E-01  8.24967051298910903E-01  8.22170340253216114E-01
  8.19135072851941759E-01  8.15862954617585179E-01  8.12356170657625110E-01
  8.08617391197129276E-01  8.04649774025560260E-01  8.00456963783268471E-01
  7.96043087477833589E-01  7.91412745975422216E-01  7.86571001317397767E-01
  7.81523358940443780E-01  7.76275745370841985E-01  7.70834480126496802E-01
  7.65206242293202221E-01  7.59398031475330360E-01  7.53417122302089903E-01
  7.47271013989183719E-01  7.40967373114987060E-01  7.34513971753274708E-01
  7.27918620354078616E-01  7.21189095929940738E-01  7.14333068191613019E-01
  7.07358022271045384E-01  7.00271183024625432E-01  6.93079440624312593E-01
  6.85789281574701204E-01  6.78406729528600372E-01  6.70937297913763775E-01
  6.63385963480095819E-01  6.55757163839067680E-01  6.48054829604167049E-01
  6.40282459840582185E-01  6.32443251674303375E-01  6.24540292025260735E-01
  6.16576699715098320E-01  6.08555642063449920E-01  6.00480332789904536E-01
  5.92354029862126374E-01  5.84180033525541820E-01  5.75961683893078225E-01
  5.67702358825655229E-01  5.59405471475895033E-01  5.51074467839845705E-01
  5.42712824350650935E-01  5.34324045119144553E-01  5.25911659464724512E-01
  5.17479219038938565E-01  5.09030295096210672E-01  5.00568475658178857E-01
  4.92097362466028754E-01  4.83620568154428665E-01  4.75141713023778833E-01
  4.66664422051408678E-01  4.58192321673639491E-01  4.49729036516915648E-01
  4.41278186239989823E-01  4.32843382052712888E-01  4.24428223501337076E-01
  4.16036294960680231E-01  4.07671162219887584E-01  3.99336369060405871E-01
  3.91035433644952413E-01  3.82771845134263600E-01  3.74549060025682223E-01
  3.66370498682093038E-01  3.58239541764835412E-01  3.50159526629330475E-01
  3.42133743872781393E-01  3.34165433688440150E-01  3.26257782445216582E-01
  3.18413919144364677E-01  3.10636911966329032E-01  3.02929764896436582E-01
  2.95295414284071744E-01  2.87736725605441279E-01  2.80256490149819737E-01
  2.72857421868502092E-01  2.65542154269725272E-01  2.58313237371880555E-01
  2.51173134814383303E-01  2.44124220992554847E-01  2.37168778364858890E-01
  2.30308994836921327E-01  2.23546961282013734E-01  2.16884669193394608E-01
  2.10324008472357826E-01  2.03866765354232204E-01  1.97514620501368365E-01
  1.91269147239914589E-01  1.85131809957288868E-01  1.79103962705727343E-01
  1.73186847908885555E-01  1.67381595347808471E-01  1.61689221233897340E-01
  1.56110627535673147E-01  1.50646601500788319E-01  1.45297815292269095E-01
  1.40064825981456337E-01  1.34948075546326623E-01  1.29947891254654724E-01
  1.25064486143090015E-01  1.20297959694949608E-01  1.15648298859492252E-01
  1.11115379032106276E-01  1.06698965528097184E-01  1.02398714997521470E-01
  9.82141771861158586E-02  9.41447969068857499E-02  9.01899160101443387E-02
  8.63487758685243939E-02  8.26205196572050715E-02  7.90041951391777519E-02
  7.54987574373642140E-02  7.21030719372057760E-02  6.88159175871122242E-02
  6.56359899369152872E-02  6.25619047712240028E-02  5.95922014794260588E-02
  5.67253467469296738E-02  5.39597383952495693E-02  5.12937090265792178E-02
  4.87255302220806624E-02  4.62534162868876372E-02  4.38755284910313931E-02
  4.15899791385781828E-02  3.93948356190233426E-02  3.72881248103788462E-02
  3.52678369833367908E-02  3.33319302693162109E-02  3.14783346599292746E-02
  2.97049562146926675E-02  2.80096813000759032E-02  2.63903804407555724E-02
  2.48449126497790988E-02  2.33711291101830407E-02  2.19668772483155895E-02
  2.06300044917014785E-02  1.93583618621278007E-02  1.81498078107577634E-02
  1.70022114079774744E-02  1.59134559802533680E-02  1.48814421631491972E-02
  1.39040910389911492E-02  1.29793471997973059E-02  1.21051813300740198E-02
  1.12795931424308684E-02  1.05006136150216194E-02  9.76630749682845002E-03
  9.07477544442239145E-03  8.42415593121985558E-03  7.81262729579785056E-03
  7.23840916206409685E-03  6.69976417843120772E-03  6.19499920637232252E-03
  5.72246652837428340E-03  5.28056494545831555E-03  4.86774044702339547E-03
  4.48248712393297267E-03  4.12334750150286991E-03  3.78891305580393752E-03
  3.47782442361655245E-03  3.18877142884368059E-03  2.92049319647674083E-03
  2.67177780190609076E-03  2.44146214771536179E-03  2.22843144764650657E-03
  2.03161873424223842E-03  1.85000429415581357E-03  1.68261483003818275E-03
  1.52852279928039907E-03  1.38684538905573277E-03  1.25674363640699595E-03
  1.13742137263547522E-03  1.02812408557248947E-03  9.28137862156652813E-04
  8.36788082038419879E-04  7.53438283297127340E-04  6.77488828838209182E-04
  6.08375629398785018E-04  5.45568859448394470E-04  4.88571563326154965E-04
  4.36918399212149076E-04  3.90174226202831065E-04  3.47932815020206179E-04
  3.09815505239199125E-04  2.75469867644223044E-04  2.44568448034180577E-04
  2.16807431254482631E-04  1.91905434037026074E-04  1.69602242121413393E-04
  1.49657620092531014E-04  1.31850156720108279E-04  1.15976103598795479E-04
  1.01848315356651333E-04  8.92951595947658744E-05  7.81595207956585058E-05
  6.82978167271756632E-05  5.95790556841213018E-05  5.18839607312636525E-05
  4.51040966431805803E-05  3.91410807378331571E-05  3.39058025502516188E-05
  2.93177027783349814E-05  2.53040928007839339E-05  2.17995003609647407E-05
  1.87450771819142827E-05  1.60880206937390832E-05  1.37810521077278386E-05
  1.17819199881241351E-05  1.00529390527564001E-05  8.56056948695880180E-06
  7.27501588250981349E-06  6.16986927127479868E-06  5.22176756886598087E-06
  4.41008893454935276E-06  3.71667020335659361E-06  3.12554594209519123E-06
  2.62271620990699540E-06  2.19592907377636109E-06  1.83448812771053083E-06
  1.52907552798686089E-06  1.27159253522971402E-06  1.05501742929300868E-06
  8.73275219664512875E-07  7.21123693429273165E-07  5.94049316312935167E-07
  4.88175696929036297E-07  4.00181989834039451E-07
                              </PP_PSWFC.1>
 <PP_PSWFC.2 type="real" size="   833" l="0" columns="3" label= "0S">
 -1.20846608930012356E-03 -1.22366670999769496E-03 -1.23905853052875495E-03
 -1.25464395587443055E-03 -1.27042542126615254E-03 -1.28640539256612524E-03
 -1.30258636665259468E-03 -1.31897087180995434E-03 -1.33556146812375642E-03
 -1.35236074788069958E-03 -1.36937133597363116E-03 -1.38659589031165710E-03
 -1.40403710223540147E-03 -1.42169769693749099E-03 -1.43958043388832976E-03
 -1.45768810726721828E-03 -1.47602354639890586E-03 -1.49458961619562615E-03
 -1.51338921760469096E-03 -1.53242528806172185E-03 -1.55170080194956365E-03
 -1.57121877106298547E-03 -1.59098224507921572E-03 -1.61099431203439781E-03
 -1.63125809880603954E-03 -1.65177677160151790E-03 -1.67255353645274162E-03
 -1.69359163971702256E-03 -1.71489436858424799E-03 -1.73646505159043806E-03
 -1.75830705913774545E-03 -1.78042380402100597E-03 -1.80281874196090469E-03
 -1.82549537214384623E-03 -1.84845723776861921E-03 -1.87170792659992007E-03
 -1.89525107152885113E-03 -1.91909035114045745E-03 -1.94322949028840090E-03
 -1.96767226067686742E-03 -1.99242248144977348E-03 -2.01748401978739562E-03
 -2.04286079151049481E-03 -2.06855676169203544E-03 -2.09457594527660352E-03
 -2.12092240770759546E-03 -2.14760026556230560E-03 -2.17461368719499377E-03
 -2.20196689338803637E-03 -2.22966415801126782E-03 -2.25770980868959890E-03
 -2.28610822747904148E-03 -2.31486385155122223E-03 -2.34398117388650434E-03
 -2.37346474397582760E-03 -2.40331916853135479E-03 -2.43354911220606835E-03
 -2.46415929832240069E-03 -2.49515450961002765E-03 -2.52653958895294149E-03
 -2.55831944014589530E-03 -2.59049902866037487E-03 -2.62308338242018668E-03
 -2.65607759258679622E-03 -2.68948681435454392E-03 -2.72331626775583610E-03
 -2.75757123847647544E-03 -2.79225707868122671E-03 -2.82737920784975746E-03
 -2.86294311362309721E-03 -2.89895435266070882E-03 -2.93541855150834981E-03
 -2.97234140747683383E-03 -3.00972868953182805E-03 -3.04758623919484809E-03
 -3.08591997145554351E-03 -3.12473587569547621E-03 -3.16404001662348852E-03
 -3.20383853522282448E-03 -3.24413764971016221E-03 -3.28494365650666958E-03
 -3.32626293122128495E-03 -3.36810192964633352E-03 -3.41046718876565581E-03
 -3.45336532777540785E-03 -3.49680304911766061E-03 -3.54078713952700247E-03
 -3.58532447109028264E-03 -3.63042200231965696E-03 -3.67608677923912490E-03
 -3.72232593648468739E-03 -3.76914669841834369E-03 -3.81655638025606711E-03
 -3.86456238920994269E-03 -3.91317222564466216E-03 -3.96239348424850223E-03
 -4.01223385521904969E-03 -4.06270112546378362E-03 -4.11380317981573530E-03
 -4.16554800226442458E-03 -4.21794367720221795E-03 -4.27099839068635721E-03
 -4.32472043171681659E-03 -4.37911819353019836E-03 -4.43420017490988271E-03
 -4.48997498151258289E-03 -4.54645132721158418E-03 -4.60363803545681474E-03
 -4.66154404065199490E-03 -4.72017838954906163E-03 -4.77955024266007219E-03
 -4.83966887568683651E-03 -4.90054368096847978E-03 -4.96218416894715283E-03
 -5.02459996965214355E-03 -5.08780083420256983E-03 -5.15179663632894802E-03
 -5.21659737391382342E-03 -5.28221317055171686E-03 -5.34865427712865032E-03
 -5.41593107342143009E-03 -5.48405406971702071E-03 -5.55303390845218736E-03
 -5.62288136587370604E-03 -5.69360735371937741E-03 -5.76522292092007411E-03
 -5.83773925532315736E-03 -5.91116768543745175E-03 -5.98551968220009840E-03
 -6.06080686076553802E-03 -6.13704098231686659E-03 -6.21423395589992388E-03
 -6.29239784028030359E-03 -6.37154484582364618E-03 -6.45168733639944411E-03
 -6.53283783130870384E-03 -6.61500900723568670E-03 -6.69821370022412061E-03
 -6.78246490767812123E-03 -6.86777579038812779E-03 -6.95415967458222397E-03
 -7.04163005400304520E-03 -7.13020059201073010E-03 -7.21988512371211488E-03
 -7.31069765811656093E-03 -7.40265238031875827E-03 -7.49576365370873288E-03
 -7.59004602220954457E-03 -7.68551421254290695E-03 -7.78218313652309038E-03
 -7.88006789337952762E-03 -7.97918377210834161E-03 -8.07954625385329424E-03
 -8.18117101431642922E-03 -8.28407392619878030E-03 -8.38827106167158894E-03
 -8.49377869487824913E-03 -8.60061330446755534E-03 -8.70879157615848248E-03
 -8.81833040533692818E-03 -8.92924689968488221E-03 -9.04155838184226082E-03
 -9.15528239210196965E-03 -9.27043669113851616E-03 -9.38703926277057246E-03
 -9.50510831675796704E-03 -9.62466229163341964E-03 -9.74571985756955347E-03
 -9.86829991928156285E-03 -9.99242161896594754E-03 -1.01181043392757977E-02
 -1.02453677063330164E-02 -1.03742315927780066E-02 -1.05047161208571913E-02
 -1.06368416655488671E-02 -1.07706288577279052E-02 -1.09060985873695952E-02
 -1.10432720067933452E-02 -1.11821705339465085E-02 -1.13228158557289356E-02
 -1.14652299313587423E-02 -1.16094349957796585E-02 -1.17554535631106370E-02
 -1.19033084301381330E-02 -1.20530226798515015E-02 -1.22046196850222281E-02
 -1.23581231118272197E-02 -1.25135569235169906E-02 -1.26709453841290388E-02
 -1.28303130622470802E-02 -1.29916848348066681E-02 -1.31550858909476268E-02
 -1.33205417359140415E-02 -1.34880781950022302E-02 -1.36577214175572989E-02
 -1.38294978810188894E-02 -1.40034343950165684E-02 -1.41795581055156241E-02
 -1.43578964990137038E-02 -1.45384774067889785E-02 -1.47213290092003887E-02
 -1.49064798400405391E-02 -1.50939587909419484E-02 -1.52837951158372176E-02
 -1.54760184354736808E-02 -1.56706587419833329E-02 -1.58677464035083711E-02
 -1.60673121688833867E-02 -1.62693871723744339E-02 -1.64740029384759859E-02
 -1.66811913867661935E-02 -1.68909848368211449E-02 -1.71034160131889254E-02
 -1.73185180504239582E-02 -1.75363244981824769E-02 -1.77568693263796991E-02
 -1.79801869304093628E-02 -1.82063121364264384E-02 -1.84352802066936675E-02
 -1.86671268449924779E-02 -1.89018882020993498E-02 -1.91396008813277986E-02
 -1.93803019441372675E-02 -1.96240289158092426E-02 -1.98708197911914609E-02
 -2.01207130405110790E-02 -2.03737476152571519E-02 -2.06299629541335725E-02
 -2.08893989890830585E-02 -2.11520961513827904E-02 -2.14180953778127688E-02
 -2.16874381168972140E-02 -2.19601663352202436E-02 -2.22363225238161911E-02
 -2.25159497046355725E-02 -2.27990914370874466E-02 -2.30857918246586483E-02
 -2.33760955216111739E-02 -2.36700477397580496E-02 -2.39676942553186147E-02
 -2.42690814158542205E-02 -2.45742561472845622E-02 -2.48832659609860805E-02
 -2.51961589609726935E-02 -2.55129838511600725E-02 -2.58337899427137398E-02
 -2.61586271614823278E-02 -2.64875460555162798E-02 -2.68205978026730962E-02
 -2.71578342183098724E-02 -2.74993077630636060E-02 -2.78450715507205585E-02
 -2.81951793561748473E-02 -2.85496856234775942E-02 -2.89086454739770002E-02
 -2.92721147145502333E-02 -2.96401498459279815E-02 -3.00128080711121771E-02
 -3.03901473038878933E-02 -3.07722261774300357E-02 -3.11591040530053813E-02
 -3.15508410287710372E-02 -3.19474979486696897E-02 -3.23491364114225216E-02
 -3.27558187796205269E-02 -3.31676081889145727E-02 -3.35845685573053568E-02
 -3.40067645945334521E-02 -3.44342618115703464E-02 -3.48671265302110678E-02
 -3.53054258927687076E-02 -3.57492278718719234E-02 -3.61986012803654431E-02
 -3.66536157813144928E-02 -3.71143418981135578E-02 -3.75808510246997407E-02
 -3.80532154358716665E-02 -3.85315082977138040E-02 -3.90158036781270215E-02
 -3.95061765574657511E-02 -4.00027028392816592E-02 -4.05054593611748476E-02
 -4.10145239057521857E-02 -4.15299752116934859E-02 -4.20518929849255513E-02
 -4.25803579099040749E-02 -4.31154516610040561E-02 -4.36572569140180611E-02
 -4.42058573577629732E-02 -4.47613377057950318E-02 -4.53237837082327566E-02
 -4.58932821636882857E-02 -4.64699209313060510E-02 -4.70537889429094996E-02
 -4.76449762152549444E-02 -4.82435738623919752E-02 -4.88496741081308194E-02
 -4.94633702986151114E-02 -5.00847569150002642E-02 -5.07139295862362588E-02
 -5.13509851019543079E-02 -5.19960214254565067E-02 -5.26491377068073821E-02
 -5.33104342960263947E-02 -5.39800127563804244E-02 -5.46579758777744340E-02
 -5.53444276902395754E-02 -5.60394734775166853E-02 -5.67432197907340938E-02
 -5.74557744621775196E-02 -5.81772466191504134E-02 -5.89077466979228900E-02
 -5.96473864577665366E-02 -6.03962789950735907E-02 -6.11545387575573654E-02
 -6.19222815585314043E-02 -6.26996245912650879E-02 -6.34866864434117106E-02
 -6.42835871115069735E-02 -6.50904480155338194E-02 -6.59073920135500868E-02
 -6.67345434163755385E-02 -6.75720280023340003E-02 -6.84199730320463606E-02
 -6.92785072632703530E-02 -7.01477609657816803E-02 -7.10278659362922477E-02
 -7.19189555133999819E-02 -7.28211645925642831E-02 -7.37346296411021118E-02
 -7.46594887131978024E-02 -7.55958814649206889E-02 -7.65439491692435914E-02
 -7.75038347310546410E-02 -7.84756827021559911E-02 -7.94596392962402115E-02
 -8.04558524038372358E-02 -8.14644716072227965E-02 -8.24856481952788989E-02
 -8.35195351782975770E-02 -8.45662873027175216E-02 -8.56260610657830906E-02
 -8.66990147301149039E-02 -8.77853083381805732E-02 -8.88851037266539384E-02
 -8.99985645406494311E-02 -9.11258562478190343E-02 -9.22671461522987374E-02
 -9.34226034084885276E-02 -9.45923990346529409E-02 -9.57767059263245207E-02
 -9.69756988694955996E-02 -9.81895545535806241E-02 -9.94184515841304850E-02
 -1.00662570495281767E-01 -1.01922093761919949E-01 -1.03197205811537865E-01
 -1.04488093035767018E-01 -1.05794943801559710E-01 -1.07117948462000526E-01
 -1.08457299366721230E-01 -1.09813190871895380E-01 -1.11185819349785969E-01
 -1.12575383197819387E-01 -1.13982082847157426E-01 -1.15406120770736573E-01
 -1.16847701490745762E-01 -1.18307031585510522E-01 -1.19784319695747210E-01
 -1.21279776530156633E-01 -1.22793614870318604E-01 -1.24326049574850522E-01
 -1.25877297582790176E-01 -1.27447577916162430E-01 -1.29037111681689187E-01
 -1.30646122071594178E-01 -1.32274834363460575E-01 -1.33923475919093482E-01
 -1.35592276182334825E-01 -1.37281466675780950E-01 -1.38991280996349664E-01
 -1.40721954809640920E-01 -1.42473725843029780E-01 -1.44246833877435449E-01
 -1.46041520737703906E-01 -1.47858030281533021E-01 -1.49696608386877955E-01
 -1.51557502937768040E-01 -1.53440963808453734E-01 -1.55347242845814526E-01
 -1.57276593849948909E-01 -1.59229272552860707E-01 -1.61205536595155741E-01
 -1.63205645500667601E-01 -1.65229860648914539E-01 -1.67278445245288510E-01
 -1.69351664288888509E-01 -1.71449784537889033E-01 -1.73573074472328587E-01
 -1.75721804254225455E-01 -1.77896245684894261E-01 -1.80096672159338694E-01
 -1.82323358617611231E-01 -1.84576581493006098E-01 -1.86856618656938339E-01
 -1.89163749360392874E-01 -1.91498254171792809E-01 -1.93860414911120243E-01
 -1.96250514580163793E-01 -1.98668837288723032E-01 -2.01115668176582857E-01
 -2.03591293331120360E-01 -2.06095999700352833E-01 -2.08630075001217941E-01
 -2.11193807622938046E-01 -2.13787486525248649E-01 -2.16411401131262393E-01
 -2.19065841214807655E-01 -2.21751096781986845E-01 -2.24467457946710192E-01
 -2.27215214800025683E-01 -2.29994657272951680E-01 -2.32806074992551931E-01
 -2.35649757131058235E-01 -2.38525992247691498E-01 -2.41435068122921093E-01
 -2.44377271584936662E-01 -2.47352888327925152E-01 -2.50362202721903349E-01
 -2.53405497613830022E-01 -2.56483054119535703E-01 -2.59595151406238900E-01
 -2.62742066465297630E-01 -2.65924073874694800E-01 -2.69141445551046521E-01
 -2.72394450490670681E-01 -2.75683354499214772E-01 -2.79008419909629768E-01
 -2.82369905287888412E-01 -2.85768065125998505E-01 -2.89203149522050229E-01
 -2.92675403846545334E-01 -2.96185068394670015E-01 -2.99732378024115398E-01
 -3.03317561777592448E-01 -3.06940842489835108E-01 -3.10602436378447866E-01
 -3.14302552617779452E-01 -3.18041392895674124E-01 -3.21819150952142530E-01
 -3.25636012099330185E-01 -3.29492152722537346E-01 -3.33387739761039859E-01
 -3.37322930168423740E-01 -3.41297870351835730E-01 -3.45312695588827601E-01
 -3.49367529421801160E-01 -3.53462483028874341E-01 -3.57597654570163348E-01
 -3.61773128509475017E-01 -3.65988974909640274E-01 -3.70245248701139174E-01
 -3.74541988923498825E-01 -3.78879217937476420E-01 -3.83256940608355801E-01
 -3.87675143458799554E-01 -3.92133793789859797E-01 -3.96632838770539620E-01
 -4.01172204493302931E-01 -4.05751794995406090E-01 -4.10371491245483277E-01
 -4.15031150092568746E-01 -4.19730603178612827E-01 -4.24469655812061031E-01
 -4.29248085801027579E-01 -4.34065642246956263E-01 -4.38922044294788094E-01
 -4.43816979840538250E-01 -4.48750104195044464E-01 -4.53721038700390544E-01
 -4.58729369301375534E-01 -4.63774645067678570E-01 -4.68856376666327734E-01
 -4.73974034785405784E-01 -4.79127048503213859E-01 -4.84314803606270161E-01
 -4.89536640852548222E-01 -4.94791854177165202E-01 -5.00079688844251802E-01
 -5.05399339537328851E-01 -5.10749948391532538E-01 -5.16130602966289542E-01
 -5.21540334152244434E-01 -5.26978114019326593E-01 -5.32442853597172805E-01
 -5.37933400589920785E-01 -5.43448537027718115E-01 -5.48986976844525687E-01
 -5.54547363392390635E-01 -5.60128266883359260E-01 -5.65728181758357929E-01
 -5.71345523990651416E-01 -5.76978628308742469E-01 -5.82625745352000957E-01
 -5.88285038751572009E-01 -5.93954582131732356E-01 -5.99632356046164827E-01
 -6.05316244829032901E-01 -6.11004033376905009E-01 -6.16693403857211053E-01
 -6.22381932332610521E-01 -6.28067085324533703E-01 -6.33746216290395625E-01
 -6.39416562033140234E-01 -6.45075239043875759E-01 -6.50719239759376955E-01
 -6.56345428768961292E-01 -6.61950538939164335E-01 -6.67531167477689924E-01
 -6.73083771944597897E-01 -6.78604666182833216E-01 -6.84090016217101637E-01
 -6.89535836082151188E-01 -6.94937983605658727E-01 -7.00292156163082269E-01
 -7.05593886364534129E-01 -7.10838537741519394E-01 -7.16021300385037862E-01
 -7.21137186565899646E-01 -7.26181026366170990E-01 -7.31147463266985986E-01
 -7.36030949785279498E-01 -7.40825743097666800E-01 -7.45525900691626164E-01
 -7.50125276086112791E-01 -7.54617514549010382E-01 -7.58996048936386281E-01
 -7.63254095572660440E-01 -7.67384650227363907E-01 -7.71380484244248654E-01
 -7.75234140729444521E-01 -7.78937930965818093E-01 -7.82483930944637529E-01
 -7.85863978095848181E-01 -7.89069668284085979E-01 -7.92092352954716694E-01
 -7.94923136650707352E-01 -7.97552874750829921E-01 -7.99972171551503908E-01
 -8.02171378763853582E-01 -8.04140594288962895E-01 -8.05869661557912509E-01
 -8.07348169229652579E-01 -8.08565451432249338E-01 -8.09510588609002157E-01
 -8.10172408817861345E-01 -8.10539489846655914E-01 -8.10600161859233892E-01
 -8.10342510851154274E-01 -8.09754382940883422E-01 -8.08823389346515542E-01
 -8.07536912490031455E-01 -8.05882112844385490E-01 -8.03845936931735783E-01
 -8.01415126423664304E-01 -7.98576228224977092E-01 -7.95315606052241275E-01
 -7.91619453004876683E-01 -7.87473805705180996E-01 -7.82864559828242212E-01
 -7.77777486982517252E-01 -7.72198253486761521E-01 -7.66112440420357643E-01
 -7.59505565720098419E-01 -7.52363107948339604E-01 -7.44670531837931304E-01
 -7.36413316123643913E-01 -7.27576982942049977E-01 -7.18147129768108239E-01
 -7.08109463252315607E-01 -6.97449835282272890E-01 -6.86154281631804697E-01
 -6.74209062447781227E-01 -6.61600705685009061E-01 -6.48316052548085331E-01
 -6.34342305541308438E-01 -6.19667079201664972E-01 -6.04278452832465396E-01
 -5.88165026364437904E-01 -5.71315978105316868E-01 -5.53721125257464863E-01
 -5.35370986849583952E-01 -5.16256848581977956E-01 -4.96370830519326678E-01
 -4.75705956188102741E-01 -4.54256224118650964E-01 -4.32016680974026679E-01
 -4.08983496021044224E-01 -3.85154037416736317E-01 -3.60526948864332619E-01
 -3.35102227542745656E-01 -3.08881302037152305E-01 -2.81867110213440963E-01
 -2.54064176831983457E-01 -2.25478689705061991E-01 -1.96118574707760424E-01
 -1.65993568303962807E-01 -1.35115287383735544E-01 -1.03497295579632220E-01
 -7.11551652713146993E-02 -3.81065345397811339E-02 -4.37115831262175573E-03
  3.00290473000860668E-02  6.50699683361207759E-02  1.00725264498677039E-01
  1.36966350720842789E-01  1.73762388102741305E-01  2.11080286778366488E-01
  2.48884720161081818E-01  2.87138151360771254E-01  3.25800873756848020E-01
  3.64831062858043564E-01  4.04184843648618009E-01  4.43816369139001077E-01
  4.83677911762927293E-01  5.23719966854789942E-01  5.63891362622080283E-01
  6.04139380377668456E-01  6.44409874056732890E-01  6.84647390553080770E-01
  7.24795282094614302E-01  7.64795801242320716E-01  8.04590175439953814E-01
  8.44118640233339268E-01  8.83320426333756958E-01  9.22133676502273958E-01
  9.60495273729288668E-01  9.98340558076192597E-01  1.03560291242161528E+00
  1.07221346117437610E+00  1.10810104479418303E+00  1.14319224347871318E+00
  1.17741141055759391E+00  1.21068071378250997E+00  1.24292019055215697E+00
  1.27404781150233060E+00  1.30397955899462259E+00  1.33262951826555653E+00
  1.35990998148505371E+00  1.38573157033245464E+00  1.41000337033522749E+00
  1.43263308663977429E+00  1.45352721510750693E+00  1.47259123295700811E+00
  1.48972981200458032E+00  1.50484704829295457E+00  1.51784671985415320E+00
  1.52863256222415123E+00  1.53710857131580547E+00  1.54317933156058329E+00
  1.54675036622421413E+00  1.54772852122871485E+00  1.54602236878048083E+00
  1.54154264593241375E+00  1.53420271863154700E+00  1.52391907414909711E+00
  1.51061184876250199E+00  1.49420537670371667E+00  1.47462877861516306E+00
  1.45181657221782867E+00  1.42570931585098992E+00  1.39625428288014475E+00
  1.36340615691007749E+00  1.32712776423641254E+00  1.28739082058122611E+00
  1.24417670939904279E+00  1.19747727816550986E+00  1.14729565005440759E+00
  1.09364705911448268E+00  1.03655968561182443E+00  9.76075509776702321E-01
  9.12251160275021622E-01  8.45158762276604247E-01  7.74886779925708868E-01
  7.01540835368513527E-01  6.25244514632369852E-01  5.46140133242118964E-01
  4.64389467650927645E-01  3.80174435209329531E-01  2.93697711769871139E-01
  2.05183281998346484E-01  1.14876901459056310E-01  2.30464654103780461E-02
 -7.00177343358999033E-02 -1.64002876209520199E-01 -2.58573617512181386E-01
 -3.53372254178740630E-01 -4.48019059501078842E-01 -5.42112803546576871E-01
 -6.35231483886438797E-01 -7.26933280495140055E-01 -8.16757740583231806E-01
 -9.04227241764170131E-01 -9.88848702648965183E-01 -1.07011561015117751E+00
 -1.14751033661163859E+00 -1.22050677442065258E+00 -1.28857332741897346E+00
 -1.35117619955461321E+00 -1.40778308892171578E+00 -1.45786718557406969E+00
 -1.50091155474760019E+00 -1.53641387816467279E+00 -1.56389149742027045E+00
 -1.58288686667281953E+00 -1.59297322956745502E+00 -1.59376066514382453E+00
 -1.58490234792089413E+00 -1.56610101740122043E+00 -1.53711568027525436E+00
 -1.49776832004907590E+00 -1.44795077099904401E+00 -1.38763145955217237E+00
 -1.31686208012083927E+00 -1.23578406396725371E+00 -1.14463465070915937E+00
 -1.04375262806719760E+00 -9.33583372258380728E-01 -8.14683272652604318E-01
 -6.87723241603679591E-01 -5.53491197658734557E-01 -4.12893415304961764E-01
 -2.66954447706547859E-01 -1.16815596936503632E-01  3.62683575034532732E-02
  1.90934264956494348E-01  3.45717738087180482E-01  4.99062431851475530E-01
  6.49331658263481826E-01  7.94822332627861727E-01  9.33781468628399058E-01
  1.06442515914812286E+00  1.18496004000835065E+00  1.29360737757712907E+00
  1.38862928966208998E+00  1.46835746756284036E+00  1.53122362002433055E+00
  1.57579170840351046E+00  1.60079152787085466E+00  1.60515278750797741E+00
  1.58803987551111292E+00  1.54888565894967067E+00  1.48742451926957542E+00
  1.40372313827069251E+00  1.29820824123189960E+00  1.17169073952375635E+00
  1.02538432373558064E+00  8.60918513395506291E-01  6.80344057999460294E-01
  4.86130241660535145E-01  2.81152847316368970E-01  6.86716179482045747E-02
 -1.47703225995965720E-01 -3.64056454163603327E-01 -5.76225484097774743E-01
 -7.79870478309526161E-01 -9.70556547283455751E-01 -1.14384793358552939E+00
 -1.29541222779672660E+00 -1.42113446685474076E+00 -1.51723760266094376E+00
 -1.58040782748126696E+00 -1.60792149757080627E+00 -1.59776877409074003E+00
 -1.54877223183310675E+00 -1.46069255995603942E+00 -1.33431948409167056E+00
 -1.17154053607975794E+00 -9.75382922619287274E-01 -7.50024485402395857E-01
 -5.00766591716906628E-01 -2.33967616973389442E-01  4.30685400315106298E-02
  3.22249369900253824E-01  5.94897156061048205E-01  8.51996885056612641E-01
  1.08448598761053705E+00  1.28357798856115290E+00  1.44111388221792214E+00
  1.54992806068686129E+00  1.60421520065295953E+00  1.59988472287000527E+00
  1.53487905537768055E+00  1.40944400712132611E+00  1.22632356813902965E+00
  9.90865011225357861E-01  7.11014471806513670E-01  3.97185733264528107E-01
  6.19959380251330350E-02 -2.80142129288881436E-01 -6.13565275911870045E-01
 -9.22034487974119021E-01 -1.18951767598455249E+00 -1.40105402553615077E+00
 -1.54365431850462631E+00 -1.60719847969773233E+00 -1.58526318819347622E+00
 -1.47582722281295253E+00 -1.28178888801453383E+00 -1.01122959847313565E+00
 -6.77382713639243517E-01 -2.98251399404747430E-01  1.04132628876566283E-01
  5.04817578167347958E-01  8.77373320850775906E-01  1.19560956881090230E+00
  1.43547156877463444E+00  1.57700281414298416E+00  1.60621026809982159E+00
  1.51668047339404910E+00  1.31076998730229421E+00  1.00019845927681761E+00
  6.05929634282818652E-01  1.57219481695999114E-01 -3.10172849287829955E-01
 -7.56581382904217170E-01 -1.14169313543635420E+00 -1.42825489563755159E+00
 -1.58590102920750398E+00 -1.59475594641210838E+00 -1.44836116354858602E+00
 -1.15554934566746148E+00 -7.40891781875158473E-01
                              </PP_PSWFC.2>
 <PP_PSWFC.3 type="real" size="   833" l="1" columns="3" label= "0P">
  3.02465395224105548E-07  3.10122342137877163E-07  3.17973125533284044E-07
  3.26022652401538975E-07  3.34275953954781557E-07  3.42738188770766897E-07
  3.51414646017098591E-07  3.60310748757140823E-07  3.69432057339602604E-07
  3.78784272873894314E-07  3.88373240793532894E-07  3.98204954509680983E-07
  4.08285559157221434E-07  4.18621355435665696E-07  4.29218803547244085E-07
  4.40084527234769969E-07  4.51225317921633525E-07  4.62648138956674161E-07
  4.74360129966469952E-07  4.86368611317803768E-07  4.98681088693140923E-07
  5.11305257781852376E-07  5.24249009090305363E-07  5.37520432873601555E-07
  5.51127824192278630E-07  5.65079688096916883E-07  5.79384744944077347E-07
  5.94051935846757854E-07  6.09090428262851503E-07  6.24509621725080505E-07
  6.40319153715954549E-07  6.56528905691496431E-07  6.73149009257407457E-07
  6.90189852501635471E-07  7.07662086487198762E-07  7.25576631909421924E-07
  7.43944685921655892E-07  7.62777729133829749E-07  7.82087532788139466E-07
  8.01886166116404672E-07  8.22186003883677696E-07  8.42999734122786855E-07
  8.64340366064748284E-07  8.86221238269826205E-07  9.08656026964572767E-07
  9.31658754589751453E-07  9.55243798564813040E-07  9.79425900274115141E-07
  1.00422017428069589E-06  1.02964211777329349E-06  1.05570762025243913E-06
  1.08243297346188164E-06  1.10983488157127836E-06  1.13793047161677026E-06
  1.16673730420582561E-06  1.19627338449300801E-06  1.22655717343372153E-06
  1.25760759932271677E-06  1.28944406962474924E-06  1.32208648310476824E-06
  1.35555524226505614E-06  1.38987126609733147E-06  1.42505600315763038E-06
  1.46113144497210753E-06  1.49812013978230756E-06  1.53604520663833554E-06
  1.57493034984875648E-06  1.61479987379635819E-06  1.65567869812894986E-06
  1.69759237333467227E-06  1.74056709671160570E-06  1.78462972874168882E-06
  1.82980780987907799E-06  1.87612957776348517E-06  1.92362398486934069E-06
  1.97232071660166606E-06  2.02225020985005199E-06  2.07344367201230860E-06
  2.12593310049972366E-06  2.17975130273607717E-06  2.23493191666287838E-06
  2.29150943176369974E-06  2.34951921062075458E-06  2.40899751101714618E-06
  2.46998150859863070E-06  2.53250932010900534E-06  2.59662002721372225E-06
  2.66235370092658193E-06  2.72975142665475380E-06  2.79885532987781080E-06
  2.86970860247677017E-06  2.94235552972965951E-06  3.01684151799044897E-06
  3.09321312306864794E-06  3.17151807932732919E-06  3.25180532951768165E-06
  3.33412505536886243E-06  3.41852870895216024E-06  3.50506904483911536E-06
  3.59380015307372514E-06  3.68477749297922509E-06  3.77805792782074130E-06
  3.87369976034533093E-06  3.97176276922169115E-06  4.07230824640232753E-06
  4.17539903543142169E-06  4.28109957072248978E-06  4.38947591783027171E-06
  4.50059581474204068E-06  4.61452871421418605E-06  4.73134582718041402E-06
  4.85112016725882533E-06  4.97392659638560863E-06  5.09984187160385637E-06
  5.22894469303681909E-06  5.36131575307543897E-06  5.49703778681105746E-06
  5.63619562374471754E-06  5.77887624080537762E-06  5.92516881671023712E-06
  6.07516478770099784E-06  6.22895790469108038E-06  6.38664429185935539E-06
  6.54832250672705894E-06  6.71409360175549133E-06  6.88406118750280448E-06
  7.05833149737958431E-06  7.23701345404352417E-06  7.42021873747471984E-06
  7.60806185477419485E-06  7.80066021172907715E-06  7.99813418618940064E-06
  8.20060720330218649E-06  8.40820581264987982E-06  8.62105976734132187E-06
  8.83930210510477684E-06  9.06306923143347036E-06  9.29250100483583201E-06
  9.52774082424353566E-06  9.76893571863196276E-06  1.00162364389092197E-05
  1.02697975521309283E-05  1.05297775380998847E-05  1.07963388884107008E-05
  1.10696482080013301E-05  1.13498763192752600E-05  1.16371983688589559E-05
  1.19317939370616235E-05  1.22338471501052580E-05  1.25435467951956137E-05
  1.28610864385058105E-05  1.31866645461458026E-05  1.35204846081938592E-05
  1.38627552658675933E-05  1.42136904419134873E-05  1.45735094742965443E-05
  1.49424372532738616E-05  1.53207043619376745E-05  1.57085472203149525E-05
  1.61062082331148040E-05  1.65139359412152186E-05  1.69319851769831285E-05
  1.73606172235267170E-05  1.78000999779774068E-05  1.82507081189044453E-05
  1.87127232779674862E-05  1.91864342159119165E-05  1.96721370030199084E-05
  2.01701352041276839E-05  2.06807400683249906E-05  2.12042707234567195E-05
  2.17410543755450694E-05  2.22914265132608197E-05  2.28557311175673466E-05
  2.34343208766716177E-05  2.40275574064142609E-05  2.46358114762371381E-05
  2.52594632408697493E-05  2.58989024778784171E-05  2.65545288312274831E-05
  2.72267520610036215E-05  2.79159922994601127E-05  2.86226803135400077E-05
  2.93472577740431781E-05  3.00901775316041719E-05  3.08519038996540662E-05
  3.16329129445425258E-05  3.24336927830006367E-05  3.32547438871324793E-05
  3.40965793971215081E-05  3.49597254418530006E-05  3.58447214676456467E-05
  3.67521205753040237E-05  3.76824898656981657E-05  3.86364107940863769E-05
  3.96144795334058399E-05  4.06173073467513013E-05  4.16455209692814663E-05
  4.26997629997866691E-05  4.37806923021622434E-05  4.48889844170426071E-05
  4.60253319838461962E-05  4.71904451734995453E-05  4.83850521321102725E-05
  4.96098994358618685E-05  5.08657525574181715E-05  5.21533963441275146E-05
  5.34736355083227454E-05  5.48272951300248995E-05  5.62152211723649037E-05
  5.76382810100426951E-05  5.90973639711521136E-05  6.05933818927150566E-05
  6.21272696902659791E-05  6.36999859418423570E-05  6.53125134867483614E-05
  6.69658600394626408E-05  6.86610588190736203E-05  7.03991691946331588E-05
  7.21812773468333849E-05  7.40084969464189384E-05  7.58819698497544622E-05
  7.78028668119832732E-05  7.97723882182210331E-05  8.17917648332411773E-05
  8.38622585701179039E-05  8.59851632783041370E-05  8.81618055516382508E-05
  9.03935455567815403E-05  9.26817778826028842E-05  9.50279324110394881E-05
  9.74334752099742632E-05  9.98999094486886259E-05  1.02428776336458284E-04
  1.05021656084878641E-04  1.07680168894517769E-04  1.10405975966508969E-04
  1.13200780539716642E-04  1.16066328954117536E-04  1.19004411741059854E-04
  1.22016864741079909E-04  1.25105570249969426E-04  1.28272458193808518E-04
  1.31519507333693826E-04  1.34848746500911291E-04  1.38262255863320709E-04
  1.41762168223741905E-04  1.45350670351145533E-04  1.49030004345479869E-04
  1.52802469036980132E-04  1.56670421420827491E-04  1.60636278128054250E-04
  1.64702516933602934E-04  1.68871678302480308E-04  1.73146366974964548E-04
  1.77529253591848503E-04  1.82023076360731664E-04  1.86630642764389532E-04
  1.91354831312285988E-04  1.96198593336312070E-04  2.01164954831863899E-04
  2.06257018345406249E-04  2.11477964909686231E-04  2.16831056027801334E-04
  2.22319635707349619E-04  2.27947132545921089E-04  2.33717061869226090E-04
  2.39633027923180072E-04  2.45698726121306506E-04  2.51917945348846724E-04
  2.58294570325002669E-04  2.64832584024776675E-04  2.71536070161901635E-04
  2.78409215734403293E-04  2.85456313634363718E-04  2.92681765323499817E-04
  3.00090083576213477E-04  3.07685895291801828E-04  3.15473944377570698E-04
  3.23459094704628262E-04  3.31646333138179913E-04  3.40040772644201823E-04
  3.48647655474400178E-04  3.57472356431427188E-04  3.66520386216362935E-04
  3.75797394860523815E-04  3.85309175243718320E-04  3.95061666701104850E-04
  4.05060958720882360E-04  4.15313294735083940E-04  4.25825076005800079E-04
  4.36602865609231068E-04  4.47653392520003539E-04  4.58983555798270465E-04
  4.70600428882157599E-04  4.82511263988192392E-04  4.94723496622418942E-04
  5.07244750204956436E-04  5.20082840810839300E-04  5.33245782030042077E-04
  5.46741789949656905E-04  5.60579288261285678E-04  5.74766913496747205E-04
  5.89313520395319556E-04  6.04228187405793848E-04  6.19520222326681077E-04
  6.35199168088032345E-04  6.51274808678375754E-04  6.67757175220399114E-04
  6.84656552199055753E-04  7.01983483845904739E-04  7.19748780683568336E-04
  7.37963526234261470E-04  7.56639083896476494E-04  7.75787103993997988E-04
  7.95419531001487689E-04  8.15548610951071559E-04  8.36186899024385800E-04
  8.57347267334665746E-04  8.79042912903582174E-04  9.01287365837622097E-04
  9.24094497708947602E-04  9.47478530145843428E-04  9.71454043637866825E-04
  9.96035986561000578E-04  1.02123968442821502E-03  1.04708084937097236E-03
  1.07357558985746778E-03  1.10074042065334268E-03  1.12859227303082959E-03
  1.15714850523239952E-03  1.18642691319514534E-03  1.21644574154246526E-03
  1.24722369484942235E-03  1.27877994918851063E-03  1.31113416396259615E-03
  1.34430649403218514E-03  1.37831760214428625E-03  1.41318867166999166E-03
  1.44894141965836516E-03  1.48559811021422975E-03  1.52318156820812093E-03
  1.56171519332613698E-03  1.60122297446790287E-03  1.64172950450101104E-03
  1.68325999538098976E-03  1.72584029364537773E-03  1.76949689629079675E-03
  1.81425696704210870E-03  1.86014835302371557E-03  1.90719960184236137E-03
  1.95543997909107493E-03  2.00489948628420830E-03  2.05560887923469287E-03
  2.10759968688364928E-03  2.16090423059278397E-03  2.21555564391055131E-03
  2.27158789282445525E-03  2.32903579651010887E-03  2.38793504858855667E-03
  2.44832223890412929E-03  2.51023487583624562E-03  2.57371140915635919E-03
  2.63879125344256265E-03  2.70551481206632609E-03  2.77392350176464434E-03
  2.84405977781001813E-03  2.91596715979224042E-03  2.98969025802847026E-03
  3.06527480061425609E-03  3.14276766112947309E-03  3.22221688701623040E-03
  3.30367172864469124E-03  3.38718266908009111E-03  3.47280145456744117E-03
  3.56058112575369928E-03  3.65057604966085572E-03  3.74284195242591353E-03
  3.83743595282906710E-03  3.93441659662664787E-03  4.03384389170364545E-03
  4.13577934406692774E-03  4.24028599470063685E-03  4.34742845729735143E-03
  4.45727295688529666E-03  4.56988736937764383E-03  4.68534126205766115E-03
  4.80370593501870495E-03  4.92505446358817382E-03  5.04946174175152206E-03
  5.17700452659335380E-03  5.30776148378659957E-03  5.44181323414979178E-03
  5.57924240128713448E-03  5.72013366034335429E-03  5.86457378789816911E-03
  6.01265171301272171E-03  6.16445856946029255E-03  6.32008774917147600E-03
  6.47963495690360991E-03  6.64319826616705748E-03  6.81087817644393610E-03
  6.98277767170615328E-03  7.15900228026615255E-03  7.33966013600081003E-03
  7.52486204095230427E-03  7.71472152934066843E-03  7.90935493303280938E-03
  8.10888144846818627E-03  8.31342320507820649E-03  8.52310533524778917E-03
  8.73805604581445738E-03  8.95840669114645986E-03  9.18429184785026290E-03
  9.41584939109718286E-03  9.65322057261748176E-03  9.89655010041167772E-03
  1.01459862201623494E-02  1.04016807984053990E-02  1.06637894075051441E-02
  1.09324714124106222E-02  1.12078900592668326E-02  1.14902125659128405E-02
  1.17796102142412699E-02  1.20762584445108859E-02  1.23803369516229996E-02
  1.26920297833392343E-02  1.30115254405516762E-02  1.33390169795843967E-02
  1.36747021165185469E-02  1.40187833336653991E-02  1.43714679881267442E-02
  1.47329684224669372E-02  1.51035020776159653E-02  1.54832916079052831E-02
  1.58725649983109188E-02  1.62715556839880364E-02  1.66805026719771474E-02
  1.70996506652175660E-02  1.75292501888819723E-02  1.79695577189210864E-02
  1.84208358130104055E-02  1.88833532438107930E-02  1.93573851344887131E-02
  1.98432130967064434E-02  2.03411253708841548E-02  2.08514169687944208E-02
  2.13743898186331514E-02  2.19103529123069914E-02  2.24596224551378253E-02
  2.30225220179694871E-02  2.35993826914457257E-02  2.41905432427693863E-02
  2.47963502747047711E-02  2.54171583867486284E-02  2.60533303387593881E-02
  2.67052372166179698E-02  2.73732586001040855E-02  2.80577827330534615E-02
  2.87592066953492424E-02  2.94779365771638789E-02  3.02143876551409299E-02
  3.09689845702906842E-02  3.17421615080415789E-02  3.25343623797825707E-02
  3.33460410061054285E-02  3.41776613018364914E-02  3.50296974621472981E-02
  3.59026341503355523E-02  3.67969666867509621E-02  3.77132012385429025E-02
  3.86518550108098241E-02  3.96134564381037044E-02  4.05985453766717214E-02
  4.16076732973724162E-02  4.26414034782781823E-02  4.37003111978470984E-02
  4.47849839276286063E-02  4.58960215242983013E-02  4.70340364215922763E-02
  4.81996538205598582E-02  4.93935118789683159E-02  5.06162618992222341E-02
  5.18685685137279806E-02  5.31511098688813299E-02  5.44645778057316204E-02
  5.58096780377207100E-02  5.71871303255338942E-02  5.85976686470447150E-02
  6.00420413638913589E-02  6.15210113827431779E-02  6.30353563108194820E-02
  6.45858686065482329E-02  6.61733557224253727E-02  6.77986402416589362E-02
  6.94625600070111898E-02  7.11659682402499549E-02  7.29097336539957230E-02
  7.46947405522196267E-02  7.65218889206960573E-02  7.83920945064532498E-02
  8.03062888832839078E-02  8.22654195059204785E-02  8.42704497485171206E-02
  8.63223589281318371E-02  8.84221423130923251E-02  9.05708111118413151E-02
  9.27693924455362251E-02  9.50189292996428403E-02  9.73204804543106733E-02
  9.96751203944004904E-02  1.02083939193217621E-01  1.04548042373762515E-01
  1.07068550742485599E-01  1.09646600194216709E-01  1.12283341490212116E-01
  1.14979940001773612E-01  1.17737575423705193E-01  1.20557441452408751E-01
  1.23440745426067658E-01  1.26388707929948524E-01  1.29402562357658707E-01
  1.32483554433045353E-01  1.35632941687343384E-01  1.38851992887816578E-01
  1.42141987421957744E-01  1.45504214626499012E-01  1.48939973066368109E-01
  1.52450569757918958E-01  1.56037319331645857E-01  1.59701543139347701E-01
  1.63444568293532710E-01  1.67267726644728554E-01  1.71172353690604268E-01
  1.75159787411454215E-01  1.79231367037630485E-01  1.83388431735594520E-01
  1.87632319218832666E-01  1.91964364277002780E-01  1.96385897217795785E-01
  2.00898242227264129E-01  2.05502715634847760E-01  2.10200624089850602E-01
  2.14993262642213329E-01  2.19881912722835027E-01  2.24867840028649763E-01
  2.29952292299505923E-01  2.35136496993670951E-01  2.40421658854737319E-01
  2.45808957366871861E-01  2.51299544102158490E-01  2.56894539949929834E-01
  2.62595032233873926E-01  2.68402071710923062E-01  2.74316669451284245E-01
  2.80339793600924814E-01  2.86472366022268166E-01  2.92715258815623991E-01
  2.99069290719431502E-01  3.05535223390950073E-01  3.12113757565735173E-01
  3.18805529101416574E-01  3.25611104901279591E-01  3.32530978725038340E-01
  3.39565566888580916E-01  3.46715203848945441E-01  3.53980137693965358E-01
  3.61360525519626441E-01  3.68856428720256535E-01  3.76467808187800568E-01
  3.84194519418339209E-01  3.92036307561983266E-01  3.99992802380256751E-01
  4.08063513165604963E-01  4.16247823602741374E-01  4.24544986581275652E-01
  4.32954119010595884E-01  4.41474196576931543E-01  4.50104048540338364E-01
  4.58842352517210839E-01  4.67687629286181905E-01  4.76638237672044496E-01
  4.85692369423350478E-01  4.94848044235845774E-01  5.04103104809490721E-01
  5.13455212031246111E-01  5.22901840316102207E-01  5.32440273008042864E-01
  5.42067598049166932E-01  5.51780703720601839E-01  5.61576274633590389E-01
  5.71450787936728322E-01  5.81400509653184017E-01  5.91421491392708054E-01
  6.01509567138702517E-01  6.11660350402325359E-01  6.21869231582143245E-01
  6.32131375499303871E-01  6.42441719335337780E-01  6.52794970574154143E-01
  6.63185605354973617E-01  6.73607866883985773E-01  6.84055763984250609E-01
  6.94523069899203205E-01  7.05003320896075758E-01  7.15489815141076346E-01
  7.25975611266455489E-01  7.36453526856581275E-01  7.46916136743417947E-01
  7.57355770683133311E-01  7.67764510841607017E-01  7.78134188310862340E-01
  7.88456379017719255E-01  7.98722398615215656E-01  8.08923296054270158E-01
  8.19049846077813171E-01  8.29092539805609263E-01  8.39041573817765340E-01
  8.48886837097738045E-01  8.58617895748785331E-01  8.68223975483547017E-01
  8.77693941290020319E-01  8.87016274642426050E-01  8.96179047744578350E-01
  9.05169895039439565E-01  9.13975982029516576E-01  9.22583971492216270E-01
  9.30979987654033447E-01  9.39149578716154010E-01  9.47077678679192458E-01
  9.54748569556651105E-01  9.62145845551214296E-01  9.69252381174088962E-01
  9.76050305979891508E-01  9.82520989179391790E-01  9.88645038358357153E-01
  9.94402317454998630E-01  9.99771990638225305E-01  1.00473259661513858E+00
  1.00926211103521424E+00  1.01333796221260575E+00  1.01693704198561052E+00
  1.02003571915660385E+00  1.02260985501086776E+00  1.02463482230780811E+00
  1.02608552646106310E+00  1.02693643041483096E+00  1.02716158270280289E+00
  1.02673464875359621E+00  1.02562894672741733E+00  1.02381748635209568E+00
  1.02127301296728956E+00  1.01796805540044666E+00  1.01387497864744969E+00
  1.00896604205995177E+00  1.00321346166560410E+00  9.96589479282169344E-01
  9.89066436128737680E-01  9.80616853118421061E-01  9.71213517402797044E-01
  9.60829574531277930E-01  9.49438628790986838E-01  9.37014848756016483E-01
  9.23533081461635152E-01  9.08968973195248497E-01  8.93299097635887773E-01
  8.76501092951222471E-01  8.58553804893677275E-01  8.39437440025618931E-01
  8.19133725418407566E-01  7.97626077317967974E-01  7.74899778508499448E-01
  7.50942162353175346E-01  7.25742807326588357E-01  6.99293737219532252E-01
  6.71589631064030468E-01  6.42628040056293925E-01  6.12409611184075886E-01
  5.80938319687693272E-01  5.48221705485506972E-01  5.14271118023991836E-01
  4.79101964623873111E-01  4.42733963840023947E-01  4.05191403151204388E-01
  3.66503397311559231E-01  3.26704150377235658E-01  2.85833215525463202E-01
  2.43935754804566890E-01  2.01062795318211002E-01  1.57271479770279388E-01
  1.12625311226341257E-01  6.71943871167649115E-02  2.10556226826417725E-02
 -2.57070406587441257E-02 -7.30024439793827140E-02 -1.20732039999227422E-01
 -1.68789745680414160E-01 -2.17061822806743354E-01 -2.65426788766628119E-01
 -3.13755363185527214E-01 -3.61910454250937708E-01 -4.09747187250625811E-01
 -4.57112985244872094E-01 -5.03847698705890412E-01 -5.49783798406300428E-01
 -5.94746629443931640E-01 -6.38554734103250143E-01 -6.81020254285265136E-01
 -7.21949405570648461E-01 -7.61143048010905821E-01 -7.98397338120630962E-01
 -8.33504483390896111E-01 -8.66253599751671044E-01 -8.96431666241469083E-01
 -9.23824607291229394E-01 -9.48218470090745336E-01 -9.69400738052483057E-01
 -9.87161755503930816E-01 -1.00129627277904532E+00 -1.01160513042464850E+00
 -1.01789703994334091E+00 -1.01999051619218783E+00 -1.01771590079869489E+00
 -1.01091751202262015E+00 -9.99455903474037566E-01 -9.83210196242554457E-01
 -9.62080531492105706E-01 -9.35990551204480159E-01 -9.04889965928239670E-01
 -8.68757136903062221E-01 -8.27601662126627668E-01 -7.81466970998051291E-01
 -7.30432828218439578E-01 -6.74617800631791442E-01 -6.14181566293982018E-01
 -5.49327079723557987E-01 -4.80302533096672590E-01 -4.07403036689058362E-01
 -3.30972024690327438E-01 -2.51402259068832012E-01 -1.69136435823134618E-01
 -8.46672920138483304E-02  1.46283563321451988E-03  8.86630592302175696E-02
  1.76295671038429802E-01  2.63678615260253879E-01  3.50088756412260838E-01
  4.34766008583809649E-01  5.16918385150957893E-01  5.95727970930147510E-01
  6.70357940202478741E-01  7.39960517534280493E-01  8.03686025359845457E-01
  8.60692916556680232E-01  9.10158773157508372E-01  9.51292337506038255E-01
  9.83346269023272157E-01  1.00563083859660929E+00  1.01752812238313739E+00
  1.01850674560564181E+00  1.00813694718315139E+00  9.86105553015234171E-01
  9.52230963857272128E-01  9.06477373863928793E-01  8.48968338209982187E-01
  7.79999009734696713E-01  7.00046708275169904E-01  6.09779578272095057E-01
  5.10062499066737174E-01  4.01960249686210525E-01  2.86737045609307906E-01
  1.65852259181399508E-01  4.09517999369966648E-02 -8.61452915345605197E-02
 -2.13465270756621528E-01 -3.38903473660212562E-01 -4.60253617919917757E-01
 -5.75242643375555196E-01 -6.81570945011685914E-01 -7.76957988355140960E-01
 -8.59192337960100416E-01 -9.26186196259109806E-01 -9.76032772033479046E-01
 -1.00706595522400977E+00 -1.01792085181261482E+00 -1.00759301822746195E+00
 -9.75495783166717922E-01 -9.21512023092618815E-01 -8.46039761596606765E-01
 -7.50028164469096148E-01 -6.35001838380158112E-01 -5.03071585046243386E-01
 -3.56928138824902486E-01 -1.99818235285688262E-01 -3.55000191453527306E-02
  1.31822697133262168E-01  2.97588373804223039E-01  4.56987665802844945E-01
  6.05094737044660103E-01  7.37017336700583670E-01  8.48063624063804311E-01
  9.33920691495370492E-01  9.90839505423727673E-01  1.01582092056323603E+00
  1.00679243712826461E+00  9.62770883197657912E-01  8.83997914541240326E-01
  7.72041627916395856E-01  6.29853821529154034E-01  4.61772841762149944E-01
  2.73467131473223990E-01  7.18101163206636972E-02 -1.35313953864877545E-01
 -3.39275363127834184E-01 -5.31030953790261773E-01 -7.01515935041840066E-01
 -8.42081114007680154E-01 -9.44961644065415718E-01 -1.00375116597827563E+00
 -1.01385905723076153E+00 -9.72920404907901659E-01 -8.81124886992408429E-01
 -7.41439915573772867E-01 -5.59689458653632399E-01 -3.44472618375120554E-01
 -1.06897270596770025E-01  1.39876560253574450E-01  3.81280164910626773E-01
  6.02148871494986415E-01  7.87671533815504366E-01  9.24424093724272811E-01
  1.00142648565759118E+00  1.01114451040496411E+00
                              </PP_PSWFC.3>
                             </PP_FULL_WFC> 
 <PP_RHOATOM type="real" size="   833" columns="3">
  2.12363013249572341E-06  2.17739006313219067E-06  2.23251093175817047E-06
  2.28902719062479668E-06  2.34697416414288177E-06  2.40638807096224137E-06
  2.46730604660850655E-06  2.52976616669426017E-06  2.59380747071740074E-06
  2.65946998646113562E-06  2.72679475501327260E-06  2.79582385641718629E-06
  2.86660043597316144E-06  2.93916873120560404E-06  3.01357409951175571E-06
  3.08986304651221802E-06  3.16808325511710456E-06  3.24828361532966676E-06
  3.33051425480351320E-06  3.41482657017325078E-06  3.50127325917934475E-06
  3.58990835360430533E-06  3.68078725304507084E-06  3.77396675953770711E-06
  3.86950511306112040E-06  3.96746202793735474E-06  4.06789873015503995E-06
  4.17087799563653686E-06  4.27646418947435206E-06  4.38472330616078228E-06
  4.49572301083550423E-06  4.60953268157812449E-06  4.72622345277031009E-06
  4.84586825955677488E-06  4.96854188343056331E-06  5.09432099897344903E-06
  5.22328422177849090E-06  5.35551215758659548E-06  5.49108745266634096E-06
  5.63009484546934639E-06  5.77262121959352573E-06  5.91875565808618292E-06
  6.06858949912336096E-06  6.22221639309633642E-06  6.37973236114616830E-06
  6.54123585517665834E-06  6.70682781938976741E-06  6.87661175337610053E-06
  7.05069377680400492E-06  7.22918269574612652E-06  7.41219007068350956E-06
  7.59983028623378662E-06  7.79222062264144044E-06  7.98948132908018760E-06
  8.19173569881007136E-06  8.39911014623597738E-06  8.61173428591929060E-06
  8.82974101358706408E-06  9.05326658919315234E-06  9.28245072208262238E-06
  9.51743665830972387E-06  9.75837127016848057E-06  1.00054051479890424E-05
  1.02586926942562661E-05  1.05183922201129333E-05  1.07846660443049297E-05
  1.10576805946299915E-05  1.13376065119561673E-05  1.16246187568729440E-05
  1.19188967190410167E-05  1.22206243293109111E-05  1.25299901746802585E-05
  1.28471876161600168E-05  1.31724149096240143E-05  1.35058753297189814E-05
  1.38477772969102813E-05  1.41983345077432875E-05  1.45577660684021441E-05
  1.49262966316500553E-05  1.53041565372355405E-05  1.56915819558522953E-05
  1.60888150367431799E-05  1.64961040590411513E-05  1.69137035869406509E-05
  1.73418746287968359E-05  1.77808848002515453E-05  1.82310084914888185E-05
  1.86925270387242473E-05  1.91657289000349142E-05  1.96509098356400558E-05
  2.01483730927447760E-05  2.06584295950626967E-05  2.11813981371358248E-05
  2.17176055835732057E-05  2.22673870733326845E-05  2.28310862291730215E-05
  2.34090553724080636E-05  2.40016557430964425E-05  2.46092577258045931E-05
  2.52322410810844863E-05  2.58709951828098523E-05  2.65259192615202755E-05
  2.71974226539242533E-05  2.78859250587175252E-05  2.85918567988767011E-05
  2.93156590905911722E-05  3.00577843190024555E-05  3.08186963209224600E-05
  3.15988706747075276E-05  3.23987949974695113E-05  3.32189692498088712E-05
  3.40599060482612391E-05  3.49221309856516146E-05  3.58061829595568835E-05
  3.67126145090818003E-05  3.76419921601582445E-05  3.85948967795842434E-05
  3.95719239380234517E-05  4.05736842821917542E-05  4.16008039164638362E-05
  4.26539247941373870E-05  4.37337051186002367E-05  4.48408197546501381E-05
  4.59759606502246985E-05  4.71398372688046320E-05  4.83331770327597281E-05
  4.95567257779158188E-05  5.08112482196252724E-05  5.20975284306329637E-05
  5.34163703310360039E-05  5.47685981906421363E-05  5.61550571440424008E-05
  5.75766137187179276E-05  5.90341563765116315E-05  6.05285960688018885E-05
  6.20608668057270614E-05  6.36319262398132970E-05  6.52427562643728313E-05
  6.68943636270441793E-05  6.85877805588573896E-05  7.03240654192189104E-05
  7.21043033572176006E-05  7.39296069896653072E-05  7.58011170962936953E-05
  7.77200033325405639E-05  7.96874649603759172E-05  8.17047315976191852E-05
  8.37730639862163624E-05  8.58937547799532860E-05  8.80681293521047359E-05
  9.02975466235197294E-05  9.25833999116532763E-05  9.49271178010806655E-05
  9.73301650360436062E-05  9.97940434355730369E-05  1.02320292831760965E-04
  1.04910492031779249E-04  1.07566259804235396E-04  1.10289255890472291E-04
  1.13081182041466642E-04  1.15943783080955384E-04  1.18878847995444544E-04
  1.21888211051814177E-04  1.24973752943179604E-04  1.28137401963738834E-04
  1.31381135213357378E-04  1.34706979832594978E-04  1.38117014268999332E-04
  1.41613369575417810E-04  1.45198230741142286E-04  1.48873838056748343E-04
  1.52642488513417740E-04  1.56506537237696084E-04  1.60468398962498870E-04
  1.64530549535352633E-04  1.68695527464760600E-04  1.72965935505684930E-04
  1.77344442285125802E-04  1.81833783968802181E-04  1.86436765969992839E-04
  1.91156264701574296E-04  1.95995229372378129E-04  2.00956683828956072E-04
  2.06043728443929165E-04  2.11259542052072815E-04  2.16607383935356768E-04
  2.22090595858181409E-04  2.27712604154045156E-04  2.33476921865009580E-04
  2.39387150935190321E-04  2.45446984459771591E-04  2.51660208990800536E-04
  2.58030706901323957E-04  2.64562458809259010E-04  2.71259546062513335E-04
  2.78126153286971129E-04  2.85166570998801681E-04  2.92385198282855291E-04
  2.99786545538721150E-04  3.07375237296153136E-04  3.15156015101706048E-04
  3.23133740478249597E-04  3.31313397959281106E-04  3.39700098199938974E-04
  3.48299081166558765E-04  3.57115719406838001E-04  3.66155521402633912E-04
  3.75424135007414173E-04  3.84927350970547841E-04  3.94671106550649518E-04
  4.04661489220148503E-04  4.14904740463401596E-04  4.25407259670777219E-04
  4.36175608131048195E-04  4.47216513124568072E-04  4.58536872119826282E-04
  4.70143757075963567E-04  4.82044418853891398E-04  4.94246291738745626E-04
  5.06756998076523797E-04  5.19584353027762857E-04  5.32736369441166586E-04
  5.46221262850222003E-04  5.60047456595909234E-04  5.74223587078689164E-04
  5.88758509142987092E-04  6.03661301597505453E-04  6.18941272874789193E-04
  6.34607966833556931E-04  6.50671168707384019E-04  6.67140911203395492E-04
  6.84027480754737698E-04  7.01341423930704308E-04  7.19093554008461578E-04
  7.37294957710458564E-04  7.55957002111657121E-04  7.75091341720829906E-04
  7.94709925740327274E-04  8.14825005508760690E-04  8.35449142131201384E-04
  8.56595214301598094E-04  8.78276426322226536E-04  9.00506316325117712E-04
  9.23298764700504655E-04  9.46668002737495462E-04  9.70628621482255921E-04
  9.95195580819188685E-04  1.02038421878063992E-03  1.04621026109089034E-03
  1.07268983095027467E-03  1.09983945906541591E-03  1.12767609393176382E-03
  1.15621711237470066E-03  1.18548033035569618E-03  1.21548401405012453E-03
  1.24624689120351128E-03  1.27778816277318010E-03  1.31012751486238375E-03
  1.34328513095424490E-03  1.37728170445296184E-03  1.41213845153991533E-03
  1.44787712435256078E-03  1.48452002449408517E-03  1.52209001688210707E-03
  1.56061054394481999E-03  1.60010564017321012E-03  1.64059994703823122E-03
  1.68211872828194389E-03  1.72468788559195277E-03  1.76833397466861402E-03
  1.81308422169475865E-03  1.85896654021792322E-03  1.90600954845526771E-03
  1.95424258703167557E-03  2.00369573716174332E-03  2.05439983928659958E-03
  2.10638651217686127E-03  2.15968817251314211E-03  2.21433805495597829E-03
  2.27037023271720604E-03  2.32781963864512123E-03  2.38672208683612117E-03
  2.44711429478573989E-03  2.50903390609235472E-03  2.57251951372715988E-03
  2.63761068388425465E-03  2.70434798042516571E-03  2.77277298993224529E-03
  2.84292834738597523E-03  2.91485776248137261E-03  2.98860604659911214E-03
  3.06421914044741625E-03  3.14174414239098846E-03  3.22122933748380342E-03
  3.30272422722283901E-03  3.38627956004031259E-03  3.47194736255244116E-03
  3.55978097158293760E-03  3.64983506698012645E-03  3.74216570524687174E-03
  3.83683035400292360E-03  3.93388792729989709E-03  4.03339882180923232E-03
  4.13542495390444454E-03  4.24002979765913945E-03  4.34727842378265956E-03
  4.45723753951594338E-03  4.56997552951053567E-03  4.68556249771436093E-03
  4.80407031028800505E-03  4.92557263957657011E-03  5.05014500916218904E-03
  5.17786484002251760E-03  5.30881149782165204E-03  5.44306634136030188E-03
  5.58071277221214475E-03  5.72183628557521810E-03  5.86652452236683872E-03
  6.01486732259078581E-03  6.16695678000677826E-03  6.32288729813253701E-03
  6.48275564760925939E-03  6.64666102496398997E-03  6.81470511279986309E-03
  6.98699214144752299E-03  7.16362895211134637E-03  7.34472506154434154E-03
  7.53039272828949762E-03  7.72074702052171977E-03  7.91590588552678470E-03
  8.11599022085445106E-03  8.32112394718325342E-03  8.53143408293969251E-03
  8.74705082070798869E-03  8.96810760547112409E-03  9.19474121472287076E-03
  9.42709184049531079E-03  9.66530317334648136E-03  9.90952248834715659E-03
  1.01599007331118017E-02  1.04165926179173932E-02  1.06797567079637973E-02
  1.09495555178155124E-02  1.12261556080721012E-02  1.15097276843134193E-02
  1.18004466983784844E-02  1.20984919520222937E-02  1.24040472029982671E-02
  1.27173007736151155E-02  1.30384456618333287E-02  1.33676796549481343E-02
  1.37052054459077376E-02  1.40512307523183999E-02  1.44059684382093160E-02
  1.47696366386038235E-02  1.51424588869469787E-02  1.55246642454455325E-02
  1.59164874384027238E-02  1.63181689885874628E-02  1.67299553566916739E-02
  1.71520990839419199E-02  1.75848589379499001E-02  1.80285000618341865E-02
  1.84832941266694049E-02  1.89495194873539850E-02  1.94274613419582985E-02
  1.99174118945895685E-02  2.04196705218380702E-02  2.09345439429177022E-02
  2.14623463935238075E-02  2.20033998034558816E-02  2.25580339781103340E-02
  2.31265867839183584E-02  2.37094043377421952E-02  2.43068412003024613E-02
  2.49192605737739784E-02  2.55470345035445703E-02  2.61905440841782057E-02
  2.68501796697301967E-02  2.75263410884522934E-02  2.82194378618818194E-02
  2.89298894284346388E-02  2.96581253716196765E-02  3.04045856528195220E-02
  3.11697208487121645E-02  3.19539923935243039E-02  3.27578728260359692E-02
  3.35818460413580197E-02  3.44264075477104040E-02  3.52920647281406499E-02
  3.61793371071356881E-02  3.70887566223615794E-02  3.80208679015252918E-02
  3.89762285442308079E-02  3.99554094090515260E-02  4.09589949058843522E-02
  4.19875832933714818E-02  4.30417869815882537E-02  4.41222328401364786E-02
  4.52295625113414215E-02  4.63644327287207059E-02  4.75275156409373303E-02
  4.87194991408392564E-02  4.99410871997286593E-02  5.11930002071351448E-02
  5.24759753155907421E-02  5.37907667905354811E-02  5.51381463656746978E-02
  5.65189036031675390E-02  5.79338462587793007E-02  5.93838006523473572E-02
  6.08696120427970888E-02  6.23921450078813028E-02  6.39522838289845602E-02
  6.55509328800630148E-02  6.71890170209861887E-02  6.88674819955523571E-02
  7.05872948330679151E-02  7.23494442539192734E-02  7.41549410792402691E-02
  7.60048186433957967E-02  7.79001332099489990E-02  7.98419643909035331E-02
  8.18314155678272204E-02  8.38696143158272206E-02  8.59577128296725584E-02
  8.80968883506799139E-02  9.02883435956462199E-02  9.25333071864253426E-02
  9.48330340789973469E-02  9.71888059935061971E-02  9.96019318430055728E-02
  1.02073748160341232E-01  1.04605619524458709E-01  1.07198938983069689E-01
  1.09855128472028649E-01  1.12575639231924374E-01  1.15361952218337505E-01
  1.18215578507236421E-01  1.21138059694545483E-01  1.24130968286457602E-01
  1.27195908082968379E-01  1.30334514551591674E-01  1.33548455188882614E-01
  1.36839429872485957E-01  1.40209171198479754E-01  1.43659444803794056E-01
  1.47192049675012510E-01  1.50808818437114772E-01  1.54511617624512931E-01
  1.58302347932552184E-01  1.62182944443569593E-01  1.66155376831789880E-01
  1.70221649540952563E-01  1.74383801931676852E-01  1.78643908402290691E-01
  1.83004078473498422E-01  1.87466456838615930E-01  1.92033223378787754E-01
  1.96706593133262775E-01  2.01488816230531970E-01  2.06382177772822528E-01
  2.11388997668083389E-01  2.16511630415483297E-01  2.21752464830637153E-01
  2.27113923712404076E-01  2.32598463450818776E-01  2.38208573561756232E-01
  2.43946776156666156E-01  2.49815625336174130E-01  2.55817706500058972E-01
  2.61955635581393342E-01  2.68232058184984967E-01  2.74649648634574528E-01
  2.81211108925480957E-01  2.87919167564301193E-01  2.94776578308037829E-01
  3.01786118783503310E-01  3.08950588981739438E-01  3.16272809634246366E-01
  3.23755620443834047E-01  3.31401878181127152E-01  3.39214454634408913E-01
  3.47196234394475722E-01  3.55350112490100567E-01  3.63678991842641908E-01
  3.72185780543865197E-01  3.80873388955033865E-01  3.89744726596299385E-01
  3.98802698846193571E-01  4.08050203421644220E-01  4.17490126630952696E-01
  4.27125339409368476E-01  4.36958693096234363E-01  4.46993014972832170E-01
  4.57231103538073780E-01  4.67675723500939833E-01  4.78329600509541986E-01
  4.89195415569877223E-01  5.00275799168683588E-01  5.11573325086972619E-01
  5.23090503870801249E-01  5.34829775985988021E-01  5.46793504609059289E-01
  5.58983968061562031E-01  5.71403351884255617E-01  5.84053740509383190E-01
  5.96937108560147922E-01  6.10055311734061689E-01  6.23410077269759610E-01
  6.37002994002072720E-01  6.50835501961608998E-01  6.64908881546100394E-01
  6.79224242228860020E-01  6.93782510799340502E-01  7.08584419144769662E-01
  7.23630491536523590E-01  7.38921031442334120E-01  7.54456107842126578E-01
  7.70235541044362204E-01  7.86258888009222168E-01  8.02525427163017113E-01
  8.19034142713769842E-01  8.35783708462367936E-01  8.52772471118189213E-01
  8.69998433112932346E-01  8.87459234936574193E-01  9.05152136987156575E-01
  9.23074000951461748E-01  9.41221270751179340E-01  9.59589953021834918E-01
  9.78175597214655412E-01  9.96973275282937887E-01  1.01597756100340630E+00
  1.03518250900890485E+00  1.05458163345496714E+00  1.07416788651413930E+00
  1.09393363660871223E+00  1.11387064648563072E+00  1.13397005126717354E+00
  1.15422233633265758E+00  1.17461731538005809E+00  1.19514410849134700E+00
  1.21579112039468007E+00  1.23654601912264184E+00  1.25739571483031165E+00
  1.27832633934351025E+00  1.29932322611570328E+00  1.32037089093783733E+00
  1.34145301365564573E+00  1.36255242054754189E+00  1.38365106823398043E+00
  1.40473002856264317E+00  1.42576947506422202E+00  1.44674867124108597E+00
  1.46764596023104010E+00  1.48843875709805240E+00  1.50910354283709514E+00
  1.52961586108576264E+00  1.54995031770291924E+00  1.57008058268662221E+00
  1.58997939612128691E+00  1.60961857673275155E+00  1.62896903463942544E+00
  1.64800078815833317E+00  1.66668298418114169E+00  1.68498392423767651E+00
  1.70287109416417293E+00  1.72031119978863822E+00  1.73727020788318542E+00
  1.75371339215842648E+00  1.76960538670074952E+00  1.78491024401322429E+00
  1.79959150109655663E+00  1.81361225180768759E+00  1.82693522586947887E+00
  1.83952287686018745E+00  1.85133747564583451E+00  1.86234121377179318E+00
  1.87249631361148761E+00  1.88176514666790529E+00  1.89011036168122093E+00
  1.89749501860146519E+00  1.90388273380219708E+00  1.90923783157618221E+00
  1.91352550472316629E+00  1.91671198441060464E+00  1.91876471551701888E+00
  1.91965254307666511E+00  1.91934590310775688E+00  1.91781702218349293E+00
  1.91504012366695120E+00  1.91099163770123481E+00  1.90565041976235827E+00
  1.89899796984833635E+00  1.89101865777363121E+00  1.88169994984927036E+00
  1.87103263554845056E+00  1.85901105684076562E+00  1.84563333228590176E+00
  1.83090158117753310E+00  1.81482214093576499E+00  1.79740577785946964E+00
  1.77866789082578247E+00  1.75862870161988627E+00  1.73731343501771507E+00
  1.71475248160531191E+00  1.69098154375025356E+00  1.66604176156659922E+00
  1.63997981519438873E+00  1.61284800246174176E+00  1.58470428771449279E+00
  1.55561231988269122E+00  1.52564141646194029E+00  1.49486651180852759E+00
  1.46336806435632028E+00  1.43123192451935322E+00  1.39854915561129456E+00
  1.36541580936257811E+00  1.33193265354531754E+00  1.29820484477344378E+00
  1.26434155556922345E+00  1.23045554044100092E+00  1.19666265384447024E+00
  1.16308131192455599E+00  1.12983189698362740E+00  1.09703611904258169E+00
  1.06481631460091952E+00  1.03329471200627232E+00  1.00259264645591073E+00
  9.72829740546399702E-01  9.44123065285865426E-01  9.16586267708899283E-01
  8.90328712091768781E-01  8.65454614899119790E-01  8.42062186949854130E-01
  8.20241297439999073E-01  7.99967595913246288E-01  7.80101283841478366E-01
  7.60333658836993997E-01  7.40679938861201093E-01  7.21153260146352948E-01
  7.01766593388370885E-01  6.82532623158572993E-01  6.63463722635396658E-01
  6.44571936439833904E-01  6.25868963050192684E-01  6.07366138210049589E-01
  5.89074419442983888E-01  5.71004370388351834E-01  5.53166147128131946E-01
  5.35569484281284147E-01  5.18223682652099393E-01  5.01137597650556099E-01
  4.84319628292456339E-01  4.67777707884545868E-01  4.51519294910055713E-01
  4.35551365615885921E-01  4.19880407276379930E-01  4.04512412572876068E-01
  3.89452875293195278E-01  3.74706786769790523E-01  3.60278633801262016E-01
  3.46172397435691226E-01  3.32391553010213892E-01  3.18939071287540954E-01
  3.05817420728543621E-01  2.93028570836031621E-01  2.80573996714418017E-01
  2.68454684602193794E-01  2.56671138535971954E-01  2.45223388177998824E-01
  2.34110997359857853E-01  2.23333074127994302E-01  2.12888281193851087E-01
  2.02774847771905270E-01  1.92990582150869172E-01  1.83532884874086644E-01
  1.74398763384398636E-01  1.65584846490578724E-01  1.57087400505176583E-01
  1.48902345328538049E-01  1.41025271333178548E-01  1.33451457200576773E-01
  1.26175887255349201E-01  1.19193270521312150E-01  1.12498058839112555E-01
  1.06084466148894566E-01  9.99464877964547360E-02  9.40779194004971175E-02
  8.84723770630232303E-02  8.31233159922191434E-02  7.80240505738331036E-02
  7.31677733637234456E-02  6.85475740495272989E-02  6.41564589089034937E-02
  5.99873685228943312E-02  5.60331968862331636E-02  5.22868085044704209E-02
  4.87410559965851253E-02  4.53887970874524982E-02  4.22229101948029054E-02
  3.92363109346460168E-02  3.64219661506548359E-02  3.37729088323608304E-02
  3.12822513826575277E-02  2.89431981510840236E-02  2.67490580521069984E-02
  2.46932548677345452E-02  2.27693384552915337E-02  2.09709936493068447E-02
  1.92920491464350988E-02  1.77264855692384829E-02  1.62684418492214447E-02
  1.49122221702807454E-02  1.36523005095039660E-02  1.24833256585419050E-02
  1.14001247456774445E-02  1.03977059188432881E-02  9.47126102130631774E-03
  8.61616631698337160E-03  7.82798383181242813E-03  7.10246094355836046E-03
  6.43552988972258527E-03  5.82330673524096738E-03  5.26208913859441130E-03
  4.74835457863042026E-03  4.27875701987656069E-03  3.85012397501949093E-03
  3.45945272772981609E-03  3.10390611907141508E-03  2.78080850019112556E-03
  2.48764063243589505E-03  2.22203513624046186E-03  1.98177110035835683E-03
  1.76476882709258225E-03  1.56908449294212602E-03  1.39290434273857400E-03
  1.23453936267011984E-03  1.09241934376940212E-03  9.65087379378861006E-04
  8.51194169911145913E-04  7.49492334963418262E-04  6.58831045392290859E-04
  5.78150377324640431E-04  5.06476155897313024E-04  4.42914639409996936E-04
  3.86647486661136248E-04  3.36926907401457229E-04  2.93070823317101599E-04
  2.54458440312727355E-04  2.20525769556928958E-04  1.90761519439639100E-04
  1.64703098476680869E-04  1.41932801642781069E-04  1.22074289897799407E-04
  1.04789131605475923E-04  8.97736778790430282E-05  7.67560295943209937E-05
  6.54932435991138941E-05  5.57687322653159346E-05  4.73897920751182187E-05
  4.01853808573395443E-05  3.40039883663390279E-05  2.87117229349863261E-05
  2.41905253728976525E-05  2.03365252046979352E-05  1.70585608583090329E-05
  1.42767925383396840E-05  1.19214742913723592E-05  9.93181325505534836E-06
  8.25494872264381351E-06  6.84503177246866688E-06  5.66238487970780623E-06
  4.67276373037715403E-06  3.84668008320796079E-06  3.15880886080481862E-06
  2.58745474336787027E-06  2.11407803158790550E-06  1.72287975287607737E-06
  1.40042846001451251E-06  1.13533839847193511E-06  9.17982195338529780E-07
  7.40241707540466645E-07  5.95290760273152650E-07  4.77404274608463384E-07
  3.81795350800616453E-07  3.04471826610819737E-07  2.42114449174287863E-07
  1.91971292432077799E-07  1.51767264479439935E-07  1.19627447996401672E-07
  9.40109085522780458E-08  7.36553800972350765E-08  5.75298373760131427E-08
  4.47947948760705327E-08  3.47689276207149735E-08  2.69009059236283069E-08
  2.07461563356497518E-08  1.59472484189128066E-08  1.22178178768801568E-08
  9.32918332762874986E-09  7.09932506071584918E-09  5.38389049197884724E-09
  4.06875779274772587E-09  3.06404757356938538E-09  2.29920661194475659E-09
  1.71905458172425810E-09  1.28059422424586618E-09  9.50435959245738949E-10
  7.02755697718801033E-10  5.17648659780492625E-10  3.79834597986251586E-10
  2.77627264223849626E-10  2.02123027368472869E-10  1.46566687729061997E-10
  1.05851650829854006E-10  7.61345369760903459E-11  5.45337003069290835E-11
  3.88977355747996204E-11  2.76272748234313057E-11  1.95380570391709512E-11
  1.37572758949562733E-11  9.64420341511087402E-12  6.73068712853797247E-12
  4.67614348737316823E-12  3.23389107355917525E-12  2.22612325470760812E-12
  1.52521758304192590E-12  1.04003787480610356E-12  7.05788862749720712E-13
  4.76630285003191292E-13  3.20291251046261050E-13
                             </PP_RHOATOM> 
<PP_PAW paw_data_format="2"> 
   <PP_OCCUPATIONS type="real" columns="3" size=" 3">
  2.00000000000000000E+00  0.00000000000000000E+00  0.00000000000000000E+00
                             </PP_OCCUPATIONS> 
 <PP_AE_NLCC type="real" size="   833" columns="3">
  0.00000000000000000E+00  0.00000000000000000E+00  0.00000000000000000E+00
  0.00000000000000000E+00  0.00000000000000000E+00  0.00000000000000000E+00
  0.00000000000000000E+00  0.00000000000000000E+00  0.00000000000000000E+00
  0.00000000000000000E+00  0.00000000000000000E+00  0.00000000000000000E+00
  0.00000000000000000E+00  0.00000000000000000E+00  0.00000000000000000E+00
  0.00000000000000000E+00  0.00000000000000000E+00  0.00000000000000000E+00
  0.00000000000000000E+00  0.00000000000000000E+00  0.00000000000000000E+00
  0.00000000000000000E+00  0.00000000000000000E+00  0.00000000000000000E+00
  0.00000000000000000E+00  0.00000000000000000E+00  0.00000000000000000E+00
  0.00000000000000000E+00  0.00000000000000000E+00  0.00000000000000000E+00
  0.00000000000000000E+00  0.00000000000000000E+00  0.00000000000000000E+00
  0.00000000000000000E+00  0.00000000000000000E+00  0.00000000000000000E+00
  0.00000000000000000E+00  0.00000000000000000E+00  0.00000000000000000E+00
  0.00000000000000000E+00  0.00000000000000000E+00  0.00000000000000000E+00
  0.00000000000000000E+00  0.00000000000000000E+00  0.00000000000000000E+00
  0.00000000000000000E+00  0.00000000000000000E+00  0.00000000000000000E+00
  0.00000000000000000E+00  0.00000000000000000E+00  0.00000000000000000E+00
  0.00000000000000000E+00  0.00000000000000000E+00  0.00000000000000000E+00
  0.00000000000000000E+00  0.00000000000000000E+00  0.00000000000000000E+00
  0.00000000000000000E+00  0.00000000000000000E+00  0.00000000000000000E+00
  0.00000000000000000E+00  0.00000000000000000E+00  0.00000000000000000E+00
  0.00000000000000000E+00  0.00000000000000000E+00  0.00000000000000000E+00
  0.00000000000000000E+00  0.00000000000000000E+00  0.00000000000000000E+00
  0.00000000000000000E+00  0.00000000000000000E+00  0.00000000000000000E+00
  0.00000000000000000E+00  0.00000000000000000E+00  0.00000000000000000E+00
  0.00000000000000000E+00  0.00000000000000000E+00  0.00000000000000000E+00
  0.00000000000000000E+00  0.00000000000000000E+00  0.00000000000000000E+00
  0.00000000000000000E+00  0.00000000000000000E+00  0.00000000000000000E+00
  0.00000000000000000E+00  0.00000000000000000E+00  0.00000000000000000E+00
  0.00000000000000000E+00  0.00000000000000000E+00  0.00000000000000000E+00
  0.00000000000000000E+00  0.00000000000000000E+00  0.00000000000000000E+00
  0.00000000000000000E+00  0.00000000000000000E+00  0.00000000000000000E+00
  0.00000000000000000E+00  0.00000000000000000E+00  0.00000000000000000E+00
  0.00000000000000000E+00  0.00000000000000000E+00  0.00000000000000000E+00
  0.00000000000000000E+00  0.00000000000000000E+00  0.00000000000000000E+00
  0.00000000000000000E+00  0.00000000000000000E+00  0.00000000000000000E+00
  0.00000000000000000E+00  0.00000000000000000E+00  0.00000000000000000E+00
  0.00000000000000000E+00  0.00000000000000000E+00  0.00000000000000000E+00
  0.00000000000000000E+00  0.00000000000000000E+00  0.00000000000000000E+00
  0.00000000000000000E+00  0.00000000000000000E+00  0.00000000000000000E+00
  0.00000000000000000E+00  0.00000000000000000E+00  0.00000000000000000E+00
  0.00000000000000000E+00  0.00000000000000000E+00  0.00000000000000000E+00
  0.00000000000000000E+00  0.00000000000000000E+00  0.00000000000000000E+00
  0.00000000000000000E+00  0.00000000000000000E+00  0.00000000000000000E+00
  0.00000000000000000E+00  0.00000000000000000E+00  0.00000000000000000E+00
  0.00000000000000000E+00  0.00000000000000000E+00  0.00000000000000000E+00
  0.00000000000000000E+00  0.00000000000000000E+00  0.00000000000000000E+00
  0.00000000000000000E+00  0.00000000000000000E+00  0.00000000000000000E+00
  0.00000000000000000E+00  0.00000000000000000E+00  0.00000000000000000E+00
  0.00000000000000000E+00  0.00000000000000000E+00  0.00000000000000000E+00
  0.00000000000000000E+00  0.00000000000000000E+00  0.00000000000000000E+00
  0.00000000000000000E+00  0.00000000000000000E+00  0.00000000000000000E+00
  0.00000000000000000E+00  0.00000000000000000E+00  0.00000000000000000E+00
  0.00000000000000000E+00  0.00000000000000000E+00  0.00000000000000000E+00
  0.00000000000000000E+00  0.00000000000000000E+00  0.00000000000000000E+00
  0.00000000000000000E+00  0.00000000000000000E+00  0.00000000000000000E+00
  0.00000000000000000E+00  0.00000000000000000E+00  0.00000000000000000E+00
  0.00000000000000000E+00  0.00000000000000000E+00  0.00000000000000000E+00
  0.00000000000000000E+00  0.00000000000000000E+00  0.00000000000000000E+00
  0.00000000000000000E+00  0.00000000000000000E+00  0.00000000000000000E+00
  0.00000000000000000E+00  0.00000000000000000E+00  0.00000000000000000E+00
  0.00000000000000000E+00  0.00000000000000000E+00  0.00000000000000000E+00
  0.00000000000000000E+00  0.00000000000000000E+00  0.00000000000000000E+00
  0.00000000000000000E+00  0.00000000000000000E+00  0.00000000000000000E+00
  0.00000000000000000E+00  0.00000000000000000E+00  0.00000000000000000E+00
  0.00000000000000000E+00  0.00000000000000000E+00  0.00000000000000000E+00
  0.00000000000000000E+00  0.00000000000000000E+00  0.00000000000000000E+00
  0.00000000000000000E+00  0.00000000000000000E+00  0.00000000000000000E+00
  0.00000000000000000E+00  0.00000000000000000E+00  0.00000000000000000E+00
  0.00000000000000000E+00  0.00000000000000000E+00  0.00000000000000000E+00
  0.00000000000000000E+00  0.00000000000000000E+00  0.00000000000000000E+00
  0.00000000000000000E+00  0.00000000000000000E+00  0.00000000000000000E+00
  0.00000000000000000E+00  0.00000000000000000E+00  0.00000000000000000E+00
  0.00000000000000000E+00  0.00000000000000000E+00  0.00000000000000000E+00
  0.00000000000000000E+00  0.00000000000000000E+00  0.00000000000000000E+00
  0.00000000000000000E+00  0.00000000000000000E+00  0.00000000000000000E+00
  0.00000000000000000E+00  0.00000000000000000E+00  0.00000000000000000E+00
  0.00000000000000000E+00  0.00000000000000000E+00  0.00000000000000000E+00
  0.00000000000000000E+00  0.00000000000000000E+00  0.00000000000000000E+00
  0.00000000000000000E+00  0.00000000000000000E+00  0.00000000000000000E+00
  0.00000000000000000E+00  0.00000000000000000E+00  0.00000000000000000E+00
  0.00000000000000000E+00  0.00000000000000000E+00  0.00000000000000000E+00
  0.00000000000000000E+00  0.00000000000000000E+00  0.00000000000000000E+00
  0.00000000000000000E+00  0.00000000000000000E+00  0.00000000000000000E+00
  0.00000000000000000E+00  0.00000000000000000E+00  0.00000000000000000E+00
  0.00000000000000000E+00  0.00000000000000000E+00  0.00000000000000000E+00
  0.00000000000000000E+00  0.00000000000000000E+00  0.00000000000000000E+00
  0.00000000000000000E+00  0.00000000000000000E+00  0.00000000000000000E+00
  0.00000000000000000E+00  0.00000000000000000E+00  0.00000000000000000E+00
  0.00000000000000000E+00  0.00000000000000000E+00  0.00000000000000000E+00
  0.00000000000000000E+00  0.00000000000000000E+00  0.00000000000000000E+00
  0.00000000000000000E+00  0.00000000000000000E+00  0.00000000000000000E+00
  0.00000000000000000E+00  0.00000000000000000E+00  0.00000000000000000E+00
  0.00000000000000000E+00  0.00000000000000000E+00  0.00000000000000000E+00
  0.00000000000000000E+00  0.00000000000000000E+00  0.00000000000000000E+00
  0.00000000000000000E+00  0.00000000000000000E+00  0.00000000000000000E+00
  0.00000000000000000E+00  0.00000000000000000E+00  0.00000000000000000E+00
  0.00000000000000000E+00  0.00000000000000000E+00  0.00000000000000000E+00
  0.00000000000000000E+00  0.00000000000000000E+00  0.00000000000000000E+00
  0.00000000000000000E+00  0.00000000000000000E+00  0.00000000000000000E+00
  0.00000000000000000E+00  0.00000000000000000E+00  0.00000000000000000E+00
  0.00000000000000000E+00  0.00000000000000000E+00  0.00000000000000000E+00
  0.00000000000000000E+00  0.00000000000000000E+00  0.00000000000000000E+00
  0.00000000000000000E+00  0.00000000000000000E+00  0.00000000000000000E+00
  0.00000000000000000E+00  0.00000000000000000E+00  0.00000000000000000E+00
  0.00000000000000000E+00  0.00000000000000000E+00  0.00000000000000000E+00
  0.00000000000000000E+00  0.00000000000000000E+00  0.00000000000000000E+00
  0.00000000000000000E+00  0.00000000000000000E+00  0.00000000000000000E+00
  0.00000000000000000E+00  0.00000000000000000E+00  0.00000000000000000E+00
  0.00000000000000000E+00  0.00000000000000000E+00  0.00000000000000000E+00
  0.00000000000000000E+00  0.00000000000000000E+00  0.00000000000000000E+00
  0.00000000000000000E+00  0.00000000000000000E+00  0.00000000000000000E+00
  0.00000000000000000E+00  0.00000000000000000E+00  0.00000000000000000E+00
  0.00000000000000000E+00  0.00000000000000000E+00  0.00000000000000000E+00
  0.00000000000000000E+00  0.00000000000000000E+00  0.00000000000000000E+00
  0.00000000000000000E+00  0.00000000000000000E+00  0.00000000000000000E+00
  0.00000000000000000E+00  0.00000000000000000E+00  0.00000000000000000E+00
  0.00000000000000000E+00  0.00000000000000000E+00  0.00000000000000000E+00
  0.00000000000000000E+00  0.00000000000000000E+00  0.00000000000000000E+00
  0.00000000000000000E+00  0.00000000000000000E+00  0.00000000000000000E+00
  0.00000000000000000E+00  0.00000000000000000E+00  0.00000000000000000E+00
  0.00000000000000000E+00  0.00000000000000000E+00  0.00000000000000000E+00
  0.00000000000000000E+00  0.00000000000000000E+00  0.00000000000000000E+00
  0.00000000000000000E+00  0.00000000000000000E+00  0.00000000000000000E+00
  0.00000000000000000E+00  0.00000000000000000E+00  0.00000000000000000E+00
  0.00000000000000000E+00  0.00000000000000000E+00  0.00000000000000000E+00
  0.00000000000000000E+00  0.00000000000000000E+00  0.00000000000000000E+00
  0.00000000000000000E+00  0.00000000000000000E+00  0.00000000000000000E+00
  0.00000000000000000E+00  0.00000000000000000E+00  0.00000000000000000E+00
  0.00000000000000000E+00  0.00000000000000000E+00  0.00000000000000000E+00
  0.00000000000000000E+00  0.00000000000000000E+00  0.00000000000000000E+00
  0.00000000000000000E+00  0.00000000000000000E+00  0.00000000000000000E+00
  0.00000000000000000E+00  0.00000000000000000E+00  0.00000000000000000E+00
  0.00000000000000000E+00  0.00000000000000000E+00  0.00000000000000000E+00
  0.00000000000000000E+00  0.00000000000000000E+00  0.00000000000000000E+00
  0.00000000000000000E+00  0.00000000000000000E+00  0.00000000000000000E+00
  0.00000000000000000E+00  0.00000000000000000E+00  0.00000000000000000E+00
  0.00000000000000000E+00  0.00000000000000000E+00  0.00000000000000000E+00
  0.00000000000000000E+00  0.00000000000000000E+00  0.00000000000000000E+00
  0.00000000000000000E+00  0.00000000000000000E+00  0.00000000000000000E+00
  0.00000000000000000E+00  0.00000000000000000E+00  0.00000000000000000E+00
  0.00000000000000000E+00  0.00000000000000000E+00  0.00000000000000000E+00
  0.00000000000000000E+00  0.00000000000000000E+00  0.00000000000000000E+00
  0.00000000000000000E+00  0.00000000000000000E+00  0.00000000000000000E+00
  0.00000000000000000E+00  0.00000000000000000E+00  0.00000000000000000E+00
  0.00000000000000000E+00  0.00000000000000000E+00  0.00000000000000000E+00
  0.00000000000000000E+00  0.00000000000000000E+00  0.00000000000000000E+00
  0.00000000000000000E+00  0.00000000000000000E+00  0.00000000000000000E+00
  0.00000000000000000E+00  0.00000000000000000E+00  0.00000000000000000E+00
  0.00000000000000000E+00  0.00000000000000000E+00  0.00000000000000000E+00
  0.00000000000000000E+00  0.00000000000000000E+00  0.00000000000000000E+00
  0.00000000000000000E+00  0.00000000000000000E+00  0.00000000000000000E+00
  0.00000000000000000E+00  0.00000000000000000E+00  0.00000000000000000E+00
  0.00000000000000000E+00  0.00000000000000000E+00  0.00000000000000000E+00
  0.00000000000000000E+00  0.00000000000000000E+00  0.00000000000000000E+00
  0.00000000000000000E+00  0.00000000000000000E+00  0.00000000000000000E+00
  0.00000000000000000E+00  0.00000000000000000E+00  0.00000000000000000E+00
  0.00000000000000000E+00  0.00000000000000000E+00  0.00000000000000000E+00
  0.00000000000000000E+00  0.00000000000000000E+00  0.00000000000000000E+00
  0.00000000000000000E+00  0.00000000000000000E+00  0.00000000000000000E+00
  0.00000000000000000E+00  0.00000000000000000E+00  0.00000000000000000E+00
  0.00000000000000000E+00  0.00000000000000000E+00  0.00000000000000000E+00
  0.00000000000000000E+00  0.00000000000000000E+00  0.00000000000000000E+00
  0.00000000000000000E+00  0.00000000000000000E+00  0.00000000000000000E+00
  0.00000000000000000E+00  0.00000000000000000E+00  0.00000000000000000E+00
  0.00000000000000000E+00  0.00000000000000000E+00  0.00000000000000000E+00
  0.00000000000000000E+00  0.00000000000000000E+00  0.00000000000000000E+00
  0.00000000000000000E+00  0.00000000000000000E+00  0.00000000000000000E+00
  0.00000000000000000E+00  0.00000000000000000E+00  0.00000000000000000E+00
  0.00000000000000000E+00  0.00000000000000000E+00  0.00000000000000000E+00
  0.00000000000000000E+00  0.00000000000000000E+00  0.00000000000000000E+00
  0.00000000000000000E+00  0.00000000000000000E+00  0.00000000000000000E+00
  0.00000000000000000E+00  0.00000000000000000E+00  0.00000000000000000E+00
  0.00000000000000000E+00  0.00000000000000000E+00  0.00000000000000000E+00
  0.00000000000000000E+00  0.00000000000000000E+00  0.00000000000000000E+00
  0.00000000000000000E+00  0.00000000000000000E+00  0.00000000000000000E+00
  0.00000000000000000E+00  0.00000000000000000E+00  0.00000000000000000E+00
  0.00000000000000000E+00  0.00000000000000000E+00  0.00000000000000000E+00
  0.00000000000000000E+00  0.00000000000000000E+00  0.00000000000000000E+00
  0.00000000000000000E+00  0.00000000000000000E+00  0.00000000000000000E+00
  0.00000000000000000E+00  0.00000000000000000E+00  0.00000000000000000E+00
  0.00000000000000000E+00  0.00000000000000000E+00  0.00000000000000000E+00
  0.00000000000000000E+00  0.00000000000000000E+00  0.00000000000000000E+00
  0.00000000000000000E+00  0.00000000000000000E+00  0.00000000000000000E+00
  0.00000000000000000E+00  0.00000000000000000E+00  0.00000000000000000E+00
  0.00000000000000000E+00  0.00000000000000000E+00  0.00000000000000000E+00
  0.00000000000000000E+00  0.00000000000000000E+00  0.00000000000000000E+00
  0.00000000000000000E+00  0.00000000000000000E+00  0.00000000000000000E+00
  0.00000000000000000E+00  0.00000000000000000E+00  0.00000000000000000E+00
  0.00000000000000000E+00  0.00000000000000000E+00  0.00000000000000000E+00
  0.00000000000000000E+00  0.00000000000000000E+00  0.00000000000000000E+00
  0.00000000000000000E+00  0.00000000000000000E+00  0.00000000000000000E+00
  0.00000000000000000E+00  0.00000000000000000E+00  0.00000000000000000E+00
  0.00000000000000000E+00  0.00000000000000000E+00  0.00000000000000000E+00
  0.00000000000000000E+00  0.00000000000000000E+00  0.00000000000000000E+00
  0.00000000000000000E+00  0.00000000000000000E+00  0.00000000000000000E+00
  0.00000000000000000E+00  0.00000000000000000E+00  0.00000000000000000E+00
  0.00000000000000000E+00  0.00000000000000000E+00  0.00000000000000000E+00
  0.00000000000000000E+00  0.00000000000000000E+00  0.00000000000000000E+00
  0.00000000000000000E+00  0.00000000000000000E+00  0.00000000000000000E+00
  0.00000000000000000E+00  0.00000000000000000E+00  0.00000000000000000E+00
  0.00000000000000000E+00  0.00000000000000000E+00  0.00000000000000000E+00
  0.00000000000000000E+00  0.00000000000000000E+00  0.00000000000000000E+00
  0.00000000000000000E+00  0.00000000000000000E+00  0.00000000000000000E+00
  0.00000000000000000E+00  0.00000000000000000E+00  0.00000000000000000E+00
  0.00000000000000000E+00  0.00000000000000000E+00  0.00000000000000000E+00
  0.00000000000000000E+00  0.00000000000000000E+00  0.00000000000000000E+00
  0.00000000000000000E+00  0.00000000000000000E+00  0.00000000000000000E+00
  0.00000000000000000E+00  0.00000000000000000E+00  0.00000000000000000E+00
  0.00000000000000000E+00  0.00000000000000000E+00  0.00000000000000000E+00
  0.00000000000000000E+00  0.00000000000000000E+00  0.00000000000000000E+00
  0.00000000000000000E+00  0.00000000000000000E+00  0.00000000000000000E+00
  0.00000000000000000E+00  0.00000000000000000E+00  0.00000000000000000E+00
  0.00000000000000000E+00  0.00000000000000000E+00  0.00000000000000000E+00
  0.00000000000000000E+00  0.00000000000000000E+00  0.00000000000000000E+00
  0.00000000000000000E+00  0.00000000000000000E+00  0.00000000000000000E+00
  0.00000000000000000E+00  0.00000000000000000E+00  0.00000000000000000E+00
  0.00000000000000000E+00  0.00000000000000000E+00  0.00000000000000000E+00
  0.00000000000000000E+00  0.00000000000000000E+00  0.00000000000000000E+00
  0.00000000000000000E+00  0.00000000000000000E+00  0.00000000000000000E+00
  0.00000000000000000E+00  0.00000000000000000E+00  0.00000000000000000E+00
  0.00000000000000000E+00  0.00000000000000000E+00  0.00000000000000000E+00
  0.00000000000000000E+00  0.00000000000000000E+00  0.00000000000000000E+00
  0.00000000000000000E+00  0.00000000000000000E+00  0.00000000000000000E+00
  0.00000000000000000E+00  0.00000000000000000E+00  0.00000000000000000E+00
  0.00000000000000000E+00  0.00000000000000000E+00  0.00000000000000000E+00
  0.00000000000000000E+00  0.00000000000000000E+00  0.00000000000000000E+00
  0.00000000000000000E+00  0.00000000000000000E+00  0.00000000000000000E+00
  0.00000000000000000E+00  0.00000000000000000E+00  0.00000000000000000E+00
  0.00000000000000000E+00  0.00000000000000000E+00  0.00000000000000000E+00
  0.00000000000000000E+00  0.00000000000000000E+00  0.00000000000000000E+00
  0.00000000000000000E+00  0.00000000000000000E+00  0.00000000000000000E+00
  0.00000000000000000E+00  0.00000000000000000E+00  0.00000000000000000E+00
  0.00000000000000000E+00  0.00000000000000000E+00  0.00000000000000000E+00
  0.00000000000000000E+00  0.00000000000000000E+00  0.00000000000000000E+00
  0.00000000000000000E+00  0.00000000000000000E+00  0.00000000000000000E+00
  0.00000000000000000E+00  0.00000000000000000E+00  0.00000000000000000E+00
  0.00000000000000000E+00  0.00000000000000000E+00  0.00000000000000000E+00
  0.00000000000000000E+00  0.00000000000000000E+00  0.00000000000000000E+00
  0.00000000000000000E+00  0.00000000000000000E+00  0.00000000000000000E+00
  0.00000000000000000E+00  0.00000000000000000E+00  0.00000000000000000E+00
  0.00000000000000000E+00  0.00000000000000000E+00  0.00000000000000000E+00
  0.00000000000000000E+00  0.00000000000000000E+00  0.00000000000000000E+00
  0.00000000000000000E+00  0.00000000000000000E+00  0.00000000000000000E+00
  0.00000000000000000E+00  0.00000000000000000E+00  0.00000000000000000E+00
  0.00000000000000000E+00  0.00000000000000000E+00  0.00000000000000000E+00
  0.00000000000000000E+00  0.00000000000000000E+00  0.00000000000000000E+00
  0.00000000000000000E+00  0.00000000000000000E+00  0.00000000000000000E+00
  0.00000000000000000E+00  0.00000000000000000E+00  0.00000000000000000E+00
  0.00000000000000000E+00  0.00000000000000000E+00  0.00000000000000000E+00
  0.00000000000000000E+00  0.00000000000000000E+00  0.00000000000000000E+00
  0.00000000000000000E+00  0.00000000000000000E+00  0.00000000000000000E+00
  0.00000000000000000E+00  0.00000000000000000E+00  0.00000000000000000E+00
  0.00000000000000000E+00  0.00000000000000000E+00  0.00000000000000000E+00
  0.00000000000000000E+00  0.00000000000000000E+00  0.00000000000000000E+00
  0.00000000000000000E+00  0.00000000000000000E+00  0.00000000000000000E+00
  0.00000000000000000E+00  0.00000000000000000E+00  0.00000000000000000E+00
  0.00000000000000000E+00  0.00000000000000000E+00  0.00000000000000000E+00
  0.00000000000000000E+00  0.00000000000000000E+00  0.00000000000000000E+00
  0.00000000000000000E+00  0.00000000000000000E+00  0.00000000000000000E+00
  0.00000000000000000E+00  0.00000000000000000E+00  0.00000000000000000E+00
  0.00000000000000000E+00  0.00000000000000000E+00  0.00000000000000000E+00
  0.00000000000000000E+00  0.00000000000000000E+00  0.00000000000000000E+00
  0.00000000000000000E+00  0.00000000000000000E+00  0.00000000000000000E+00
  0.00000000000000000E+00  0.00000000000000000E+00  0.00000000000000000E+00
  0.00000000000000000E+00  0.00000000000000000E+00  0.00000000000000000E+00
  0.00000000000000000E+00  0.00000000000000000E+00  0.00000000000000000E+00
  0.00000000000000000E+00  0.00000000000000000E+00  0.00000000000000000E+00
  0.00000000000000000E+00  0.00000000000000000E+00  0.00000000000000000E+00
  0.00000000000000000E+00  0.00000000000000000E+00  0.00000000000000000E+00
  0.00000000000000000E+00  0.00000000000000000E+00  0.00000000000000000E+00
  0.00000000000000000E+00  0.00000000000000000E+00  0.00000000000000000E+00
  0.00000000000000000E+00  0.00000000000000000E+00  0.00000000000000000E+00
  0.00000000000000000E+00  0.00000000000000000E+00  0.00000000000000000E+00
  0.00000000000000000E+00  0.00000000000000000E+00  0.00000000000000000E+00
  0.00000000000000000E+00  0.00000000000000000E+00  0.00000000000000000E+00
  0.00000000000000000E+00  0.00000000000000000E+00  0.00000000000000000E+00
  0.00000000000000000E+00  0.00000000000000000E+00
                             </PP_AE_NLCC> 
 <PP_AE_VLOC type="real" size="   833" columns="3">
 -8.77306526742766800E+03 -8.66408450039548188E+03 -8.55645751419369844E+03
 -8.45016749188676113E+03 -8.34519782544242480E+03 -8.24153211313675092E+03
 -8.13915415699128243E+03 -8.03804796024208008E+03 -7.93819772484020905E+03
 -7.83958784898322756E+03 -7.74220292467741274E+03 -7.64602773533021355E+03
 -7.55104725337262425E+03 -7.45724663791110743E+03 -7.36461123240864163E+03
 -7.27312656239465832E+03 -7.18277833320334048E+03 -7.09355242774006092E+03
 -7.00543490427556662E+03 -6.91841199426752883E+03 -6.83247010020921243E+03
 -6.74759579350482181E+03 -6.66377581237125833E+03 -6.58099705976593941E+03
 -6.49924660134034548E+03 -6.41851166341903263E+03 -6.33877963100369107E+03
 -6.26003804580204087E+03 -6.18227460428119957E+03 -6.10547715574520680E+03
 -6.02963370043649047E+03 -5.95473238766085069E+03 -5.88076151393578130E+03
 -5.80770952116177068E+03 -5.73556499481631454E+03 -5.66431666217039492E+03
 -5.59395339052708187E+03 -5.52446418548202473E+03 -5.45583818920556496E+03
 -5.38806467874615100E+03 -5.32113306435489540E+03 -5.25503288783087282E+03
 -5.18975382088702281E+03 -5.12528566353632687E+03 -5.06161834249802814E+03
 -4.99874190962368721E+03 -4.93664654034274463E+03 -4.87532253212741671E+03
 -4.81476030297665784E+03 -4.75495038991894126E+03 -4.69588344753367073E+03
 -4.63755024649092775E+03 -4.57994167210936666E+03 -4.52304872293204153E+03
 -4.46686250931988343E+03 -4.41137425206271018E+03 -4.35657528100743184E+03
 -4.30245703370333194E+03 -4.24901105406416900E+03 -4.19622899104687986E+03
 -4.14410259734673582E+03 -4.09262372810867009E+03 -4.04178433965462864E+03
 -3.99157648822673582E+03 -3.94199232874605059E+03 -3.89302411358677773E+03
 -3.84466419136567220E+03 -3.79690500574649650E+03 -3.74973909425933562E+03
 -3.70315908713455337E+03 -3.65715770615127167E+03 -3.61172776350012100E+03
 -3.56686216066013412E+03 -3.52255388728959133E+03 -3.47879602013062595E+03
 -3.43558172192747134E+03 -3.39290424035811293E+03 -3.35075690697922846E+03
 -3.30913313618422990E+03 -3.26802642417424113E+03 -3.22743034794188088E+03
 -3.18733856426764487E+03 -3.14774480872876620E+03 -3.10864289472039036E+03
 -3.07002671248889510E+03 -3.03189022817724435E+03 -2.99422748288217463E+03
 -2.95703259172310845E+03 -2.92029974292263114E+03 -2.88402319689837896E+03
 -2.84819728536623279E+03 -2.81281641045462766E+03 -2.77787504382987572E+03
 -2.74336772583235506E+03 -2.70928906462341820E+03 -2.67563373534292032E+03
 -2.64239647927718852E+03 -2.60957210303734200E+03 -2.57715547774781271E+03
 -2.54514153824494224E+03 -2.51352528228555366E+03 -2.48230176976532903E+03
 -2.45146612194691215E+03 -2.42101352069759878E+03 -2.39093920773648233E+03
 -2.36123848389097839E+03 -2.33190670836255913E+03 -2.30293929800162277E+03
 -2.27433172659136744E+03 -2.24607952414055399E+03 -2.21817827618507181E+03
 -2.19062362309816217E+03 -2.16341125940922029E+03 -2.13653693313105714E+03
 -2.10999644509551217E+03 -2.08378564829733432E+03 -2.05790044724619793E+03
 -2.03233679732677479E+03 -2.00709070416675672E+03 -1.98215822301272101E+03
 -1.95753545811376330E+03 -1.93321856211277236E+03 -1.90920373544527570E+03
 -1.88548722574574890E+03 -1.86206532726129672E+03 -1.83893438027263051E+03
 -1.81609077052222301E+03 -1.79353092864957534E+03 -1.77125132963349756E+03
 -1.74924849224131208E+03 -1.72751897848491308E+03 -1.70605939308356687E+03
 -1.68486638293339479E+03 -1.66393663658344371E+03 -1.64326688371826549E+03
 -1.62285389464691889E+03 -1.60269447979833330E+03 -1.58278548922292316E+03
 -1.56312381210040621E+03 -1.54370637625373138E+03 -1.52453014766903993E+03
 -1.50559213002160254E+03 -1.48688936420763207E+03 -1.46841892788191876E+03
 -1.45017793500120956E+03 -1.43216353537325335E+03 -1.41437291421145846E+03
 -1.39680329169507309E+03 -1.37945192253483356E+03 -1.36231609554400802E+03
 -1.34539313321476357E+03 -1.32868039129980752E+03 -1.31217525839921359E+03
 -1.29587515555238542E+03 -1.27977753583509229E+03 -1.26387988396149967E+03
 -1.24817971589115973E+03 -1.23267457844086925E+03 -1.21736204890135582E+03
 -1.20223973465872677E+03 -1.18730527282061280E+03 -1.17255632984696854E+03
 -1.15799060118544685E+03 -1.14360581091131098E+03 -1.12939971137181510E+03
 -1.11537008283500131E+03 -1.10151473314286864E+03 -1.08783149736883888E+03
 -1.07431823747948329E+03 -1.06097284200045237E+03 -1.04779322568654879E+03
 -1.03477732919591085E+03 -1.02192311876823055E+03 -1.00922858590697638E+03
 -9.96691747065562708E+02 -9.84310643337412330E+02 -9.72083340149878836E+02
 -9.60007926961962767E+02 -9.48082516965785885E+02 -9.36305246791774380E+02
 -9.24674276217501301E+02 -9.13187787880151404E+02 -9.01843986992553141E+02
 -8.90641101062737903E+02 -8.79577379616988196E+02 -8.68651093926316662E+02
 -8.57860536736355698E+02 -8.47204022000590612E+02 -8.36679884616913114E+02
 -8.26286480167446143E+02 -8.16022184661597521E+02 -8.05885394282312177E+02
 -7.95874525135470094E+02 -7.85988013002399839E+02 -7.76224313095466869E+02
 -7.66581899816695000E+02 -7.57059266519392509E+02 -7.47654925272732612E+02
 -7.38367406629262518E+02 -7.29195259395298990E+02 -7.20137050404174488E+02
 -7.11191364292305934E+02 -7.02356803278038115E+02 -6.93631986943238644E+02
 -6.85015552017604705E+02 -6.76506152165647904E+02 -6.68102457776329516E+02
 -6.59803155755303692E+02 -6.51606949319744558E+02 -6.43512557795721932E+02
 -6.35518716418090662E+02 -6.27624176132872662E+02 -6.19827703402086740E+02
 -6.12128080011006546E+02 -6.04524102877812993E+02 -5.97014583865607278E+02
 -5.89598349596766298E+02 -5.82274241269596928E+02 -5.75041114477272004E+02
 -5.67897839029015017E+02 -5.60843298773502852E+02 -5.53876391424468579E+02
 -5.46996028388464765E+02 -5.40201134594768632E+02 -5.33490648327401232E+02
 -5.26863521059229583E+02 -5.20318717288135645E+02 -5.13855214375214587E+02
 -5.07472002384986297E+02 -5.01168083927590885E+02 -4.94942474002943129E+02
 -4.88794199846826587E+02 -4.82722300778895544E+02 -4.76725828052567522E+02
 -4.70803844706779273E+02 -4.64955425419583889E+02 -4.59179656363569507E+02
 -4.53475635063070229E+02 -4.47842470253152840E+02 -4.42279281740355486E+02
 -4.36785200265153946E+02 -4.31359367366140134E+02 -4.26000935245884762E+02
 -4.20709066638467391E+02 -4.15482934678651304E+02 -4.10321722772685632E+02
 -4.05224624470708989E+02 -4.00190843340741765E+02 -3.95219592844241333E+02
 -3.90310096213203167E+02 -3.85461586328790531E+02 -3.80673305601469281E+02
 -3.75944505852634165E+02 -3.71274448197703634E+02 -3.66662402930667611E+02
 -3.62107649410070110E+02 -3.57609475946406519E+02 -3.53167179690921671E+02
 -3.48780066525787902E+02 -3.44447450955647241E+02 -3.40168656000502267E+02
 -3.35943013089935732E+02 -3.31769861958645890E+02 -3.27648550543278247E+02
 -3.23578434880539021E+02 -3.19558879006575467E+02 -3.15589254857604089E+02
 -3.11668942171775598E+02 -3.07797328392256929E+02 -3.03973808571517964E+02
 -3.00197785276808020E+02 -2.96468668496804526E+02 -2.92785875549423793E+02
 -2.89148830990775309E+02 -2.85556966525246878E+02 -2.82009720916708375E+02
 -2.78506539900816108E+02 -2.75046876098409371E+02 -2.71630188929980307E+02
 -2.68255944531207376E+02 -2.64923615669538492E+02 -2.61632681661809158E+02
 -2.58382628292885329E+02 -2.55172947735315915E+02 -2.52003138469983384E+02
 -2.48872705207741319E+02 -2.45781158812023250E+02 -2.42728016222415249E+02
 -2.39712800379176116E+02 -2.36735040148695560E+02 -2.33794270249879531E+02
 -2.30890031181448080E+02 -2.28021869150138144E+02 -2.25189335999797123E+02
 -2.22391989141357243E+02 -2.19629391483680791E+02 -2.16901111365263034E+02
 -2.14206722486784884E+02 -2.11545803844502331E+02 -2.08917939664463660E+02
 -2.06322719337544498E+02 -2.03759737355288593E+02 -2.01228593246546836E+02
 -1.98728891514902699E+02 -1.96260241576874733E+02 -1.93822257700887832E+02
 -1.91414558947001041E+02 -1.89036769107385680E+02 -1.86688516647541690E+02
 -1.84369434648244550E+02 -1.82079160748213809E+02 -1.79817337087492859E+02
 -1.77583610251533003E+02 -1.75377631215971718E+02 -1.73199055292096375E+02
 -1.71047542072986772E+02 -1.68922755380324872E+02 -1.66824363211867166E+02
 -1.64752037689568198E+02 -1.62705455008348821E+02 -1.60684295385501343E+02
 -1.58688243010722545E+02 -1.56716985996767875E+02 -1.54770216330718483E+02
 -1.52847629825853119E+02 -1.50948926074118987E+02 -1.49073808399191989E+02
 -1.47221983810120321E+02 -1.45393162955544483E+02 -1.43587060078485081E+02
 -1.41803392971693086E+02 -1.40041882933554206E+02 -1.38302254724541058E+02
 -1.36584236524206830E+02 -1.34887559888712218E+02 -1.33211959708881096E+02
 -1.31557174168776385E+02 -1.29922944704790609E+02 -1.28309015965245322E+02
 -1.26715135770491301E+02 -1.25141055073505328E+02 -1.23586527920976096E+02
 -1.22051311414873211E+02 -1.20535165674494294E+02 -1.19037853798982638E+02
 -1.17559141830311489E+02 -1.16098798716727288E+02 -1.14656596276647392E+02
 -1.13232309163006406E+02 -1.11825714828045022E+02 -1.10436593488536701E+02
 -1.09064728091446028E+02 -1.07709904280013490E+02 -1.06371910360262248E+02
 -1.05050537267920092E+02 -1.03745578535753040E+02 -1.02456830261304233E+02
 -1.01184091075033763E+02 -9.99271621088544606E+01 -9.86858469650580048E+01
 -9.74599516856277432E+01 -9.62492847219322272E+01 -9.50536569047951474E+01
 -9.38728814149376660E+01 -9.27067737537870897E+01 -9.15551517146489289E+01
 -9.04178353542366295E+01 -8.92946469645549001E+01 -8.81854110451328097E+01
 -8.70899542756010732E+01 -8.60081054886107950E+01 -8.49396956430880152E+01
 -8.38845577978205625E+01 -8.28425270853735185E+01 -8.18134406863279651E+01
 -8.07971378038403998E+01 -7.97934596385177599E+01 -7.88022493636046590E+01
 -7.78233521004790703E+01 -7.68566148944519938E+01 -7.59018866908681673E+01
 -7.49590183115034137E+01 -7.40278624312551159E+01 -7.31082735551225795E+01
 -7.22001079954729477E+01 -7.13032238495898554E+01 -7.04174809775008441E+01
 -6.95427409800800120E+01 -6.86788671774231432E+01 -6.78257245874909671E+01
 -6.69831799050180905E+01 -6.61511014806837352E+01 -6.53293593005411850E+01
 -6.45178249657029710E+01 -6.37163716722781572E+01 -6.29248741915590983E+01
 -6.21432088504541653E+01 -6.13712535121634204E+01 -6.06088875570947607E+01
 -5.98559918640166160E+01 -5.91124487914451819E+01 -5.83781421592626444E+01
 -5.76529572305637217E+01 -5.69367806937279397E+01 -5.62295006447143280E+01
 -5.55310065695762773E+01 -5.48411893271934119E+01 -5.41599411322181865E+01
 -5.34871555382341413E+01 -5.28227274211234032E+01 -5.21665529626408855E+01
 -5.15185296341924612E+01 -5.08785561808146412E+01 -5.02465326053532948E+01
 -4.96223601528389082E+01 -4.90059412950558766E+01 -4.83971797153035652E+01
 -4.77959802933465738E+01 -4.72022490905521153E+01 -4.66158933352117799E+01
 -4.60368214080458316E+01 -4.54649428278875263E+01 -4.49001682375452376E+01
 -4.43424093898401637E+01 -4.37915791338175850E+01 -4.32475914011293270E+01
 -4.27103611925853883E+01 -4.21798045648727182E+01 -4.16558386174387820E+01
 -4.11383814795382747E+01 -4.06273522974406447E+01 -4.01226712217964590E+01
 -3.96242593951609052E+01 -3.91320389396720216E+01 -3.86459329448822189E+01
 -3.81658654557408141E+01 -3.76917614607259139E+01 -3.72235468801237488E+01
 -3.67611485544534915E+01 -3.63044942330360101E+01 -3.58535125627045090E+01
 -3.54081330766554601E+01 -3.49682861834380532E+01 -3.45339031560803349E+01
 -3.41049161213505343E+01 -3.36812580491516727E+01 -3.32628627420480427E+01
 -3.28496648249216889E+01 -3.24415997347573892E+01 -3.20386037105545896E+01
 -3.16406137833646106E+01 -3.12475677664516063E+01 -3.08594042455757815E+01
 -3.04760625693972820E+01 -3.00974828399992766E+01 -2.97236059035288278E+01
 -2.93543733409539414E+01 -2.89897274589355263E+01 -2.86296112808126288E+01
 -2.82739685376997478E+01 -2.79227436596947278E+01 -2.75758817671957814E+01
 -2.72333286623265423E+01 -2.68950308204674258E+01 -2.65609353818923708E+01
 -2.62309901435093842E+01 -2.59051435507036771E+01 -2.55833446892821925E+01
 -2.52655432775181339E+01 -2.49516896582943346E+01 -2.46417347913442448E+01
 -2.43356302455893001E+01 -2.40333281915714565E+01 -2.37347813939797341E+01
 -2.34399432042696070E+01 -2.31487675533740820E+01 -2.28612089445053002E+01
 -2.25772224460455924E+01 -2.22967636845267982E+01 -2.20197888376968258E+01
 -2.17462546276723536E+01 -2.14761183141765528E+01 -2.12093376878608453E+01
 -2.09458710637095997E+01 -2.06856772745267641E+01 -2.04287156645034109E+01
 -2.01749460828651763E+01 -1.99243288775986400E+01 -1.96768248892555917E+01
 -1.94323954448342988E+01 -1.91910023517367776E+01 -1.89526078918011152E+01
 -1.87171748154079225E+01 -1.84846663356600267E+01 -1.82550461226344218E+01
 -1.80282782977056613E+01 -1.78043274279397323E+01 -1.75831585205576069E+01
 -1.73647370174675331E+01 -1.71490287898652696E+01 -1.69360001329013912E+01
 -1.67256177604148384E+01 -1.65178487997318868E+01 -1.63126607865297153E+01
 -1.61100216597638060E+01 -1.59098997566583282E+01 -1.57122638077587702E+01
 -1.55170829320460246E+01 -1.53243266321111662E+01 -1.51339647893901521E+01
 -1.49459676594577751E+01 -1.47603058673799925E+01 -1.45769504031240675E+01
 -1.43958726170256650E+01 -1.42170442153123009E+01 -1.40404372556823827E+01
 -1.38660241429391569E+01 -1.36937776246789102E+01 -1.35236707870327280E+01
 -1.33556770504611357E+01 -1.31897701656010202E+01 -1.30259242091640743E+01
 -1.28641135798862578E+01 -1.27043129945275410E+01 -1.25464974839213461E+01
 -1.23906423890730597E+01 -1.22367233573070244E+01 -1.20847163384613765E+01
 -1.19345975811301575E+01 -1.17863436289521193E+01 -1.16399313169456065E+01
 -1.14953377678889908E+01 -1.13525403887460552E+01 -1.12115168671357814E+01
 -1.10722451678460079E+01 -1.09347035293903652E+01 -1.07988704606080201E+01
 -1.06647247373056189E+01 -1.05322453989409688E+01 -1.04014117453479233E+01
 -1.02722033335019276E+01 -1.01445999743257520E+01 -1.00185817295349100E+01
 -9.89412890852227456E+00 -9.77122206528135528E+00 -9.64984199536784182E+00
 -9.52996973289886107E+00 -9.41158654758952018E+00 -9.29467394182626094E+00
 -9.17921364777657445E+00 -9.06518762453460702E+00 -8.95257805530224182E+00
 -8.84136734460517637E+00 -8.73153811554361070E+00 -8.62307320707705038E+00
 -8.51595567134287279E+00 -8.41016877100818938E+00 -8.30569597665459725E+00
 -8.20252096419542731E+00 -8.10062761232507178E+00 -7.99999999999999645E+00
 -7.90062240395104798E+00 -7.80247929622665826E+00 -7.70555534176657098E+00
 -7.60983539600570857E+00 -7.51530450250780380E+00 -7.42194789062842020E+00
 -7.32975097320701785E+00 -7.23869934428767348E+00 -7.14877877686812369E+00
 -7.05997522067676009E+00 -6.97227479997726007E+00 -6.88566381140045980E+00
 -6.80012872180318251E+00 -6.71565616615365624E+00 -6.63223294544320030E+00
 -6.54984602462385279E+00 -6.46848253057161671E+00 -6.38812975007501382E+00
 -6.30877512784861061E+00 -6.23040626457123636E+00 -6.15301091494856234E+00
 -6.07657698579974515E+00 -6.00109253416785204E+00 -5.92654576545374034E+00
 -5.85292503157313160E+00 -5.78021882913657592E+00 -5.70841579765201779E+00
 -5.63750471774970574E+00 -5.56747450942913336E+00 -5.49831423032777522E+00
 -5.43001307401131328E+00 -5.36256036828511196E+00 -5.29594557352667028E+00
 -5.23015828103877567E+00 -5.16518821142313378E+00 -5.10102521297418487E+00
 -5.03765926009287757E+00 -4.97508045172015834E+00 -4.91327900978989973E+00
 -4.85224527770106562E+00 -4.79196971880884082E+00 -4.73244291493451819E+00
 -4.67365556489388467E+00 -4.61559848304389142E+00 -4.55826259784738230E+00
 -4.50163895045564377E+00 -4.44571869330856906E+00 -4.39049308875220934E+00
 -4.33595350767349519E+00 -4.28209142815192045E+00 -4.22889843412797717E+00
 -4.17636621408812658E+00 -4.12448655976611089E+00 -4.07325136486039163E+00
 -4.02265262376752553E+00 -3.97268243033127399E+00 -3.92333297660724689E+00
 -3.87459655164289840E+00 -3.82646554027267083E+00 -3.77893242192811574E+00
 -3.73198976946278549E+00 -3.68563024799172467E+00 -3.63984661374538687E+00
 -3.59463171293777073E+00 -3.54997848064863764E+00 -3.50587993971959255E+00
 -3.46232919966389652E+00 -3.41931945558981187E+00 -3.37684398713732259E+00
 -3.33489615742806578E+00 -3.29346941202830612E+00 -3.25255727792479155E+00
 -3.21215336251333206E+00 -3.17225135259994140E+00 -3.13284501341439059E+00
 -3.09392818763600852E+00 -3.05549479443158978E+00 -3.01753882850525379E+00
 -2.98005435916010253E+00 -2.94303552937153734E+00 -2.90647655487208878E+00
 -2.87037172324761203E+00 -2.83471539304470799E+00 -2.79950199288924129E+00
 -2.76472602061579531E+00 -2.73038204240794835E+00 -2.69646469194923366E+00
 -2.66296866958463507E+00 -2.62988874149251162E+00 -2.59721973886679658E+00
 -2.56495655710936399E+00 -2.53309415503242485E+00 -2.50162755407082882E+00
 -2.47055183750415752E+00 -2.43986214968847293E+00 -2.40955369529761576E+00
 -2.37962173857392356E+00 -2.35006160258826124E+00 -2.32086866850924123E+00
 -2.29203837488151985E+00 -2.26356621691306170E+00 -2.23544774577125782E+00
 -2.20767856788778394E+00 -2.18025434427209985E+00 -2.15317078983346999E+00
 -2.12642367271141186E+00 -2.10000881361445746E+00 -2.07392208516713117E+00
 -2.04815941126503942E+00 -2.02271676643797083E+00 -1.99759017522090754E+00
 -1.97277571153285103E+00 -1.94826949806336458E+00 -1.92406770566673591E+00
 -1.90016655276366397E+00 -1.87656230475038033E+00 -1.85325127341510898E+00
 -1.83022981636177851E+00 -1.80749433644088597E+00 -1.78504128118743766E+00
 -1.76286714226586994E+00 -1.74096845492186203E+00 -1.71934179744096349E+00
 -1.69798379061394367E+00 -1.67689109720878160E+00 -1.65606042144922028E+00
 -1.63548850849979122E+00 -1.61517214395724240E+00 -1.59510815334828049E+00
 -1.57529340163355180E+00 -1.55572479271778752E+00 -1.53639926896603218E+00
 -1.51731381072588123E+00 -1.49846543585565550E+00 -1.47985119925843356E+00
 -1.46146819242187664E+00 -1.44331354296376535E+00 -1.42538441418318662E+00
 -1.40767800461729120E+00 -1.39019154760356023E+00 -1.37292231084750926E+00
 -1.35586759599576001E+00 -1.33902473821441936E+00 -1.32239110577269159E+00
 -1.30596409963166660E+00 -1.28974115303821346E+00 -1.27371973112392145E+00
 -1.25789733050902020E+00 -1.24227147891122347E+00 -1.22683973475942731E+00
 -1.21159968681221208E+00 -1.19654895378107984E+00 -1.18168518395837374E+00
 -1.16700605484981845E+00 -1.15250927281162574E+00 -1.13819257269210805E+00
 -1.12405371747774407E+00 -1.11009049794364145E+00 -1.09630073230833913E+00
 -1.08268226589290117E+00 -1.06923297078424273E+00 -1.05595074550264134E+00
 -1.04283351467337271E+00 -1.02987922870243298E+00 -1.01708586345628405E+00
 -1.00445141994557718E+00 -9.91973924012809372E-01 -9.79651426023854688E-01
 -9.67482000563332778E-01 -9.55463746133756509E-01 -9.43594784858419411E-01
 -9.31873262187975393E-01 -9.20297346610658651E-01 -9.08865229366109362E-01
 -8.97575124162749538E-01 -8.86425266898670405E-01 -8.75413915385991004E-01
 -8.64539349078633723E-01 -8.53799868803488904E-01 -8.43193796494914327E-01
 -8.32719474932532733E-01 -8.22375267482290839E-01 -8.12159557840728019E-01
 -8.02070749782429315E-01 -7.92107266910610175E-01 -7.82267552410800038E-01
 -7.72550068807590251E-01 -7.62953297724396573E-01 -7.53475739646212839E-01
 -7.44115913685307495E-01 -7.34872357349830807E-01 -7.25743626315299872E-01
 -7.16728294198917038E-01 -7.07824952336697844E-01 -6.99032209563362761E-01
 -6.90348691994963626E-01 -6.81773042814214469E-01 -6.73303922058482551E-01
 -6.64940006410419837E-01 -6.56679988991190067E-01 -6.48522579156265655E-01
 -6.40466502293764117E-01 -6.32510499625284939E-01 -6.24653328009224795E-01
 -6.16893759746533377E-01 -6.09230582388882280E-01 -6.01662598549218886E-01
 -5.94188625714670793E-01 -5.86807496061776623E-01 -5.79518056274011428E-01
 -5.72319167361577508E-01 -5.65209704483436437E-01 -5.58188556771548772E-01
 -5.51254627157300114E-01 -5.44406832200081348E-01 -5.37644101917997719E-01
 -5.30965379620684574E-01 -5.24369621744194436E-01 -5.17855797687939989E-01
 -5.11422889653660340E-01 -5.05069892486386784E-01 -4.98795813517387165E-01
 -4.92599672409057388E-01 -4.86480501001743337E-01 -4.80437343162463337E-01
 -4.74469254635509596E-01 -4.68575302894908008E-01 -4.62754566998707428E-01
 -4.57006137445081950E-01 -4.51329116030218580E-01 -4.45722615707971004E-01
 -4.40185760451257679E-01 -4.34717685115179553E-01 -4.29317535301840691E-01
 -4.23984467226846240E-01 -4.18717647587458941E-01 -4.13516253432394953E-01
 -4.08379472033234991E-01 -4.03306500757434683E-01 -3.98296546942911389E-01
 -3.93348827774188281E-01 -3.88462570160079623E-01 -3.83637010612891405E-01
 -3.78871395129127098E-01 -3.74164979071671677E-01 -3.69517027053440639E-01
 -3.64926812822475133E-01 -3.60393619148462241E-01 -3.55916737710667896E-01
 -3.51495468987259196E-01 -3.47129122146002667E-01 -3.42817014936321329E-01
 -3.38558473582690256E-01 -3.34352832679359002E-01 -3.30199435086380222E-01
 -3.26097631826929524E-01 -3.22046781985902697E-01 -3.18046252609770264E-01
 -3.14095418607678256E-01 -3.10193662653775959E-01 -3.06340375090757067E-01
 -3.02534953834600551E-01 -2.98776804280492692E-01 -2.95065339209919841E-01
 -2.91399978698913709E-01 -2.87780150027437065E-01 -2.84205287589895605E-01
 -2.80674832806760088E-01 -2.77188234037287984E-01 -2.73744946493328145E-01
 -2.70344432154196235E-01 -2.66986159682608526E-01
                             </PP_AE_VLOC> 
                                      </PP_PAW> 
 <PP_GIPAW gipaw_data_format="2">
  <PP_GIPAW_CORE_ORBITALS number_of_core_orbitals=" 0">
  </PP_GIPAW_CORE_ORBITALS>
 </PP_GIPAW>
</UPF> 
