<UPF version="2.0.1">
   <PP_INFO>
         UPF file from ATOMPAW code with following input
           Ne  10
           XC_GGA_X_PBE+XC_GGA_C_PBE scalarrelativistic loggrid 2001
           2 2 0 0 0 0
           0 0 0
           c
           v
           v
           1
           1.8 1.6 1.6 1.8
           y
           3.0
           n
           y
           3.0
           n
           Vanderbilt
           2 0.0
           1.5
           1.5
           1.8
           1.8
           PWSCFOUT
           UPFDX 1.25d-2 UPFXMIN -7. UPFZMESH 10.0
           END
  </PP_INFO>
  <!--                               -->
  <!-- END OF HUMAN READABLE SECTION -->
  <PP_HEADER generated="Generated using ATOMPAW code"
             author="   "
             date=" 11/30/2025, 11:45:56.837"
             element="Ne"
             pseudo_type="PAW"
             relativistic="scalar"
             is_ultrasoft="T"
             is_paw="T"
             is_coulomb="F"
             has_so="F"
             has_wfc="T"
             has_gipaw="T"
             paw_as_gipaw="T"
             core_correction="T"
             functional="SLA PW PBX PBC"
             z_valence=" 8.000"
             l_max="1"
             l_max_rho="2"
             mesh_size="   961"
             number_of_wfc="     4"
             number_of_proj=" 4"
                                    /> 
<PP_MESH dx=" 1.2500000000000E-02" mesh="   961" xmin="-7.0000000000000E+00" zmesh=" 1.0000000000000E+01">
 <PP_R type="real" size="   961" columns="3">
  9.11881965554516244E-05  9.23352028669022212E-05  9.34966367416582205E-05
  9.46726796561253971E-05  9.58635153694019804E-05  9.70693299519908887E-05
  9.82903118148738709E-05  9.95266517389511329E-05  1.00778542904851043E-04
  1.02046180923115457E-04  1.03329763864763705E-04  1.04629492292241847E-04
  1.05945569290761019E-04  1.07278200500029677E-04  1.08627594146385793E-04
  1.09993961075331828E-04  1.11377514784480330E-04  1.12778471456913233E-04
  1.14197049994960745E-04  1.15633472054405773E-04  1.17087962079117448E-04
  1.18560747336121281E-04  1.20052057951110079E-04  1.21562126944401469E-04
  1.23091190267348105E-04  1.24639486839204946E-04  1.26207258584461440E-04
  1.27794750470642447E-04  1.29402210546584811E-04  1.31029889981196007E-04
  1.32678043102699150E-04  1.34346927438372686E-04  1.36036803754789392E-04
  1.37747936098561697E-04  1.39480591837599883E-04  1.41235041702888158E-04
  1.43011559830787431E-04  1.44810423805869567E-04  1.46631914704290297E-04
  1.48476317137708678E-04  1.50343919297757242E-04  1.52235013001073168E-04
  1.54149893734895028E-04  1.56088860703233214E-04  1.58052216873621706E-04
  1.60040269024456431E-04  1.62053327792930659E-04  1.64091707723572615E-04
  1.66155727317393402E-04  1.68245709081654124E-04  1.70361979580257409E-04
  1.72504869484774246E-04  1.74674713626111968E-04  1.76871851046832068E-04
  1.79096625054126982E-04  1.81349383273461526E-04  1.83630477702890701E-04
  1.85940264768060095E-04  1.88279105377897724E-04  1.90647364981007662E-04
  1.93045413622770941E-04  1.95473626003166720E-04  1.97932381535319670E-04
  2.00422064404783901E-04  2.02943063629573397E-04  2.05495773120945881E-04
  2.08080591744952924E-04  2.10697923384763405E-04  2.13348177003770803E-04
  2.16031766709495445E-04  2.18749111818288504E-04  2.21500636920851689E-04
  2.24286771948580335E-04  2.27107952240740679E-04  2.29964618612493596E-04
  2.32857217423771367E-04  2.35786200649023284E-04  2.38752025947837338E-04
  2.41755156736450335E-04  2.44796062260158325E-04  2.47875217666635849E-04
  2.50993104080179832E-04  2.54150208676885855E-04  2.57347024760769987E-04
  2.60584051840849820E-04  2.63861795709192167E-04  2.67180768519945057E-04
  2.70541488869362645E-04  2.73944481876836859E-04  2.77390279266948839E-04
  2.80879419452551298E-04  2.84412447618896756E-04  2.87989915808824280E-04
  2.91612383009016768E-04  2.95280415237344650E-04  2.98994585631306054E-04
  3.02755474537581522E-04  3.06563669602714299E-04  3.10419765864930865E-04
  3.14324365847118057E-04  3.18278079650966667E-04  3.22281525052302634E-04
  3.26335327597614805E-04  3.30440120701798207E-04  3.34596545747127224E-04
  3.38805252183471174E-04  3.43066897629773460E-04  3.47382147976805372E-04
  3.51751677491212843E-04  3.56176168920872989E-04  3.60656313601573038E-04
  3.65192811565034328E-04  3.69786371648293181E-04  3.74437711604458010E-04
  3.79147558214860763E-04  3.83916647402616368E-04  3.88745724347613051E-04
  3.93635543602948335E-04  3.98586869212829028E-04  4.03600474831955817E-04
  4.08677143846406660E-04  4.13817669496043699E-04  4.19022854998457952E-04
  4.24293513674474008E-04  4.29630469075233969E-04  4.35034555110876912E-04
  4.40506616180840632E-04  4.46047507305800158E-04  4.51658094261266616E-04
  4.57339253712867305E-04  4.63091873353324557E-04  4.68916852041161090E-04
  4.74815099941147765E-04  4.80787538666518986E-04  4.86835101422976324E-04
  4.92958733154505143E-04  4.99159390691021740E-04  5.05438042897881409E-04
  5.11795670827265591E-04  5.18233267871472504E-04  5.24751839918138462E-04
  5.31352405507407510E-04  5.38035995991082002E-04  5.44803655693772886E-04
  5.51656442076077112E-04  5.58595425899809941E-04  5.65621691395310779E-04
  5.72736336430858554E-04  5.79940472684214612E-04  5.87235225816325245E-04
  5.94621735647209420E-04  6.02101156334055904E-04  6.09674656551563812E-04
  6.17343419674550769E-04  6.25108643962856108E-04  6.32971542748574675E-04
  6.40933344625638354E-04  6.48995293641788703E-04  6.57158649492961934E-04
  6.65424687720117362E-04  6.73794699908546722E-04  6.82269993889682682E-04
  6.90851893945453174E-04  6.99541741015201704E-04  7.08340892905211803E-04
  7.17250724500869893E-04  7.26272627981489104E-04  7.35408013037843595E-04
  7.44658307092434420E-04  7.54024955522526936E-04  7.63509421885996188E-04
  7.73113188150007045E-04  7.82837754922577345E-04  7.92684641687050272E-04
  8.02655387039515446E-04  8.12751548929221100E-04  8.22974704902003059E-04
  8.33326452346780920E-04  8.43808408745153754E-04  8.54422211924133921E-04
  8.65169520312063451E-04  8.76052013197742806E-04  8.87071390992825808E-04
  8.98229375497512487E-04  9.09527710169581597E-04  9.20968160396813977E-04
  9.32552513772832666E-04  9.44282580376421140E-04  9.56160193054351321E-04
  9.68187207707768430E-04  9.80365503582182867E-04  9.92696983561101214E-04
  1.00518357446335860E-03  1.01782722734418776E-03  1.03062991780007414E-03
  1.04359364627745039E-03  1.05672043838526551E-03  1.07001234521149281E-03
  1.08347144364361611E-03  1.09709983669314774E-03  1.11089965382423069E-03
  1.12487305128636641E-03  1.13902221245133772E-03  1.15334934815436311E-03
  1.16785669703954424E-03  1.18254652590966177E-03  1.19742113008036223E-03
  1.21248283373880995E-03  1.22773399030684472E-03  1.24317698280870825E-03
  1.25881422424339992E-03  1.27464815796170684E-03  1.29068125804798718E-03
  1.30691602970674919E-03  1.32335500965409286E-03  1.34000076651408272E-03
  1.35685590122009347E-03  1.37392304742121429E-03  1.39120487189376319E-03
  1.40870407495797233E-03  1.42642339089992551E-03  1.44436558839878800E-03
  1.46253347095942230E-03  1.48092987735044140E-03  1.49955768204777036E-03
  1.51841979568379448E-03  1.53751916550214324E-03  1.55685877581820909E-03
  1.57644164848545006E-03  1.59627084336756079E-03  1.61634945881658737E-03
  1.63668063215704281E-03  1.65726754017612543E-03  1.67811339962009717E-03
  1.69922146769690670E-03  1.72059504258513822E-03  1.74223746394935137E-03
  1.76415211346191625E-03  1.78634241533140513E-03  1.80881183683762980E-03
  1.83156388887341782E-03  1.85460212649318844E-03  1.87793014946844097E-03
  1.90155160285022549E-03  1.92547017753869304E-03  1.94968961085979949E-03
  1.97421368714927829E-03  1.99904623834394309E-03  2.02419114458043904E-03
  2.04965233480152581E-03  2.07543378736997413E-03  2.10153953069020308E-03
  2.12797364383771753E-03  2.15474025719647726E-03  2.18184355310427737E-03
  2.20928776650624421E-03  2.23707718561655996E-03  2.26521615258849698E-03
  2.29370906419289287E-03  2.32256037250515735E-03  2.35177458560091070E-03
  2.38135626826038813E-03  2.41131004268168745E-03  2.44164058920300336E-03
  2.47235264703394002E-03  2.50345101499601470E-03  2.53494055227249451E-03
  2.56682617916764331E-03  2.59911287787553463E-03  2.63180569325853139E-03
  2.66490973363554861E-03  2.69843017158024863E-03  2.73237224472925710E-03
  2.76674125660055772E-03  2.80154257742218230E-03  2.83678164497130989E-03
  2.87246396542394349E-03  2.90859511421524743E-03  2.94518073691072899E-03
  2.98222655008837084E-03  3.01973834223185017E-03  3.05772197463500964E-03
  3.09618338231768941E-03  3.13512857495308866E-03  3.17456363780679526E-03
  3.21449473268760680E-03  3.25492809891034327E-03  3.29587005427073657E-03
  3.33732699603260779E-03  3.37930540192745571E-03  3.42181183116660329E-03
  3.46485292546610266E-03  3.50843541008450397E-03  3.55256609487369663E-03
  3.59725187534296661E-03  3.64249973373642361E-03  3.68831674012400166E-03
  3.73471005350616220E-03  3.78168692293250844E-03  3.82925468863446611E-03
  3.87742078317220105E-03  3.92619273259598150E-03  3.97557815762213194E-03
  4.02558477482378545E-03  4.07622039783662234E-03  4.12749293857975468E-03
  4.17941040849199169E-03  4.23198091978363184E-03  4.28521268670401835E-03
  4.33911402682503767E-03  4.39369336234074221E-03  4.44895922138335235E-03
  4.50492023935578252E-03  4.56158516028094038E-03  4.61896283816801232E-03
  4.67706223839589770E-03  4.73589243911409254E-03  4.79546263266114776E-03
  4.85578212700099772E-03  4.91686034717735837E-03  4.97870683678639479E-03
  5.04133125946793804E-03  5.10474340041544138E-03  5.16895316790493865E-03
  5.23397059484324075E-03  5.29980584033558268E-03  5.36646919127301350E-03
  5.43397106393974944E-03  5.50232200564072273E-03  5.57153269634964258E-03
  5.64161395037773676E-03  5.71257671806352924E-03  5.78443208748384823E-03
  5.85719128618635270E-03  5.93086568294387464E-03  6.00546678953079761E-03
  6.08100626252179761E-03  6.15749590511322376E-03  6.23494766896734269E-03
  6.31337365607984036E-03  6.39278612067075997E-03  6.47319747109925507E-03
  6.55462027180243618E-03  6.63706724525855996E-03  6.72055127397497808E-03
  6.80508540250102274E-03  6.89068283946625820E-03  6.97735695964436624E-03
  7.06512130604295980E-03  7.15398959201972613E-03  7.24397570342514945E-03
  7.33509370077221369E-03  7.42735782143339081E-03  7.52078248186524058E-03
  7.61538227986103579E-03  7.71117199683167380E-03  7.80816660011531688E-03
  7.90638124531606833E-03  8.00583127867205389E-03  8.10653223945332832E-03
  8.20849986238988277E-03  8.31175008013025629E-03  8.41629902573104091E-03
  8.52216303517768295E-03  8.62935864993705400E-03  8.73790261954204318E-03
  8.84781190420873102E-03  8.95910367748647095E-03  9.07179532894125153E-03
  9.18590446687289272E-03  9.30144892106635375E-03  9.41844674557766950E-03
  9.53691622155496480E-03  9.65687586009488300E-03  9.77834440513500845E-03
  9.90134083638263482E-03  1.00258843722803755E-02  1.01519944730091086E-02
  1.02796908435286403E-02  1.04089934366566692E-02  1.05399224561864395E-02
  1.06724983600436207E-02  1.08067418634829309E-02  1.09426739423248934E-02
  1.10803158362333919E-02  1.12196890520343782E-02  1.13608153670763760E-02
  1.15037168326332425E-02  1.16484157773496973E-02  1.17949348107302520E-02
  1.19432968266719678E-02  1.20935250070416701E-02  1.22456428252981954E-02
  1.23996740501601220E-02  1.25556427493197266E-02  1.27135732932035644E-02
  1.28734903587804234E-02  1.30354189334171700E-02  1.31993843187830223E-02
  1.33654121348030456E-02  1.35335283236612727E-02  1.37037591538542482E-02
  1.38761312242955299E-02  1.40506714684718141E-02  1.42274071586513621E-02
  1.44063659101453297E-02  1.45875756856227411E-02  1.47710647994796860E-02
  1.49568619222635087E-02  1.51449960851526601E-02  1.53354966844928501E-02
  1.55283934863903010E-02  1.57237166313627663E-02  1.59214966390490292E-02
  1.61217644129776801E-02  1.63245512453958422E-02  1.65298888221586567E-02
  1.67378092276802559E-02  1.69483449499470140E-02  1.71615288855938783E-02
  1.73773943450445181E-02  1.75959750577161581E-02  1.78173051772898480E-02
  1.80414192870470835E-02  1.82683524052734692E-02  1.84981399907304320E-02
  1.87308179481957097E-02  1.89664226340735334E-02  1.92049908620754162E-02
  1.94465599089723579E-02  1.96911675204194080E-02  1.99388519168535241E-02
  2.01896517994655453E-02  2.04436063562474062E-02  2.07007552681152673E-02
  2.09611387151097880E-02  2.12247973826743160E-02  2.14917724680120659E-02
  2.17621056865232934E-02  2.20358392783233902E-02  2.23130160148429860E-02
  2.25936792055110927E-02  2.28778727045222501E-02  2.31656409176888879E-02
  2.34570288093797694E-02  2.37520819095458184E-02  2.40508463208342245E-02
  2.43533687257920795E-02  2.46596963941606538E-02  2.49698771902613602E-02
  2.52839595804746527E-02  2.56019926408130143E-02  2.59240260645891632E-02
  2.62501101701807342E-02  2.65802959088926663E-02  2.69146348729183901E-02
  2.72531793034012718E-02  2.75959820985973228E-02  2.79430968221407380E-02
  2.82945777114132942E-02  2.86504796860190154E-02  2.90108583563655417E-02
  2.93757700323532926E-02  2.97452717321740681E-02  3.01194211912202206E-02
  3.04982768711059352E-02  3.08818979688019954E-02  3.12703444258853880E-02
  3.16636769379053315E-02  3.20619569638670721E-02  3.24652467358349794E-02
  3.28736092686564216E-02  3.32871083698079648E-02  3.37058086493654402E-02
  3.41297755300993752E-02  3.45590752576974553E-02  3.49937749111155494E-02
  3.54339424130588818E-02  3.58796465405951739E-02  3.63309569359011389E-02
  3.67879441171442417E-02  3.72506794895013094E-02  3.77192353563157029E-02
  3.81936849303949055E-02  3.86741023454501356E-02  3.91605626676799073E-02
  3.96531419074993008E-02  4.01519170314166771E-02  4.06569659740599193E-02
  4.11683676503538584E-02  4.16862019678508541E-02  4.22105498392165573E-02
  4.27414931948726790E-02  4.32791149957987425E-02  4.38234992464949374E-02
  4.43747310081080010E-02  4.49328964117221771E-02  4.54980826718173678E-02
  4.60703780998966000E-02  4.66498721182848491E-02  4.72366552741014870E-02
  4.78308192534084228E-02  4.84324568955362619E-02  4.90416622075906319E-02
  4.96585303791409680E-02  5.02831577970941149E-02  5.09156420607549398E-02
  5.15560819970764320E-02  5.22045776761016142E-02  5.28612304265997507E-02
  5.35261428518990362E-02  5.41994188459187370E-02  5.48811636094026639E-02
  5.55714836663571549E-02  5.62704868806955943E-02  5.69782824730923204E-02
  5.76949810380486885E-02  5.84206945611736028E-02  5.91555364366815190E-02
  5.98996214851105629E-02  6.06530659712633674E-02  6.14159876223738035E-02
  6.21885056465020375E-02  6.29707407511610195E-02  6.37628151621773553E-02
  6.45648526427892305E-02  6.53769785129847542E-02  6.61993196690834201E-02
  6.70320046035639550E-02  6.78751634251414659E-02  6.87289278790972485E-02
  6.95934313678642225E-02  7.04688089718713689E-02  7.13551974706502778E-02
  7.22527353642072462E-02  7.31615628946642171E-02  7.40818220681718209E-02
  7.50136566770982088E-02  7.59572123224968865E-02  7.69126364368570847E-02
  7.78800783071405267E-02  7.88596890981076853E-02  7.98516218759377366E-02
  8.08560316321452754E-02  8.18730753077982210E-02  8.29029118180400759E-02
  8.39457020769207723E-02  8.50016090225398507E-02  8.60707976425058169E-02
  8.71534349997158120E-02  8.82496902584595788E-02  8.93597347108515960E-02
  9.04837418035960017E-02  9.16218871650878036E-02  9.27743486328553163E-02
  9.39413062813476141E-02  9.51229424500714404E-02  9.63194417720822094E-02
  9.75309912028333031E-02  9.87577800493881774E-02  1.00000000000000047E-01
  1.01257845154063483E-01  1.02531512052442930E-01  1.03821199708182557E-01
  1.05127109637602453E-01  1.06449445891785982E-01  1.07788415088463194E-01
  1.09144226444295223E-01  1.10517091807564818E-01  1.11907225691278089E-01
  1.13314845306682677E-01  1.14740170597207272E-01  1.16183424272828351E-01
  1.17644831844869097E-01  1.19124621661235858E-01  1.20623024942098117E-01
  1.22140275816017024E-01  1.23676611356528521E-01  1.25232271619186486E-01
  1.26807499679071983E-01  1.28402541668774212E-01  1.30017646816849158E-01
  1.31653067486762226E-01  1.33309059216320330E-01  1.34985880757600374E-01
  1.36683794117379687E-01  1.38403064598075193E-01  1.40143960839197390E-01
  1.41906754859325773E-01  1.43691722098612501E-01  1.45499141461820192E-01
  1.47329295361901591E-01  1.49182469764127107E-01  1.51058954230767317E-01
  1.52959041966337944E-01  1.54883029863413374E-01  1.56831218549016937E-01
  1.58803912431594391E-01  1.60801419748578367E-01  1.62824052614551074E-01
  1.64872127070012892E-01  1.66945963130764347E-01  1.69045884837909222E-01
  1.71172220308486500E-01  1.73325301786739605E-01  1.75505465696029928E-01
  1.77713052691403917E-01  1.79948407712820946E-01  1.82211880039050977E-01
  1.84503823342250073E-01  1.86824595743222327E-01  1.89174559867377023E-01
  1.91554082901389700E-01  1.93963536650575474E-01  1.96403297596984772E-01
  1.98873746958229292E-01  2.01375270747047752E-01  2.03908259831621613E-01
  2.06473109996648724E-01  2.09070222005185657E-01  2.11700001661267567E-01
  2.14362859873315992E-01  2.17059212718344330E-01  2.19789481506970252E-01
  2.22554092849246876E-01  2.25353478721320943E-01  2.28188076532930439E-01
  2.31058329195750506E-01  2.33964685192599220E-01  2.36907598647514067E-01
  2.39887529396709903E-01  2.42904943060428924E-01  2.45960311115695079E-01
  2.49054110969983172E-01  2.52186826035814937E-01  2.55358945806292814E-01
  2.58570965931584740E-01  2.61823388296370196E-01  2.65116721098260788E-01
  2.68451478927207110E-01  2.71828182845904653E-01  2.75247360471210567E-01
  2.78709546056585156E-01  2.82215280575570160E-01  2.85765111806316530E-01
  2.89359594417176180E-01  2.92999290053370276E-01  2.96684767424746865E-01
  3.00416602394643462E-01  3.04195378069866518E-01  3.08021684891803260E-01
  3.11896120728679338E-01  3.15819290968976873E-01  3.19791808616027740E-01
  3.23814294383796220E-01  3.27887376793867535E-01  3.32011692273654901E-01
  3.36187885255843033E-01  3.40416608279082100E-01  3.44698522089947612E-01
  3.49034295746184275E-01  3.53424606721247092E-01  3.57870141010158016E-01
  3.62371593236694378E-01  3.66929666761924622E-01  3.71545073794110559E-01
  3.76218535499991180E-01  3.80950782117466247E-01  3.85742553069697625E-01
  3.90594597080645367E-01  3.95507672292057910E-01  4.00482546381932647E-01
  4.05519996684467643E-01  4.10620810311521478E-01  4.15785784275600978E-01
  4.21015725614396263E-01  4.26311451516881934E-01  4.31673789451004652E-01
  4.37103577292975998E-01  4.42601663458193628E-01  4.48168907033806740E-01
  4.53806177912950470E-01  4.59514356930669110E-01  4.65294336001547293E-01
  4.71147018259074346E-01  4.77073318196760521E-01  4.83074161811028080E-01
  4.89150486745900726E-01  4.95303242439511737E-01  5.01533390272456137E-01
  5.07841903718008303E-01  5.14229768494228745E-01  5.20697982717985175E-01
  5.27247557060909422E-01  5.33879514907317887E-01  5.40594892514116965E-01
  5.47394739172720191E-01  5.54280117373002534E-01  5.61252102969316047E-01
  5.68311785348594611E-01  5.75460267600573339E-01  5.82698666690147582E-01
  5.90028113631901996E-01  5.97449753666832728E-01  6.04964746441294943E-01
  6.12574266188198879E-01  6.20279501910486752E-01  6.28081657566916696E-01
  6.35981952260183503E-01  6.43981620427406254E-01  6.52081912033011468E-01
  6.60284092764042985E-01  6.68589444227927321E-01  6.76999264152727931E-01
  6.85514866589918226E-01  6.94137582119703778E-01  7.02868758058929677E-01
  7.11709758671599912E-01  7.20661965382047187E-01  7.29726776990783477E-01
  7.38905609893065307E-01  7.48199898300208277E-01  7.57611094463684909E-01
  7.67140668902043354E-01  7.76790110630677821E-01  7.86560927394489573E-01
  7.96454645903477698E-01  8.06472812071287515E-01  8.16616991256765568E-01
  8.26888768508547423E-01  8.37289748812726886E-01  8.47821557343637844E-01
  8.58485839717789689E-01  8.69284262251000861E-01  8.80218512218761240E-01
  8.91290298119874036E-01  9.02501349943412690E-01  9.13853419439032755E-01
  9.25348280390689837E-01  9.36987728893793559E-01  9.48773583635852957E-01
  9.60707686180650833E-01  9.72791901255988689E-01  9.85028117045058993E-01
  9.97418245481472732E-01  1.00996422254800566E+00  1.02266800857910045E+00
  1.03553158856716943E+00  1.04855697247275792E+00  1.06174619553860117E+00
  1.07510131860763591E+00  1.08862442844501439E+00  1.10231763806416039E+00
  1.11618308705693736E+00  1.13022294192795902E+00  1.14443939643311277E+00
  1.15883467192233969E+00  1.17341101768672140E+00  1.18817071130994067E+00
  1.20311605902415386E+00  1.21824939607034777E+00  1.23357308706322621E+00
  1.24908952636068138E+00  1.26480113843792319E+00  1.28071037826630407E+00
  1.29681973169691411E+00  1.31313171584900235E+00  1.32964887950327881E+00
  1.34637380350016977E+00  1.36330910114307646E+00  1.38045741860671023E+00
  1.39782143535056402E+00  1.41540386453758082E+00  1.43320745345809364E+00
  1.45123498395909256E+00  1.46948927287889486E+00  1.48797317248728445E+00
  1.50668957093117917E+00  1.52564139268591648E+00  1.54483159901220257E+00
  1.56426318841881784E+00  1.58393919713114251E+00  1.60386269956556760E+00
  1.62403680880988444E+00  1.64446467710970623E+00  1.66514949636101517E+00
  1.68609449860890415E+00  1.70730295655258613E+00  1.72877818405676509E+00
  1.75052353666942895E+00  1.77254241214616504E+00  1.79483825098106498E+00
  1.81741453694430666E+00  1.84027479762650548E+00  1.86342260498990164E+00
  1.88686157592648907E+00  1.91059537282316572E+00  1.93462770413398166E+00
  1.95896232495960021E+00  1.98360303763403323E+00  2.00855369231876768E+00
  2.03381818760436195E+00  2.05940047111960345E+00  2.08530454014834188E+00
  2.11153444225406250E+00  2.13809427591233536E+00  2.16498819115120700E+00
  2.19222039019964710E+00  2.21979512814416458E+00  2.24771671359366243E+00
  2.27598950935267386E+00  2.30461793310305918E+00  2.33360645809427236E+00
  2.36295961384232278E+00  2.39268198683751532E+00  2.42277822126109887E+00
  2.45325301971093612E+00  2.48411114393628463E+00  2.51535741558183767E+00
  2.54699671694110963E+00  2.57903399171930747E+00  2.61147424580579779E+00
  2.64432254805628020E+00  2.67758403108481335E+00  2.71126389206579077E+00
  2.74536739354601123E+00  2.77989986426696811E+00  2.81486669999746564E+00
  2.85027336437672929E+00  2.88612538976810340E+00  2.92242837812349521E+00
  2.95918800185869690E+00  2.99641000473970243E+00  3.03410020278019354E+00
  3.07226448515029338E+00  3.11090881509676764E+00  3.15003923087479532E+00
  3.18966184669145125E+00  3.22978285366106954E+00  3.27040852077261723E+00
  3.31154519586923257E+00  3.35319930664009513E+00  3.39537736162475667E+00
  3.43808595123012006E+00  3.48133174876020490E+00  3.52512151145885611E+00
  3.56946208156558953E+00  3.61436038738469501E+00  3.65982344436780105E+00
  3.70585835621005932E+00  3.75247231596010167E+00  3.79967260714397792E+00
  3.84746660490321535E+00  3.89586177714719861E+00  3.94486568572005547E+00
  3.99448598758219564E+00  4.04473043600674131E+00  4.09560688179098253E+00
  4.14712327448307683E+00  4.19928766362420092E+00  4.25210820000628065E+00
  4.30559313694559442E+00  4.35975083157235321E+00  4.41458974613652533E+00
  4.47011844933008540E+00  4.52634561762587850E+00  4.58328003663334904E+00
  4.64093060247129952E+00  4.69930632315793062E+00  4.75841632001837045E+00
  4.81826982910988377E+00  4.87887620266504385E+00  4.94024491055302128E+00
  5.00238554175927685E+00  5.06530780588386698E+00  5.12902153465857236E+00
  5.19353668348314734E+00  5.25886333298084718E+00  5.32501169057356449E+00
  5.39199209207675700E+00  5.45981500331442859E+00  5.52849102175444340E+00
  5.59803087816441547E+00  5.66844543828838177E+00  5.73974570454462363E+00
  5.81194281774480359E+00  5.88504805883474091E+00  5.95907285065709935E+00
  6.03402875973620034E+00  6.10992749808533731E+00  6.18678092503679444E+00
  6.26460104909488624E+00  6.34340002981233475E+00  6.42319017969018979E+00
  6.50398396610170160E+00  6.58579401324037583E+00  6.66863310409252108E+00
  6.75251418243461465E+00  6.83745035485581543E+00  6.92345489280586435E+00
  7.01054123466879098E+00  7.09872298786269340E+00  7.18801393096590679E+00
  7.27842801586996746E+00  7.36997936995958458E+00  7.46268229832009844E+00
  7.55655128597266845E+00  7.65160100013758893E+00  7.74784629252608958E+00
  7.84530220166091574E+00  7.94398395522614020E+00  8.04390697244653197E+00
  8.14508686649681479E+00  8.24753944694130325E+00  8.35128072220412676E+00
  8.45632690207060733E+00  8.56269440022006556E+00  8.67039983679049087E+00
  8.77946004097548460E+00  8.88989205365383306E+00  9.00171313005218998E+00
  9.11494074244124519E+00  9.22959258286578788E+00  9.34568656590916547E+00
  9.46324083149241524E+00  9.58227374770869567E+00  9.70280391369334438E+00
  9.82485016253000687E+00  9.94843156419338648E+00  1.00735674285289125E+01
  1.02002773082699782E+01  1.03285810020930846E+01  1.04584985577114224E+01
  1.05900502750073926E+01  1.07232567092044562E+01  1.08581386740789689E+01
  1.09947172452123603E+01  1.11330137632842359E+01  1.12730498374069228E+01
  1.14148473485019046E+01  1.15584284527187755E+01  1.17038155848971908E+01
  1.18510314620723332E+01  1.20000990870245463E+01  1.21510417518734961E+01
  1.23038830417176648E+01  1.24586468383195452E+01  1.26153573238372179E+01
  1.27740389846028926E+01  1.29347166149488970E+01  1.30974153210818720E+01
  1.32621605250056653E+01  1.34289779684935517E+01  1.35978937171104981E+01
  1.37689341642858718E+01  1.39421260354375303E+01  1.41174963921477001E+01
  1.42950726363914011E+01  1.44748825148181002E+01  1.46569541230871181E+01
  1.48413159102576735E+01
                               </PP_R> 
 <PP_RAB type="real" size="   961" columns="3">
  1.13985245694314535E-06  1.15419003583627781E-06  1.16870795927072793E-06
  1.18340849570156751E-06  1.19829394211752484E-06  1.21336662439988611E-06
  1.22862889768592356E-06  1.24408314673688916E-06  1.25973178631063820E-06
  1.27557726153894325E-06  1.29162204830954648E-06  1.30786865365302313E-06
  1.32431961613451283E-06  1.34097750625037096E-06  1.35784492682982258E-06
  1.37492451344164789E-06  1.39221893480600421E-06  1.40973089321141558E-06
  1.42746312493700939E-06  1.44541840068007217E-06  1.46359952598896827E-06
  1.48200934170151614E-06  1.50065072438887607E-06  1.51952658680501853E-06
  1.53863987834185149E-06  1.55799358549006200E-06  1.57759073230576808E-06
  1.59743438088303072E-06  1.61752763183231018E-06  1.63787362476495022E-06
  1.65847553878373955E-06  1.67933659297965875E-06  1.70046004693486749E-06
  1.72184920123202121E-06  1.74350739796999858E-06  1.76543802128610214E-06
  1.78764449788484301E-06  1.81013029757336967E-06  1.83289893380362876E-06
  1.85595396422135848E-06  1.87929899122196561E-06  1.90293766251341468E-06
  1.92687367168618777E-06  1.95111075879041526E-06  1.97565271092027141E-06
  2.00050336280570565E-06  2.02566659741163323E-06  2.05114634654465778E-06
  2.07694659146741745E-06  2.10307136352067647E-06  2.12952474475321778E-06
  2.15631086855967833E-06  2.18343392032639985E-06  2.21089813808540093E-06
  2.23870781317658744E-06  2.26686729091826925E-06  2.29538097128613385E-06
  2.32425330960075119E-06  2.35348881722372171E-06  2.38309206226259578E-06
  2.41306767028463702E-06  2.44342032503958409E-06  2.47415476919149604E-06
  2.50527580505979902E-06  2.53678829536966763E-06  2.56869716401182368E-06
  2.60100739681191189E-06  2.63372404230954274E-06  2.66685221254713512E-06
  2.70039708386869340E-06  2.73436389772860655E-06  2.76875796151064645E-06
  2.80358464935725419E-06  2.83884940300925848E-06  2.87455773265617012E-06
  2.91071521779714225E-06  2.94732750811279131E-06  2.98440032434796672E-06
  3.02193945920562944E-06  3.05995077825197906E-06  3.09844022083294811E-06
  3.13741380100224824E-06  3.17687760846107318E-06  3.21683780950962509E-06
  3.25730064801062301E-06  3.29827244636490226E-06  3.33975960649931321E-06
  3.38176861086703332E-06  3.42430602346046100E-06  3.46737849083686066E-06
  3.51099274315689122E-06  3.55515559523620978E-06  3.59987394761030384E-06
  3.64515478761270959E-06  3.69100519046680821E-06  3.73743232039132576E-06
  3.78444343171976903E-06  3.83204587003392924E-06  3.88024707331163581E-06
  3.92905457308897622E-06  3.97847599563708351E-06  4.02851906315378292E-06
  4.07919159497018524E-06  4.13050150877247759E-06  4.18245682183909047E-06
  4.23506565229339001E-06  4.28833622037216825E-06  4.34227684971006698E-06
  4.39689596864016037E-06  4.45220211151091254E-06  4.50820392001966315E-06
  4.56491014456292927E-06  4.62232964560366477E-06  4.68047139505572546E-06
  4.73934447768575954E-06  4.79895809253270510E-06  4.85932155434516365E-06
  4.92044429503685419E-06  4.98233586516036335E-06  5.04500593539944805E-06
  5.10846429808008375E-06  5.17272086870054658E-06  5.23778568748072457E-06
  5.30366892093092526E-06  5.37038086344042495E-06  5.43793193888596140E-06
  5.50633270226050790E-06  5.57559384132250232E-06  5.64572617826583270E-06
  5.71674067141084198E-06  5.78864841691655764E-06  5.86146065051451396E-06
  5.93518874926434723E-06  6.00984423333148749E-06  6.08543876778720439E-06
  6.16198416443131445E-06  6.23949238363777191E-06  6.31797553622351812E-06
  6.39744588534082006E-06  6.47791584839340631E-06  6.55939799897673146E-06
  6.64190506884259455E-06  6.72544994988852554E-06  6.81004569617216175E-06
  6.89570552595096424E-06  6.98244282374762460E-06  7.07027114244138508E-06
  7.15920420538573193E-06  7.24925590855268299E-06  7.34044032270406607E-06
  7.43277169559011826E-06  7.52626445417569948E-06  7.62093320689454782E-06
  7.71679274593188427E-06  7.81385804953570136E-06  7.91214428435718378E-06
  8.01166680782048044E-06  8.11244117052235980E-06  8.21448311866202384E-06
  8.31780859650146771E-06  8.42243374885683402E-06  8.52837492362103454E-06
  8.63564867431816434E-06  8.74427176269002197E-06  8.85426116131514720E-06
  8.96563405626087435E-06  9.07840784976861482E-06  9.19260016297304629E-06
  9.30822883865543059E-06  9.42531194403158704E-06  9.54386777357495336E-06
  9.66391485187508806E-06  9.78547193653221749E-06  9.90855802108812908E-06
  1.00331923379939444E-05  1.01593943616152651E-05  1.02871838112750386E-05
  1.04165806543347625E-05  1.05476051093144223E-05  1.06802776490516747E-05
  1.08146190039007935E-05  1.09506501649717857E-05  1.10883923874103240E-05
  1.12278671937189061E-05  1.13690963771197713E-05  1.15121020049601757E-05
  1.16569064221604093E-05  1.18035322547052642E-05  1.19520024131793925E-05
  1.21023400963471064E-05  1.22545687947772862E-05  1.24087122945137655E-05
  1.25647946807919832E-05  1.27228403418023470E-05  1.28828739725009268E-05
  1.30449205784681298E-05  1.32090054798158199E-05  1.33751543151436609E-05
  1.35433930455452028E-05  1.37137479586643468E-05  1.38862456728028837E-05
  1.40609131410795801E-05  1.42377776556417226E-05  1.44168668519295392E-05
  1.45982087129943037E-05  1.47818315738707725E-05  1.49677641260045288E-05
  1.51560354217351254E-05  1.53466748788355604E-05  1.55397122851088531E-05
  1.57351778030424996E-05  1.59331019745213375E-05  1.61335157255998390E-05
  1.63364503713343670E-05  1.65419376206761615E-05  1.67500095814260360E-05
  1.69606987652511704E-05  1.71740380927651807E-05  1.73900608986720419E-05
  1.76088009369746561E-05  1.78302923862490695E-05  1.80545698549848520E-05
  1.82816683869927795E-05  1.85116234668805188E-05  1.87444710255971295E-05
  1.89802474460474317E-05  1.92189895687767931E-05  1.94607346977276164E-05
  1.97055206060681278E-05  1.99533855420945099E-05  2.02043682352073428E-05
  2.04585079019630371E-05  2.07158442522015692E-05  2.09764174952512173E-05
  2.12402683462113338E-05  2.15074380323142297E-05  2.17779682993668949E-05
  2.20519014182739537E-05  2.23292801916425648E-05  2.26101479604703753E-05
  2.28945486109177228E-05  2.31825265811648582E-05  2.34741268683555149E-05
  2.37693950356278214E-05  2.40683772192336637E-05  2.43711201357474949E-05
  2.46776710893659806E-05  2.49880779792992893E-05  2.53023893072554893E-05
  2.56206541850190747E-05  2.59429223421246767E-05  2.62692441336275412E-05
  2.65996705479714719E-05  2.69342532149559678E-05  2.72730444138034672E-05
  2.76160970813280547E-05  2.79634648202069995E-05  2.83152019073562136E-05
  2.86713633024111622E-05  2.90320046563144669E-05  2.93971823200113864E-05
  2.97669533532548530E-05  3.01413755335210938E-05  3.05205073650375420E-05
  3.09044080879242530E-05  3.12931376874501865E-05  3.16867569034061841E-05
  3.20853272395955441E-05  3.24889109734441856E-05  3.28975711657316410E-05
  3.33113716704443603E-05  3.37303771447531079E-05  3.41546530591157151E-05
  3.45842657075069742E-05  3.50192822177772828E-05  3.54597705621413777E-05
  3.59057995677992950E-05  3.63574389276905916E-05  3.68147592113841123E-05
  3.72778318761046382E-05  3.77467292778981285E-05  3.82215246829376259E-05
  3.87022922789711230E-05  3.91891071869136082E-05  3.96820454725849435E-05
  4.01811841585950850E-05  4.06866012363792963E-05  4.11983756783842084E-05
  4.17165874504075987E-05  4.22413175240931977E-05  4.27726478895825425E-05
  4.33106615683262887E-05  4.38554426260563037E-05  4.44070761859212092E-05
  4.49656484417870826E-05  4.55312466717053006E-05  4.61039592515500207E-05
  4.66838756688270275E-05  4.72710865366563556E-05  4.78656836079308318E-05
  4.84677597896525145E-05  4.90774091574497741E-05  4.96947269702766492E-05
  5.03198096852973222E-05  5.09527549729577834E-05  5.15936617322469389E-05
  5.22426301061499002E-05  5.28997614972953994E-05  5.35651585838002321E-05
  5.42389253353129763E-05  5.49211670292592776E-05  5.56119902672919071E-05
  5.63115029919472842E-05  5.70198145035117601E-05  5.77370354771001594E-05
  5.84632779799487240E-05  5.91986554889261567E-05  5.99432829082643525E-05
  6.06972765875124742E-05  6.14607543397169769E-05  6.22338354598299376E-05
  6.30166407433492283E-05  6.38092925051930254E-05  6.46119145988117332E-05
  6.54246324355405175E-05  6.62475730041947835E-05  6.70808648909126742E-05
  6.79246382992468680E-05  6.87790250705090368E-05  6.96441587043705404E-05
  7.05201743797217176E-05  7.14072089757941236E-05  7.23054010935481110E-05
  7.32148910773294169E-05  7.41358210367984384E-05  7.50683348691349783E-05
  7.60125782815224702E-05  7.69686988139153024E-05  7.79368458620917891E-05
  7.89171707009980045E-05  7.99098265083845023E-05  8.09149683887406884E-05
  8.19327533975304522E-05  8.29633405657319994E-05  8.40068909246872368E-05
  8.50635675312627843E-05  8.61335354933282383E-05  8.72169619955545861E-05
  8.83140163255370002E-05  8.94248699002465794E-05  9.05496962928143708E-05
  9.16886712596526738E-05  9.28419727679173932E-05  9.40097810233155072E-05
  9.51922784982629501E-05  9.63896499603959306E-05  9.76020825014414610E-05
  9.88297655664508622E-05  1.00072890983400679E-04  1.01331652993166615E-04
  1.02606248279873535E-04  1.03896876001628206E-04  1.05203737821638017E-04
  1.06527037939721045E-04  1.07866983124213183E-04  1.09223782744275545E-04
  1.10597648802609143E-04  1.11988795968580895E-04  1.13397441611765655E-04
  1.14823805835911164E-04  1.16268111513329433E-04  1.17730584319720877E-04
  1.19211452769437063E-04  1.20710948251186043E-04  1.22229305064187600E-04
  1.23766760454782946E-04  1.25323554653504704E-04  1.26899930912613873E-04
  1.28496135544107999E-04  1.30112417958208371E-04  1.31749030702330505E-04
  1.33406229500545253E-04  1.35084273293536642E-04  1.36783424279061179E-04
  1.38503947952917415E-04  1.40246113150429739E-04  1.42010192088454711E-04
  1.43796460407915531E-04  1.45605197216871210E-04  1.47436685134128172E-04
  1.49291210333399614E-04  1.51169062588020882E-04  1.53070535316227459E-04
  1.54995925627001536E-04  1.56945534366496604E-04  1.58919666165044556E-04
  1.60918629484755303E-04  1.62942736667714635E-04  1.64992303984787790E-04
  1.67067651685038092E-04  1.69169104045765919E-04  1.71296989423178108E-04
  1.73451640303694130E-04  1.75633393355897676E-04  1.77842589483142037E-04
  1.80079573876816627E-04  1.82344696070284285E-04  1.84638309993496086E-04
  1.86960774028293865E-04  1.89312451064408256E-04  1.91693708556160626E-04
  1.94104918579878784E-04  1.96546457892034590E-04  1.99018707988112876E-04
  2.01522055162221022E-04  2.04056890567448033E-04  2.06623610276983208E-04
  2.09222615346003221E-04  2.11854311874337697E-04  2.14519111069923479E-04
  2.17217429313056477E-04  2.19949688221451986E-04  2.22716314716123117E-04
  2.25517741088088550E-04  2.28354405065918364E-04  2.31226749884130416E-04
  2.34135224352446377E-04  2.37080282925919184E-04  2.40062385775942718E-04
  2.43081998862154473E-04  2.46139594005242600E-04  2.49235648960669052E-04
  2.52370647493319349E-04  2.55545079453092577E-04  2.58759440851440863E-04
  2.62014233938872372E-04  2.65309967283428949E-04  2.68647155850150823E-04
  2.72026321081541157E-04  2.75447990979042377E-04  2.78912700185537346E-04
  2.82420990068888659E-04  2.85973408806528147E-04  2.89570511471111131E-04
  2.93212860117247117E-04  2.96901023869322774E-04  3.00635579010427817E-04
  3.04417109072401037E-04  3.08246204927008173E-04  3.12123464878267046E-04
  3.16049494755933158E-04  3.20024908010162689E-04  3.24050325807364583E-04
  3.28126377127259199E-04  3.32253698861158361E-04  3.36432935911479887E-04
  3.40664741292515940E-04  3.44949776232466535E-04  3.49288710276759236E-04
  3.53682221392666210E-04  3.58130996075237715E-04  3.62635729454569272E-04
  3.67197125404416169E-04  3.71815896652175851E-04  3.76492764890252779E-04
  3.81228460888824233E-04  3.86023724610024964E-04  3.90879305323567382E-04
  3.95795961723816687E-04  4.00774462048338401E-04  4.05815584197937276E-04
  4.10920115858205302E-04  4.16088854622599581E-04  4.21322608117068002E-04
  4.26622194126242190E-04  4.31988440721218212E-04  4.37422186388944400E-04
  4.42924280163236065E-04  4.48495581757439674E-04  4.54136961698764247E-04
  4.59849301464303032E-04  4.65633493618766378E-04  4.71490441953946286E-04
  4.77421061629936352E-04  4.83426279318126696E-04  4.89507033345998842E-04
  4.95664273843741238E-04  5.01898962892708463E-04  5.08212074675749056E-04
  5.14604595629423274E-04  5.21077524598135655E-04  5.27631872990207010E-04
  5.34268664935908487E-04  5.40988937447484282E-04  5.47793740581186740E-04
  5.54684137601350077E-04  5.61661205146527236E-04  5.68726033397717076E-04
  5.75879726248707501E-04  5.83123401478560636E-04  5.90458190926268587E-04
  5.97885240667605350E-04  6.05405711194203296E-04  6.13020777594882943E-04
  6.20731629739262165E-04  6.28539472463676479E-04  6.36445525759436769E-04
  6.44451024963455443E-04  6.52557220951270199E-04  6.60765380332496949E-04
  6.69076785648738018E-04  6.77492735573984235E-04  6.86014545117533342E-04
  6.94643545829464523E-04  7.03381086008694951E-04  7.12228530913654049E-04
  7.21187262975608607E-04  7.30258682014670122E-04  7.39444205458519030E-04
  7.48745268563882059E-04  7.58163324640792179E-04  7.67699845279672588E-04
  7.77356320581275490E-04  7.87134259389512788E-04  7.97035189527217029E-04
  8.07060658034865382E-04  8.17212231412309449E-04  8.27491495863542795E-04
  8.37900057544549459E-04  8.48439542814268346E-04  8.59111598488715694E-04
  8.69917892098302781E-04  8.80860112148392155E-04  8.91939968383128473E-04
  9.03159192052590577E-04  9.14519536183302758E-04  9.26022775852147805E-04
  9.37670708463727610E-04  9.49465154031211103E-04  9.61407955460713646E-04
  9.73500978839256584E-04  9.85746113726346067E-04  9.98145273449221795E-04
  1.01070039540181590E-03  1.02341344134747781E-03  1.03628639772550095E-03
  1.04932127596150970E-03  1.06252011278174809E-03  1.07588497053132267E-03
  1.08941793749644774E-03  1.10312112823074469E-03  1.11699668388564504E-03
  1.13104677254495002E-03  1.14527358956359763E-03  1.15967935791069158E-03
  1.17426632851684522E-03  1.18903678062589301E-03  1.20399302215102775E-03
  1.21913739003541642E-03  1.23447225061735230E-03  1.25000000000000068E-03
  1.26572306442579354E-03  1.28164390065553676E-03  1.29776499635228201E-03
  1.31408887047003084E-03  1.33061807364732478E-03  1.34735518860579001E-03
  1.36430283055369046E-03  1.38146364759456032E-03  1.39884032114097616E-03
  1.41643556633353363E-03  1.43425213246509099E-03  1.45229280341035451E-03
  1.47056039806086388E-03  1.48905777076544822E-03  1.50778781177622655E-03
  1.52675344770021289E-03  1.54595764195660651E-03  1.56540339523983125E-03
  1.58509374598839983E-03  1.60503177085967778E-03  1.62522058521061448E-03
  1.64566334358452792E-03  1.66636324020400417E-03  1.68732350947000472E-03
  1.70854742646724621E-03  1.73003830747594004E-03  1.75179951048996742E-03
  1.77383443574157234E-03  1.79614652623265639E-03  1.81873926827275253E-03
  1.84161619202377006E-03  1.86478087205158884E-03  1.88823692788459160E-03
  1.91198802457922439E-03  1.93603787329266717E-03  1.96039023186271198E-03
  1.98504890539493014E-03  2.01001774685722950E-03  2.03530065768188842E-03
  2.06090158837516106E-03  2.08682453913455442E-03  2.11307356047386527E-03
  2.13965275385608143E-03  2.16656627233424498E-03  2.19381832120037418E-03
  2.22141315864254896E-03  2.24935509641026191E-03  2.27764850048813722E-03
  2.30629779177812582E-03  2.33530744679027926E-03  2.36468199834221314E-03
  2.39442603626737133E-03  2.42454420813219360E-03  2.45504121996230991E-03
  2.48592183697786623E-03  2.51719088433809699E-03  2.54885324789527051E-03
  2.58091387495810922E-03  2.61337777506482098E-03  2.64625002076584494E-03
  2.67953574841645016E-03  2.71324015897930412E-03  2.74736851883712824E-03
  2.78192616061558604E-03  2.81691848401651205E-03  2.85235095666163058E-03
  2.88822911494688141E-03  2.92455856490749042E-03  2.96134498309392601E-03
  2.99859411745887405E-03  3.03631178825536190E-03  3.07450388894618849E-03
  3.11317638712478974E-03  3.15233532544768706E-03  3.19198682257866052E-03
  3.23213707414480959E-03  3.27279235370462772E-03  3.31395901372825985E-03
  3.35564348659008914E-03  3.39785228557380834E-03  3.44059200589013226E-03
  3.48386932570731453E-03  3.52769100719462717E-03  3.57206389757895679E-03
  3.61699493021470225E-03  3.66249112566712854E-03  3.70855959280933607E-03
  3.75520752993304362E-03  3.80244222587333182E-03  3.85027106114754075E-03
  3.89870150910849199E-03  3.94774113711221075E-03  3.99739760770034726E-03
  4.04767867979745257E-03  4.09859220992334419E-03  4.15014615342068627E-03
  4.20234856569803774E-03  4.25520760348852608E-03  4.30873152612434515E-03
  4.36292869682730362E-03  4.41780758401558865E-03  4.47337676262697572E-03
  4.52964491545867955E-03  4.58662083452405795E-03  4.64431342242638181E-03
  4.70273169374988993E-03  4.76188477646832808E-03  4.82178191337122048E-03
  4.88243246350806778E-03  4.94384590365072422E-03  5.00603182977415843E-03
  5.06899995855584606E-03  5.13276012889401882E-03  5.19732230344501292E-03
  5.26269657017995347E-03  5.32889314396102487E-03  5.39592236813755868E-03
  5.46379471616219997E-03  5.53252079322742035E-03  5.60211133792258478E-03
  5.67257722391188105E-03  5.74392946163336440E-03  5.81617920001934168E-03
  5.88933772823842933E-03  5.96341647745950686E-03  6.03842702263785152E-03
  6.11438108432375924E-03  6.19129053049389741E-03  6.26916737840570171E-03
  6.34802379647510413E-03  6.42787210617785931E-03  6.50872478397481521E-03
  6.59059446326136847E-03  6.67349393634147393E-03  6.75743615642646241E-03
  6.84243423965900238E-03  6.92850146716253185E-03  7.01565128711645076E-03
  7.10389731685743316E-03  7.19325334500716708E-03  7.28373333362684547E-03
  7.37535142039877530E-03  7.46812192083540910E-03  7.56205933051618678E-03
  7.65717832735248599E-03  7.75349377388108441E-03  7.85102071958645835E-03
  7.94977440325229413E-03  8.04977025534257817E-03  8.15102390041264405E-03
  8.25355115955053731E-03  8.35736805284909186E-03  8.46249080190909948E-03
  8.56893583237397852E-03  8.67671977649629722E-03  8.78585947573662200E-03
  8.89637198339499925E-03  9.00827456727558949E-03  9.12158471238479381E-03
  9.23632012366331669E-03  9.35249872875260416E-03  9.47013868079606136E-03
  9.58925836127554228E-03  9.70987638288347416E-03  9.83201159243111966E-03
  9.95568307379347123E-03  1.00809101508910950E-02  1.02077123907095696E-02
  1.03361096063568428E-02  1.04661218601590864E-02  1.05977694667954737E-02
  1.07310729964723711E-02  1.08660532781375118E-02  1.10027314027345158E-02
  1.11411287264984258E-02  1.12812668742926590E-02  1.14231677429879105E-02
  1.15668535048836230E-02  1.17123466111724202E-02  1.18596697954481620E-02
  1.20088460772581358E-02  1.21598987656998600E-02  1.23128514630632385E-02
  1.24677280685184105E-02  1.26245527818500715E-02  1.27833501072387567E-02
  1.29441448570896192E-02  1.31069621559094743E-02  1.32718274442325153E-02
  1.34387664825954493E-02  1.36078053555626806E-02  1.37789704758020052E-02
  1.39522885882117174E-02  1.41277867740994892E-02  1.43054924554139110E-02
  1.44854333990292461E-02  1.46676377210840179E-02  1.48521338913742591E-02
  1.50389507378019243E-02  1.52281174508793471E-02  1.54196635882903280E-02
  1.56136190795085183E-02  1.58100142304740399E-02  1.60088797283288002E-02
  1.62102466462114257E-02  1.64141464481125307E-02  1.66206109937909845E-02
  1.68296725437521236E-02  1.70413637642884558E-02  1.72557177325838793E-02
  1.74727679418820517E-02  1.76925483067197596E-02  1.79150931682261726E-02
  1.81404372994886584E-02  1.83686159109861871E-02  1.85996646560910549E-02
  1.88336196366397403E-02  1.90705174085739580E-02  1.93103949876525342E-02
  1.95532898552352244E-02  1.97992399641392820E-02  2.00482837445695970E-02
  2.03004601101235554E-02  2.05558084638713286E-02  2.08143687045126910E-02
  2.10761812326113046E-02  2.13412869569073287E-02  2.16097273007095636E-02
  2.18815442083678639E-02  2.21567801518270657E-02  2.24354781372633136E-02
  2.27176817118038346E-02  2.30034349703313185E-02  2.32927825623737705E-02
  2.35857696990811154E-02  2.38824421602895735E-02  2.41828463016747729E-02
  2.44870290619950033E-02  2.47950379704254160E-02  2.51069211539845967E-02
  2.54227273450545257E-02  2.57425058889950431E-02  2.60663067518542742E-02
  2.63941805281757841E-02  2.67261784489041948E-02  2.70623523893900875E-02
  2.74027548774955915E-02  2.77474391018020586E-02  2.80964589199207831E-02
  2.84498688669084232E-02  2.88077241637882397E-02  2.91700807261784066E-02
  2.95369951730290355E-02  2.99085248354689429E-02  3.02847277657637380E-02
  3.06656627463867022E-02  3.10513892992035599E-02  3.14419676947729695E-02
  3.18374589617638690E-02  3.22379248964913476E-02  3.26434280725724710E-02
  3.30540318507035052E-02  3.34698003885601711E-02  3.38907986508223888E-02
  3.43170924193251445E-02  3.47487483033371014E-02  3.51858337499683232E-02
  3.56284170547091147E-02  3.60765673721012911E-02  3.65303547265436943E-02
  3.69898500232337113E-02  3.74551250592462803E-02  3.79262525347524235E-02
  3.84033060643786672E-02  3.88863601887095983E-02  3.93754903859349428E-02
  3.98707730836431462E-02  4.03722856707633693E-02  4.08801065096577182E-02
  4.13943149483654085E-02  4.19149913330011947E-02  4.24422170203094598E-02
  4.29760743903765050E-02  4.35166468595025654E-02  4.40640188932357041E-02
  4.46182760195698719E-02  4.51795048423086903E-02  4.57477930545975159E-02
  4.63232294526257429E-02  4.69059039495012750E-02  4.74959075892997240E-02
  4.80933325612901974E-02  4.86982722143399840E-02  4.93108210715006989E-02
  4.99310748447774483E-02  5.05591304500842692E-02  5.11950860223872872E-02
  5.18390409310384645E-02  5.24910957953025128E-02  5.31513525000785123E-02
  5.38199142118199331E-02  5.44968853946544152E-02  5.51823718267065721E-02
  5.58764806166260689E-02  5.65793202203234841E-02  5.72910004579168658E-02
  5.80116325308912481E-02  5.87413290394741341E-02  5.94802040002296306E-02
  6.02283728638735513E-02  6.09859525333130495E-02  6.17530613819127702E-02
  6.25298192719909579E-02  6.33163475735483428E-02  6.41127691832321517E-02
  6.49192085435393446E-02  6.57357916622605953E-02  6.65626461321695562E-02
  6.73999011509594653E-02  6.82476875414303602E-02  6.91061377719305453E-02
  6.99753859770552017E-02  7.08555679786047748E-02  7.17468213068078037E-02
  7.26492852218100504E-02  7.35631007354342614E-02  7.44884106332137502E-02
  7.54253594967025098E-02  7.63740937260667246E-02  7.73347615629599305E-02
  7.83075131136860836E-02  7.92925003726541872E-02  8.02898772461273780E-02
  8.12997995762712727E-02  8.23224251655046979E-02  8.33579138011565218E-02
  8.44064272804326832E-02  8.54681294356977039E-02  8.65431861600733099E-02
  8.76317654333598900E-02  8.87340373482836675E-02  8.98501741370738433E-02
  9.09803501983745960E-02  9.21247421244948128E-02  9.32835287290012388E-02
  9.44568910746583640E-02  9.56450125017198616E-02  9.68480786565761309E-02
  9.80662775207614551E-02  9.92997994403267553E-02  1.00548837155581661E-01
  1.01813585831210196E-01  1.03094243086766291E-01  1.04391009027551593E-01
  1.05704086275882597E-01  1.07033680002750820E-01  1.08379997959881139E-01
  1.09743250512193566E-01  1.11123650670672924E-01  1.12521414125652378E-01
  1.13936759280515568E-01  1.15369907285822360E-01  1.16821082073864574E-01
  1.18290510393655193E-01  1.19778421846358701E-01  1.21285048921166816E-01
  1.22810627031625097E-01  1.24355394552417342E-01  1.25919592856611418E-01
  1.27503466353374728E-01  1.29107262526163558E-01  1.30731231971392775E-01
  1.32375628437592402E-01  1.34040708865055702E-01  1.35726733425987123E-01
  1.37433965565154498E-01  1.39162672041052954E-01  1.40913122967586540E-01
  1.42685591856273802E-01  1.44480355658984705E-01  1.46297694811214879E-01
  1.48137893275904181E-01  1.50001238587806840E-01  1.51888021898418712E-01
  1.53798538021470810E-01  1.55733085478994338E-01  1.57691966547965245E-01
  1.59675487307536168E-01  1.61683957686861224E-01  1.63717691513523417E-01
  1.65777006562570828E-01  1.67862224606169397E-01  1.69973671463881232E-01
  1.72111677053573414E-01  1.74276575442969150E-01  1.76468704901846268E-01
  1.78688407954892520E-01  1.80936031435226269E-01  1.83211926538588976E-01
  1.85516448878220941E-01
                             </PP_RAB> 
                                  </PP_MESH>
 <PP_NLCC type="real" size="   961" columns="3">
  1.22928033393476824E-09  1.22928033378558188E-09  1.22928033363261902E-09
  1.22928033347578392E-09  1.22928033331497856E-09  1.22928033315010223E-09
  1.22928033298105216E-09  1.22928033280772225E-09  1.22928033263000457E-09
  1.22928033244778805E-09  1.22928033226095876E-09  1.22928033206940007E-09
  1.22928033187299182E-09  1.22928033167161160E-09  1.22928033146513326E-09
  1.22928033125342775E-09  1.22928033103636295E-09  1.22928033081380318E-09
  1.22928033058560948E-09  1.22928033035163897E-09  1.22928033011174521E-09
  1.22928032986577872E-09  1.22928032961358562E-09  1.22928032935500792E-09
  1.22928032908988454E-09  1.22928032881804921E-09  1.22928032853933257E-09
  1.22928032825356028E-09  1.22928032796055367E-09  1.22928032766012953E-09
  1.22928032735210009E-09  1.22928032703627281E-09  1.22928032671245021E-09
  1.22928032638043025E-09  1.22928032604000490E-09  1.22928032569096177E-09
  1.22928032533308249E-09  1.22928032496614352E-09  1.22928032458991551E-09
  1.22928032420416314E-09  1.22928032380864549E-09  1.22928032340311523E-09
  1.22928032298731884E-09  1.22928032256099657E-09  1.22928032212388186E-09
  1.22928032167570176E-09  1.22928032121617584E-09  1.22928032074501686E-09
  1.22928032026193036E-09  1.22928031976661461E-09  1.22928031925876004E-09
  1.22928031873804902E-09  1.22928031820415604E-09  1.22928031765674714E-09
  1.22928031709548049E-09  1.22928031652000577E-09  1.22928031592996336E-09
  1.22928031532498331E-09  1.22928031470468781E-09  1.22928031406868952E-09
  1.22928031341659120E-09  1.22928031274798483E-09  1.22928031206245270E-09
  1.22928031135956610E-09  1.22928031063888582E-09  1.22928030989996145E-09
  1.22928030914233122E-09  1.22928030836552136E-09  1.22928030756904652E-09
  1.22928030675240915E-09  1.22928030591509805E-09  1.22928030505659025E-09
  1.22928030417634952E-09  1.22928030327382537E-09  1.22928030234845366E-09
  1.22928030139965599E-09  1.22928030042683948E-09  1.22928029942939635E-09
  1.22928029840670271E-09  1.22928029735811893E-09  1.22928029628299010E-09
  1.22928029518064434E-09  1.22928029405039303E-09  1.22928029289152933E-09
  1.22928029170332863E-09  1.22928029048504834E-09  1.22928028923592703E-09
  1.22928028795518385E-09  1.22928028664201891E-09  1.22928028529561144E-09
  1.22928028391511917E-09  1.22928028249967914E-09  1.22928028104840730E-09
  1.22928027956039665E-09  1.22928027803471681E-09  1.22928027647041384E-09
  1.22928027486651042E-09  1.22928027322200443E-09  1.22928027153586748E-09
  1.22928026980704552E-09  1.22928026803445806E-09  1.22928026621699750E-09
  1.22928026435352791E-09  1.22928026244288421E-09  1.22928026048387237E-09
  1.22928025847526794E-09  1.22928025641581507E-09  1.22928025430422708E-09
  1.22928025213918439E-09  1.22928024991933376E-09  1.22928024764328654E-09
  1.22928024530962060E-09  1.22928024291687785E-09  1.22928024046356293E-09
  1.22928023794814205E-09  1.22928023536904273E-09  1.22928023272465343E-09
  1.22928023001332082E-09  1.22928022723335063E-09  1.22928022438300535E-09
  1.22928022146050304E-09  1.22928021846401707E-09  1.22928021539167513E-09
  1.22928021224155650E-09  1.22928020901169207E-09  1.22928020570006312E-09
  1.22928020230459982E-09  1.22928019882318005E-09  1.22928019525362791E-09
  1.22928019159371207E-09  1.22928018784114477E-09  1.22928018399358074E-09
  1.22928018004861557E-09  1.22928017600378282E-09  1.22928017185655503E-09
  1.22928016760433921E-09  1.22928016324447844E-09  1.22928015877424717E-09
  1.22928015419085139E-09  1.22928014949142637E-09  1.22928014467303499E-09
  1.22928013973266528E-09  1.22928013466722958E-09  1.22928012947356145E-09
  1.22928012414841565E-09  1.22928011868846278E-09  1.22928011309029051E-09
  1.22928010735039966E-09  1.22928010146520337E-09  1.22928009543102275E-09
  1.22928008924408545E-09  1.22928008290052543E-09  1.22928007639637739E-09
  1.22928006972757636E-09  1.22928006288995314E-09  1.22928005587923556E-09
  1.22928004869104017E-09  1.22928004132087518E-09  1.22928003376413361E-09
  1.22928002601609204E-09  1.22928001807190776E-09  1.22928000992661539E-09
  1.22928000157512427E-09  1.22927999301221447E-09  1.22927998423253351E-09
  1.22927997523059346E-09  1.22927996600076867E-09  1.22927995653728955E-09
  1.22927994683424135E-09  1.22927993688555918E-09  1.22927992668502532E-09
  1.22927991622626388E-09  1.22927990550273743E-09  1.22927989450774375E-09
  1.22927988323441020E-09  1.22927987167569127E-09  1.22927985982436196E-09
  1.22927984767301466E-09  1.22927983521405460E-09  1.22927982243969492E-09
  1.22927980934195084E-09  1.22927979591263554E-09  1.22927978214335584E-09
  1.22927976802550491E-09  1.22927975355025944E-09  1.22927973870857109E-09
  1.22927972349116407E-09  1.22927970788852643E-09  1.22927969189090591E-09
  1.22927967548830438E-09  1.22927965867046873E-09  1.22927964142688797E-09
  1.22927962374678374E-09  1.22927960561910593E-09  1.22927958703252383E-09
  1.22927956797542030E-09  1.22927954843588333E-09  1.22927952840170186E-09
  1.22927950786035239E-09  1.22927948679899644E-09  1.22927946520446965E-09
  1.22927944306327532E-09  1.22927942036157431E-09  1.22927939708517717E-09
  1.22927937321953501E-09  1.22927934874973172E-09  1.22927932366047314E-09
  1.22927929793607653E-09  1.22927927156046441E-09  1.22927924451715107E-09
  1.22927921678923223E-09  1.22927918835937931E-09  1.22927915920982073E-09
  1.22927912932233825E-09  1.22927909867825104E-09  1.22927906725840551E-09
  1.22927903504316276E-09  1.22927900201238817E-09  1.22927896814543551E-09
  1.22927893342113786E-09  1.22927889781779082E-09  1.22927886131314096E-09
  1.22927882388437278E-09  1.22927878550809050E-09  1.22927874616030921E-09
  1.22927870581643434E-09  1.22927866445125093E-09  1.22927862203890299E-09
  1.22927857855288185E-09  1.22927853396600842E-09  1.22927848825041314E-09
  1.22927844137752331E-09  1.22927839331804124E-09  1.22927834404192911E-09
  1.22927829351838684E-09  1.22927824171583577E-09  1.22927818860189863E-09
  1.22927813414337691E-09  1.22927807830623215E-09  1.22927802105556496E-09
  1.22927796235559132E-09  1.22927790216962203E-09  1.22927784046003920E-09
  1.22927777718827326E-09  1.22927771231477587E-09  1.22927764579900009E-09
  1.22927757759937141E-09  1.22927750767326314E-09  1.22927743597696851E-09
  1.22927736246567604E-09  1.22927728709343833E-09  1.22927720981314621E-09
  1.22927713057649645E-09  1.22927704933396411E-09  1.22927696603477001E-09
  1.22927688062684954E-09  1.22927679305682061E-09  1.22927670326994888E-09
  1.22927661121011531E-09  1.22927651681977957E-09  1.22927642003994465E-09
  1.22927632081012091E-09  1.22927621906828592E-09  1.22927611475084873E-09
  1.22927600779260766E-09  1.22927589812671039E-09  1.22927578568461341E-09
  1.22927567039603595E-09  1.22927555218892064E-09  1.22927543098938311E-09
  1.22927530672167118E-09  1.22927517930811383E-09  1.22927504866907362E-09
  1.22927491472289792E-09  1.22927477738586590E-09  1.22927463657213855E-09
  1.22927449219370302E-09  1.22927434416031847E-09  1.22927419237946081E-09
  1.22927403675626235E-09  1.22927387719345327E-09  1.22927371359130412E-09
  1.22927354584755739E-09  1.22927337385737042E-09  1.22927319751324281E-09
  1.22927301670495586E-09  1.22927283131949910E-09  1.22927264124100213E-09
  1.22927244635066007E-09  1.22927224652666130E-09  1.22927204164411166E-09
  1.22927183157495263E-09  1.22927161618788688E-09  1.22927139534829075E-09
  1.22927116891813428E-09  1.22927093675589306E-09  1.22927069871645997E-09
  1.22927045465105334E-09  1.22927020440712721E-09  1.22926994782827227E-09
  1.22926968475412054E-09  1.22926941502024443E-09  1.22926913845805338E-09
  1.22926885489468957E-09  1.22926856415291923E-09  1.22926826605102154E-09
  1.22926796040267653E-09  1.22926764701684623E-09  1.22926732569765737E-09
  1.22926699624427877E-09  1.22926665845079374E-09  1.22926631210607436E-09
  1.22926595699364725E-09  1.22926559289156021E-09  1.22926521957224096E-09
  1.22926483680235716E-09  1.22926444434267018E-09  1.22926404194788353E-09
  1.22926362936649338E-09  1.22926320634062740E-09  1.22926277260588723E-09
  1.22926232789117912E-09  1.22926187191854866E-09  1.22926140440300401E-09
  1.22926092505233989E-09  1.22926043356695335E-09  1.22925992963965743E-09
  1.22925941295548863E-09  1.22925888319151150E-09  1.22925834001661413E-09
  1.22925778309130401E-09  1.22925721206749341E-09  1.22925662658828533E-09
  1.22925602628774560E-09  1.22925541079067794E-09  1.22925477971238875E-09
  1.22925413265844502E-09  1.22925346922443051E-09  1.22925278899569075E-09
  1.22925209154707432E-09  1.22925137644266864E-09  1.22925064323552527E-09
  1.22924989146738304E-09  1.22924912066837877E-09  1.22924833035675708E-09
  1.22924752003856625E-09  1.22924668920735109E-09  1.22924583734383614E-09
  1.22924496391560104E-09  1.22924406837674916E-09  1.22924315016756235E-09
  1.22924220871415757E-09  1.22924124342812197E-09  1.22924025370614909E-09
  1.22923923892966025E-09  1.22923819846441926E-09  1.22923713166013414E-09
  1.22923603785005205E-09  1.22923491635054397E-09  1.22923376646067339E-09
  1.22923258746176327E-09  1.22923137861694249E-09  1.22923013917068889E-09
  1.22922886834835589E-09  1.22922756535568695E-09  1.22922622937832131E-09
  1.22922485958128403E-09  1.22922345510846613E-09  1.22922201508208527E-09
  1.22922053860214226E-09  1.22921902474585571E-09  1.22921747256708691E-09
  1.22921588109574679E-09  1.22921424933719181E-09  1.22921257627160152E-09
  1.22921086085334045E-09  1.22920910201030744E-09  1.22920729864326260E-09
  1.22920544962514257E-09  1.22920355380035533E-09  1.22920160998405981E-09
  1.22919961696142173E-09  1.22919757348686012E-09  1.22919547828326375E-09
  1.22919333004119744E-09  1.22919112741808108E-09  1.22918886903735171E-09
  1.22918655348760533E-09  1.22918417932171096E-09  1.22918174505591090E-09
  1.22917924916889137E-09  1.22917669010083252E-09  1.22917406625243356E-09
  1.22917137598391586E-09  1.22916861761399490E-09  1.22916578941883331E-09
  1.22916288963096161E-09  1.22915991643817618E-09  1.22915686798240499E-09
  1.22915374235854892E-09  1.22915053761329087E-09  1.22914725174387539E-09
  1.22914388269685785E-09  1.22914042836682102E-09  1.22913688659506358E-09
  1.22913325516824543E-09  1.22912953181701187E-09  1.22912571421457145E-09
  1.22912179997524512E-09  1.22911778665297482E-09  1.22911367173979753E-09
  1.22910945266427714E-09  1.22910512678989870E-09  1.22910069141342522E-09
  1.22909614376320318E-09  1.22909148099743684E-09  1.22908670020241288E-09
  1.22908179839067815E-09  1.22907677249917789E-09  1.22907161938733953E-09
  1.22906633583511440E-09  1.22906091854096471E-09  1.22905536411980623E-09
  1.22904966910088940E-09  1.22904382992563504E-09  1.22903784294541441E-09
  1.22903170441926781E-09  1.22902541051157096E-09  1.22901895728964086E-09
  1.22901234072127933E-09  1.22900555667225710E-09  1.22899860090373428E-09
  1.22899146906961066E-09  1.22898415671381548E-09  1.22897665926752809E-09
  1.22896897204632211E-09  1.22896109024724548E-09  1.22895300894582071E-09
  1.22894472309297227E-09  1.22893622751187634E-09  1.22892751689472937E-09
  1.22891858579943856E-09  1.22890942864622152E-09  1.22890003971412921E-09
  1.22889041313747564E-09  1.22888054290217613E-09  1.22887042284199791E-09
  1.22886004663471292E-09  1.22884940779815275E-09  1.22883849968616644E-09
  1.22882731548447670E-09  1.22881584820642575E-09  1.22880409068862182E-09
  1.22879203558647014E-09  1.22877967536959264E-09  1.22876700231713469E-09
  1.22875400851294722E-09  1.22874068584065486E-09  1.22872702597859275E-09
  1.22871302039462223E-09  1.22869866034080868E-09  1.22868393684797111E-09
  1.22866884072009242E-09  1.22865336252858543E-09  1.22863749260641964E-09
  1.22862122104209692E-09  1.22860453767347516E-09  1.22858743208143656E-09
  1.22856989358339993E-09  1.22855191122665973E-09  1.22853347378157099E-09
  1.22851456973455011E-09  1.22849518728090691E-09  1.22847531431749348E-09
  1.22845493843516693E-09  1.22843404691106535E-09  1.22841262670068573E-09
  1.22839066442976516E-09  1.22836814638595671E-09  1.22834505851029499E-09
  1.22832138638844832E-09  1.22829711524175083E-09  1.22827222991800608E-09
  1.22824671488206423E-09  1.22822055420615726E-09  1.22819373155999496E-09
  1.22816623020061039E-09  1.22813803296194908E-09  1.22810912224419934E-09
  1.22807948000285100E-09  1.22804908773748214E-09  1.22801792648026310E-09
  1.22798597678417065E-09  1.22795321871090949E-09  1.22791963181852684E-09
  1.22788519514871775E-09  1.22784988721381373E-09  1.22781368598344072E-09
  1.22777656887084686E-09  1.22773851271888510E-09  1.22769949378564420E-09
  1.22765948772972100E-09  1.22761846959512420E-09  1.22757641379579591E-09
  1.22753329409975069E-09  1.22748908361281504E-09  1.22744375476196030E-09
  1.22739727927821833E-09  1.22734962817916941E-09  1.22730077175099537E-09
  1.22725067953007849E-09  1.22719932028414681E-09  1.22714666199294327E-09
  1.22709267182841538E-09  1.22703731613440983E-09  1.22698056040585932E-09
  1.22692236926745086E-09  1.22686270645176235E-09  1.22680153477685506E-09
  1.22673881612330490E-09  1.22667451141066647E-09  1.22660858057334644E-09
  1.22654098253587789E-09  1.22647167518758463E-09  1.22640061535660601E-09
  1.22632775878328617E-09  1.22625306009289503E-09  1.22617647276767973E-09
  1.22609794911821006E-09  1.22601744025403052E-09  1.22593489605357014E-09
  1.22585026513331308E-09  1.22576349481620778E-09  1.22567453109929024E-09
  1.22558331862051019E-09  1.22548980062473603E-09  1.22539391892891870E-09
  1.22529561388639890E-09  1.22519482435033180E-09  1.22509148763621164E-09
  1.22498553948347111E-09  1.22487691401613879E-09  1.22476554370252731E-09
  1.22465135931392892E-09  1.22453428988230170E-09  1.22441426265691288E-09
  1.22429120305992047E-09  1.22416503464087171E-09  1.22403567903007824E-09
  1.22390305589086147E-09  1.22376708287062343E-09  1.22362767555072933E-09
  1.22348474739516551E-09  1.22333820969794437E-09  1.22318797152923656E-09
  1.22303393968018782E-09  1.22287601860639678E-09  1.22271411037002593E-09
  1.22254811458050534E-09  1.22237792833380549E-09  1.22220344615024005E-09
  1.22202455991077051E-09  1.22184115879177056E-09  1.22165312919822779E-09
  1.22146035469533125E-09  1.22126271593842356E-09  1.22106009060127046E-09
  1.22085235330261527E-09  1.22063937553097679E-09  1.22042102556765427E-09
  1.22019716840789776E-09  1.21996766568020459E-09  1.21973237556369920E-09
  1.21949115270355696E-09  1.21924384812442401E-09  1.21899030914179937E-09
  1.21873037927132194E-09  1.21846389813593045E-09  1.21819070137084313E-09
  1.21791062052630882E-09  1.21762348296809131E-09  1.21732911177563184E-09
  1.21702732563784524E-09  1.21671793874649364E-09  1.21640076068710019E-09
  1.21607559632734005E-09  1.21574224570286318E-09  1.21540050390049854E-09
  1.21505016093878066E-09  1.21469100164575211E-09  1.21432280553398808E-09
  1.21394534667278044E-09  1.21355839355743659E-09  1.21316170897563333E-09
  1.21275504987076743E-09  1.21233816720225254E-09  1.21191080580269914E-09
  1.21147270423192218E-09  1.21102359462772221E-09  1.21056320255338267E-09
  1.21009124684181459E-09  1.20960743943630815E-09  1.20911148522781616E-09
  1.20860308188872425E-09  1.20808191970303792E-09  1.20754768139293724E-09
  1.20700004194163468E-09  1.20643866841248230E-09  1.20586321976426974E-09
  1.20527334666265684E-09  1.20466869128768250E-09  1.20404888713729645E-09
  1.20341355882685670E-09  1.20276232188454583E-09  1.20209478254264022E-09
  1.20141053752458904E-09  1.20070917382785346E-09  1.19999026850245803E-09
  1.19925338842520215E-09  1.19849809006949322E-09  1.19772391927075443E-09
  1.19693041098737147E-09  1.19611708905714176E-09  1.19528346594918072E-09
  1.19442904251126310E-09  1.19355330771257071E-09  1.19265573838182249E-09
  1.19173579894076583E-09  1.19079294113301704E-09  1.18982660374823243E-09
  1.18883621234161997E-09  1.18782117894877816E-09  1.18678090179587424E-09
  1.18571476500516477E-09  1.18462213829589256E-09  1.18350237668058143E-09
  1.18235482015676967E-09  1.18117879339421739E-09  1.17997360541765057E-09
  1.17873854928510084E-09  1.17747290176192920E-09  1.17617592299059312E-09
  1.17484685615626313E-09  1.17348492714841520E-09  1.17208934421851420E-09
  1.17065929763392860E-09  1.16919395932823156E-09  1.16769248254806723E-09
  1.16615400149676572E-09  1.16457763097493214E-09  1.16296246601821095E-09
  1.16130758153247964E-09  1.15961203192676880E-09  1.15787485074419532E-09
  1.15609505029123628E-09  1.15427162126569094E-09  1.15240353238371458E-09
  1.15048973000633689E-09  1.14852913776593246E-09  1.14652065619306866E-09
  1.14446316234425634E-09  1.14235550943119859E-09  1.14019652645211348E-09
  1.13798501782576864E-09  1.13571976302891687E-09  1.13339951623786425E-09
  1.13102300597496753E-09  1.12858893476094443E-09  1.12609597877377148E-09
  1.12354278751521318E-09  1.12092798348602083E-09  1.11825016187088612E-09
  1.11550789023430585E-09  1.11269970822861427E-09  1.10982412731549471E-09
  1.10687963050242125E-09  1.10386467209555152E-09  1.10077767747050754E-09
  1.09761704286287234E-09  1.09438113518022145E-09  1.09106829183757767E-09
  1.08767682061833179E-09  1.08420499956278994E-09  1.08065107688664648E-09
  1.07701327093185336E-09  1.07328977015251632E-09  1.06947873313826352E-09
  1.06557828867827580E-09  1.06158653586900702E-09  1.05750154426883404E-09
  1.05332135410309010E-09  1.04904397652313538E-09  1.04466739392334849E-09
  1.04018956032022251E-09  1.03560840179785391E-09  1.03092181702408336E-09
  1.02612767784256372E-09  1.02122382994578164E-09  1.01620809363443652E-09
  1.01107826466892180E-09  1.00583211521897067E-09  1.00046739491789161E-09
  9.94981832028376414E-10  9.89373134726716145E-10  9.83638992512770362E-10
  9.77777077754222761E-10  9.71785047373355468E-10  9.65660544685248679E-10
  9.59401201396802190E-10  9.53004639776513901E-10  9.46468475005535978E-10
  9.39790317721438666E-10  9.32967776765490923E-10  9.25998462146008712E-10
  9.18879988231278565E-10  9.11609977185505385E-10  9.04186062662246249E-10
  8.96605893770589045E-10  8.88867139330171506E-10  8.80967492432142710E-10
  8.72904675324458386E-10  8.64676444638670179E-10  8.56280596979276971E-10
  8.47714974896823276E-10  8.38977473266564396E-10  8.30066046096019140E-10
  8.20978713785961031E-10  8.11713570870755828E-10  8.02268794265746378E-10
  7.92642652050624147E-10  7.82833512816622981E-10  7.72839855611959246E-10
  7.62660280518737512E-10  7.52293519896526385E-10  7.41738450329946720E-10
  7.30994105319578294E-10  7.20059688757639610E-10  7.08934589233184574E-10
  6.97618395211395002E-10  6.86110911133360009E-10  6.74412174490797046E-10
  6.62522473928278190E-10  6.50442368429348926E-10  6.38172707646043384E-10
  6.25714653434480308E-10  6.13069702662672204E-10  6.00239711362213376E-10
  5.87226920292102164E-10  5.74033981992632786E-10  5.60663989413674525E-10
  5.47120506201053888E-10  5.33407598730817476E-10  5.19529869985943103E-10
  5.05492495375003187E-10  4.91301260598387602E-10  4.76962601675059638E-10
  4.62483647235831345E-10  4.47872263212540486E-10  4.33137100052508051E-10
  4.18287642591995205E-10  4.03334262731006581E-10  3.88288275059256250E-10
  3.73161995590957296E-10  3.57968803777262039E-10  3.42723207970456802E-10
  3.27440914510704212E-10  3.12138900643188172E-10  2.96835491465904563E-10
  2.81550441121009818E-10  2.66305018454857664E-10  2.51122097383573547E-10
  2.36026252213626210E-10  2.21043858186981345E-10  2.06203197514293213E-10
  1.91534571180697364E-10  1.77070416846845277E-10  1.62845433159756576E-10
  1.48896710810865998E-10  1.35263870696643994E-10  1.21989209555658072E-10
  1.09117853477214818E-10  9.66979197074543552E-11  8.47806871535640703E-11
  7.34207760615779992E-11  6.26763373596478509E-11  5.26092521655734225E-11
  4.32853419911925873E-11  3.47745902038883241E-11  2.71513753349155783E-11
  2.04947168831240105E-11  1.48885347796130551E-11  1.04219330567577158E-11
  7.16059761317826128E-12  4.89664006631974969E-12  3.33336060072831414E-12
  2.25879692468734660E-12  1.52355514322631757E-12  1.02282220536359796E-12
  6.83404485705744945E-13  4.54428979441773367E-13  3.00704011251297119E-13
  1.98002897016523308E-13  1.29728886380602824E-13  8.45683604190246411E-14
  5.48476424088100581E-14  3.53882476465705561E-14  2.27134365403819081E-14
  1.45011066542244914E-14  9.20843446379695834E-15  5.81578370880515748E-15
  3.65291406783631200E-15  2.28165456435078116E-15  1.41712922989287974E-15
  8.75159860874404618E-16  5.37343761189712966E-16  3.27998551623048052E-16
  1.99028450747561680E-16  1.20046746439056030E-16  7.19690200848656862E-17
  4.28813203528399087E-17  2.53912936211307421E-17  1.49403796874770599E-17
  8.73501616629010699E-18  5.07405540066278910E-18  2.92819658077514596E-18
  1.67866443602902642E-18  9.55896562637122646E-19  5.40636499005380667E-19
  3.03676137207272493E-19  1.69390622593106456E-19  9.38216367916635972E-20
  5.15955129170120909E-20  2.81692477282604797E-20  1.52669827403017034E-20
  8.21309938540469419E-21  4.38528162789140914E-21  2.32372293189291389E-21
  1.22187454680902318E-21  6.37502888157272815E-22  3.29995030029625279E-22
  1.69456030930504225E-22  8.63146862982709055E-23  4.36060779029482757E-23
  2.18474690257635227E-23  1.08543385799993765E-23  5.34698666460596232E-24
  2.61139441635202289E-24  1.26428793033972279E-24  6.06708523073117103E-25
  2.88550997876022550E-25  1.35994690187443045E-25  6.35084030595873441E-26
  2.93834698647836797E-26  1.34675753965930193E-26  6.11421450032950062E-27
  2.74919479588144360E-27  1.22413743788388575E-27  5.39706508548747432E-28
  2.35574011674405167E-28  1.01784998772809597E-28  4.35287204602103765E-29
  1.84226464469063010E-29  7.71541093231128477E-30  3.19699562363156328E-30
  1.31051881289584688E-30  5.31373326149510687E-31  2.13081516189584114E-31
  8.44912386760619212E-32  3.31237276672964861E-32  1.28372834768512117E-32
  4.91764369552903166E-33  1.86179855932903168E-33  6.96528337501859562E-34
  2.57459998693570603E-34  9.40099265564874417E-35  3.39039336349170550E-35
  1.20742936727463455E-35  4.24569027648914965E-36  1.47384015868977356E-36
  5.05018092945167245E-37  1.70786710048773719E-37  5.69932246790700048E-38
  1.87645717939377718E-38  6.09416127216451779E-39  1.95186806329726101E-39
  6.16408143893610977E-40  1.91913359865597870E-40  5.88976472701196016E-41
  1.78148110857644214E-41  5.30988540015734657E-42  1.55930880553785087E-42
  4.51057949637422926E-43  1.28492387371629574E-43  3.60370363294018609E-44
  9.94880244829437675E-45  2.70320067407301411E-45  7.22777231177851948E-46
  1.90143417885804519E-46  4.92076609193273003E-47  1.25247521722077528E-47
  3.13458137034783461E-48  7.71118418097561431E-49  1.86407702222831968E-49
  4.42728512061973578E-50  1.03294636466209566E-50  2.36711345821382661E-51
  5.32708916987994383E-52  1.17708085435626095E-52  2.55305882318358400E-53
  5.43385450517753227E-54  1.13437345040470739E-54  2.32210111324736752E-55
  4.66036549316120489E-56  9.16880141207242862E-57  1.76805917738809053E-57
  3.34118633581035309E-58  6.18628501701737440E-59  1.12188576264330268E-59
  1.99182392174990031E-60  3.46013310630709060E-61  5.87998516253495256E-62
  9.77337961140106458E-63  1.58873605660214094E-63  2.52548378192464764E-64
  3.92512282105744585E-65  5.96303512625152794E-66  8.85116207287148545E-67
  1.28274707978607070E-67  1.81393960452696552E-68  2.50254406599948070E-69
  3.36807768657817588E-70  4.42177226838579806E-71  5.66227531565774399E-72
  7.07132353573148591E-73  8.60965484558458748E-74  1.02132331426750490E-74
  1.17914056515792968E-75  1.32422720071102207E-76  1.44652314470390585E-77
  1.53692280384214986E-78  0.00000000000000000E+00  0.00000000000000000E+00
  0.00000000000000000E+00  0.00000000000000000E+00  0.00000000000000000E+00
  0.00000000000000000E+00  0.00000000000000000E+00  0.00000000000000000E+00
  0.00000000000000000E+00  0.00000000000000000E+00  0.00000000000000000E+00
  0.00000000000000000E+00  0.00000000000000000E+00  0.00000000000000000E+00
  0.00000000000000000E+00  0.00000000000000000E+00  0.00000000000000000E+00
  0.00000000000000000E+00  0.00000000000000000E+00  0.00000000000000000E+00
  0.00000000000000000E+00
                             </PP_NLCC> 
 <PP_LOCAL type="real" size="   961" columns="3">
 -2.70609673740562222E+01 -2.70609673724648445E+01 -2.70609673708331790E+01
 -2.70609673691602097E+01 -2.70609673674448921E+01 -2.70609673656861460E+01
 -2.70609673638828738E+01 -2.70609673620339493E+01 -2.70609673601382141E+01
 -2.70609673581944890E+01 -2.70609673562015658E+01 -2.70609673541581905E+01
 -2.70609673520630913E+01 -2.70609673499149501E+01 -2.70609673477124275E+01
 -2.70609673454541486E+01 -2.70609673431386959E+01 -2.70609673407646305E+01
 -2.70609673383304710E+01 -2.70609673358346896E+01 -2.70609673332757303E+01
 -2.70609673306519909E+01 -2.70609673279618264E+01 -2.70609673252035527E+01
 -2.70609673223754577E+01 -2.70609673194757754E+01 -2.70609673165026869E+01
 -2.70609673134543378E+01 -2.70609673103288166E+01 -2.70609673071241694E+01
 -2.70609673038383924E+01 -2.70609673004694322E+01 -2.70609672970151856E+01
 -2.70609672934735030E+01 -2.70609672898421678E+01 -2.70609672861189061E+01
 -2.70609672823013874E+01 -2.70609672783872242E+01 -2.70609672743739651E+01
 -2.70609672702591126E+01 -2.70609672660400911E+01 -2.70609672617142643E+01
 -2.70609672572789357E+01 -2.70609672527313272E+01 -2.70609672480685930E+01
 -2.70609672432878199E+01 -2.70609672383860200E+01 -2.70609672333601310E+01
 -2.70609672282070122E+01 -2.70609672229234342E+01 -2.70609672175061000E+01
 -2.70609672119516311E+01 -2.70609672062565529E+01 -2.70609672004173056E+01
 -2.70609671944302335E+01 -2.70609671882915954E+01 -2.70609671819975581E+01
 -2.70609671755441887E+01 -2.70609671689274514E+01 -2.70609671621432071E+01
 -2.70609671551872175E+01 -2.70609671480551413E+01 -2.70609671407425161E+01
 -2.70609671332447697E+01 -2.70609671255572124E+01 -2.70609671176750481E+01
 -2.70609671095933422E+01 -2.70609671013070496E+01 -2.70609670928109907E+01
 -2.70609670840998540E+01 -2.70609670751681826E+01 -2.70609670660104022E+01
 -2.70609670566208038E+01 -2.70609670469935111E+01 -2.70609670371224951E+01
 -2.70609670270015883E+01 -2.70609670166244705E+01 -2.70609670059846472E+01
 -2.70609669950754821E+01 -2.70609669838901539E+01 -2.70609669724216850E+01
 -2.70609669606628884E+01 -2.70609669486063957E+01 -2.70609669362446859E+01
 -2.70609669235700530E+01 -2.70609669105745638E+01 -2.70609668972500863E+01
 -2.70609668835882893E+01 -2.70609668695806320E+01 -2.70609668552183784E+01
 -2.70609668404925650E+01 -2.70609668253939688E+01 -2.70609668099131255E+01
 -2.70609667940403611E+01 -2.70609667777658025E+01 -2.70609667610792606E+01
 -2.70609667439702832E+01 -2.70609667264281981E+01 -2.70609667084420273E+01
 -2.70609666900005230E+01 -2.70609666710921708E+01 -2.70609666517051615E+01
 -2.70609666318273590E+01 -2.70609666114463501E+01 -2.70609665905494019E+01
 -2.70609665691234333E+01 -2.70609665471550613E+01 -2.70609665246305617E+01
 -2.70609665015358551E+01 -2.70609664778564891E+01 -2.70609664535777021E+01
 -2.70609664286842815E+01 -2.70609664031606627E+01 -2.70609663769909261E+01
 -2.70609663501587256E+01 -2.70609663226472392E+01 -2.70609662944392895E+01
 -2.70609662655172656E+01 -2.70609662358630807E+01 -2.70609662054581932E+01
 -2.70609661742835961E+01 -2.70609661423197956E+01 -2.70609661095468397E+01
 -2.70609660759442434E+01 -2.70609660414909854E+01 -2.70609660061655433E+01
 -2.70609659699458369E+01 -2.70609659328092036E+01 -2.70609658947324370E+01
 -2.70609658556917729E+01 -2.70609658156628079E+01 -2.70609657746205023E+01
 -2.70609657325391773E+01 -2.70609656893925639E+01 -2.70609656451536793E+01
 -2.70609655997949083E+01 -2.70609655532878897E+01 -2.70609655056034839E+01
 -2.70609654567119300E+01 -2.70609654065827208E+01 -2.70609653551844964E+01
 -2.70609653024850978E+01 -2.70609652484515699E+01 -2.70609651930502153E+01
 -2.70609651362463808E+01 -2.70609650780045072E+01 -2.70609650182882397E+01
 -2.70609649570602642E+01 -2.70609648942823000E+01 -2.70609648299150720E+01
 -2.70609647639183883E+01 -2.70609646962510091E+01 -2.70609646268706250E+01
 -2.70609645557338290E+01 -2.70609644827962015E+01 -2.70609644080121718E+01
 -2.70609643313349899E+01 -2.70609642527166514E+01 -2.70609641721081218E+01
 -2.70609640894590235E+01 -2.70609640047174977E+01 -2.70609639178308221E+01
 -2.70609638287446934E+01 -2.70609637374031387E+01 -2.70609636437493890E+01
 -2.70609635477247359E+01 -2.70609634492692344E+01 -2.70609633483212946E+01
 -2.70609632448177386E+01 -2.70609631386941309E+01 -2.70609630298839399E+01
 -2.70609629183191771E+01 -2.70609628039300745E+01 -2.70609626866452864E+01
 -2.70609625663914102E+01 -2.70609624430932030E+01 -2.70609623166737627E+01
 -2.70609621870539527E+01 -2.70609620541528528E+01 -2.70609619178872443E+01
 -2.70609617781720608E+01 -2.70609616349200728E+01 -2.70609614880414888E+01
 -2.70609613374447378E+01 -2.70609611830355554E+01 -2.70609610247175070E+01
 -2.70609608623916245E+01 -2.70609606959563109E+01 -2.70609605253077738E+01
 -2.70609603503391760E+01 -2.70609601709412715E+01 -2.70609599870018052E+01
 -2.70609597984059391E+01 -2.70609596050356913E+01 -2.70609594067702304E+01
 -2.70609592034856519E+01 -2.70609589950549037E+01 -2.70609587813476260E+01
 -2.70609585622303292E+01 -2.70609583375660421E+01 -2.70609581072143150E+01
 -2.70609578710311816E+01 -2.70609576288690512E+01 -2.70609573805764008E+01
 -2.70609571259983284E+01 -2.70609568649754344E+01 -2.70609565973447097E+01
 -2.70609563229387859E+01 -2.70609560415863371E+01 -2.70609557531113083E+01
 -2.70609554573333781E+01 -2.70609551540678979E+01 -2.70609548431250602E+01
 -2.70609545243106488E+01 -2.70609541974253602E+01 -2.70609538622648245E+01
 -2.70609535186198222E+01 -2.70609531662750129E+01 -2.70609528050107571E+01
 -2.70609524346008747E+01 -2.70609520548140630E+01 -2.70609516654126523E+01
 -2.70609512661535625E+01 -2.70609508567870201E+01 -2.70609504370573113E+01
 -2.70609500067020008E+01 -2.70609495654520344E+01 -2.70609491130317039E+01
 -2.70609486491583198E+01 -2.70609481735415542E+01 -2.70609476858847167E+01
 -2.70609471858823198E+01 -2.70609466732225137E+01 -2.70609461475842039E+01
 -2.70609456086394431E+01 -2.70609450560509295E+01 -2.70609444894735240E+01
 -2.70609439085528543E+01 -2.70609433129261028E+01 -2.70609427022206930E+01
 -2.70609420760550385E+01 -2.70609414340378613E+01 -2.70609407757674916E+01
 -2.70609401008330543E+01 -2.70609394088120538E+01 -2.70609386992723628E+01
 -2.70609379717703540E+01 -2.70609372258511911E+01 -2.70609364610489322E+01
 -2.70609356768850660E+01 -2.70609348728698613E+01 -2.70609340485005490E+01
 -2.70609332032619676E+01 -2.70609323366256511E+01 -2.70609314480500345E+01
 -2.70609305369796225E+01 -2.70609296028448405E+01 -2.70609286450621518E+01
 -2.70609276630323556E+01 -2.70609266561420689E+01 -2.70609256237617650E+01
 -2.70609245652459478E+01 -2.70609234799333045E+01 -2.70609223671451744E+01
 -2.70609212261861174E+01 -2.70609200563429972E+01 -2.70609188568842711E+01
 -2.70609176270606646E+01 -2.70609163661031218E+01 -2.70609150732234518E+01
 -2.70609137476136290E+01 -2.70609123884449545E+01 -2.70609109948680100E+01
 -2.70609095660114498E+01 -2.70609081009821395E+01 -2.70609065988646442E+01
 -2.70609050587196265E+01 -2.70609034795844465E+01 -2.70609018604723026E+01
 -2.70609002003707033E+01 -2.70608984982420608E+01 -2.70608967530226074E+01
 -2.70608949636212159E+01 -2.70608931289191190E+01 -2.70608912477701189E+01
 -2.70608893189976349E+01 -2.70608873413963273E+01 -2.70608853137299121E+01
 -2.70608832347310191E+01 -2.70608811030998133E+01 -2.70608789175040307E+01
 -2.70608766765773048E+01 -2.70608743789188324E+01 -2.70608720230923012E+01
 -2.70608696076251860E+01 -2.70608671310073632E+01 -2.70608645916907307E+01
 -2.70608619880878543E+01 -2.70608593185714490E+01 -2.70608565814721835E+01
 -2.70608537750796394E+01 -2.70608508976389395E+01 -2.70608479473515686E+01
 -2.70608449223732705E+01 -2.70608418208127759E+01 -2.70608386407313724E+01
 -2.70608353801409152E+01 -2.70608320370032480E+01 -2.70608286092282597E+01
 -2.70608250946729427E+01 -2.70608214911406186E+01 -2.70608177963780001E+01
 -2.70608140080757451E+01 -2.70608101238648473E+01 -2.70608061413179541E+01
 -2.70608020579446951E+01 -2.70607978711920687E+01 -2.70607935784433558E+01
 -2.70607891770140228E+01 -2.70607846641529832E+01 -2.70607800370384339E+01
 -2.70607752927776737E+01 -2.70607704284047159E+01 -2.70607654408781606E+01
 -2.70607603270798833E+01 -2.70607550838128894E+01 -2.70607497077983936E+01
 -2.70607441956761434E+01 -2.70607385439989017E+01 -2.70607327492336793E+01
 -2.70607268077572591E+01 -2.70607207158547602E+01 -2.70607144697172046E+01
 -2.70607080654392469E+01 -2.70607014990167798E+01 -2.70606947663437509E+01
 -2.70606878632108980E+01 -2.70606807853012370E+01 -2.70606735281897279E+01
 -2.70606660873385749E+01 -2.70606584580943874E+01 -2.70606506356876793E+01
 -2.70606426152263033E+01 -2.70606343916952703E+01 -2.70606259599522687E+01
 -2.70606173147246878E+01 -2.70606084506064768E+01 -2.70605993620543828E+01
 -2.70605900433851048E+01 -2.70605804887711017E+01 -2.70605706922372491E+01
 -2.70605606476571694E+01 -2.70605503487489827E+01 -2.70605397890722088E+01
 -2.70605289620225804E+01 -2.70605178608287495E+01 -2.70605064785482590E+01
 -2.70604948080618364E+01 -2.70604828420706056E+01 -2.70604705730905906E+01
 -2.70604579934478053E+01 -2.70604450952743711E+01 -2.70604318705025584E+01
 -2.70604183108605127E+01 -2.70604044078667201E+01 -2.70603901528245459E+01
 -2.70603755368173218E+01 -2.70603605507019189E+01 -2.70603451851041292E+01
 -2.70603294304114250E+01 -2.70603132767683938E+01 -2.70602967140690822E+01
 -2.70602797319523418E+01 -2.70602623197931891E+01 -2.70602444666987303E+01
 -2.70602261614984307E+01 -2.70602073927399402E+01 -2.70601881486799520E+01
 -2.70601684172772110E+01 -2.70601481861858524E+01 -2.70601274427465199E+01
 -2.70601061739790296E+01 -2.70600843665742552E+01 -2.70600620068851683E+01
 -2.70600390809192355E+01 -2.70600155743288546E+01 -2.70599914724023662E+01
 -2.70599667600554561E+01 -2.70599414218210406E+01 -2.70599154418396814E+01
 -2.70598888038495744E+01 -2.70598614911771733E+01 -2.70598334867248020E+01
 -2.70598047729622664E+01 -2.70597753319136487E+01 -2.70597451451480069E+01
 -2.70597141937655543E+01 -2.70596824583883375E+01 -2.70596499191451727E+01
 -2.70596165556623660E+01 -2.70595823470475025E+01 -2.70595472718793815E+01
 -2.70595113081919614E+01 -2.70594744334625581E+01 -2.70594366245962021E+01
 -2.70593978579120993E+01 -2.70593581091274231E+01 -2.70593173533444329E+01
 -2.70592755650312640E+01 -2.70592327180093015E+01 -2.70591887854341593E+01
 -2.70591437397803318E+01 -2.70590975528226494E+01 -2.70590501956197151E+01
 -2.70590016384939460E+01 -2.70589518510147293E+01 -2.70589008019778632E+01
 -2.70588484593862439E+01 -2.70587947904297614E+01 -2.70587397614643805E+01
 -2.70586833379908036E+01 -2.70586254846335272E+01 -2.70585661651162717E+01
 -2.70585053422419293E+01 -2.70584429778667186E+01 -2.70583790328770384E+01
 -2.70583134671645418E+01 -2.70582462396006775E+01 -2.70581773080103112E+01
 -2.70581066291459784E+01 -2.70580341586588204E+01 -2.70579598510721517E+01
 -2.70578836597512087E+01 -2.70578055368746782E+01 -2.70577254334030783E+01
 -2.70576432990487596E+01 -2.70575590822431167E+01 -2.70574727301044291E+01
 -2.70573841884032689E+01 -2.70572934015291473E+01 -2.70572003124541425E+01
 -2.70571048626966508E+01 -2.70570069922850251E+01 -2.70569066397179974E+01
 -2.70568037419260463E+01 -2.70566982342316820E+01 -2.70565900503069834E+01
 -2.70564791221314707E+01 -2.70563653799498880E+01 -2.70562487522254784E+01
 -2.70561291655958200E+01 -2.70560065448250100E+01 -2.70558808127553476E+01
 -2.70557518902586445E+01 -2.70556196961845679E+01 -2.70554841473083592E+01
 -2.70553451582783140E+01 -2.70552026415606512E+01 -2.70550565073814795E+01
 -2.70549066636715416E+01 -2.70547530160050407E+01 -2.70545954675395457E+01
 -2.70544339189526859E+01 -2.70542682683787596E+01 -2.70540984113426752E+01
 -2.70539242406918596E+01 -2.70537456465270019E+01 -2.70535625161315600E+01
 -2.70533747338970905E+01 -2.70531821812497952E+01 -2.70529847365720464E+01
 -2.70527822751240095E+01 -2.70525746689622331E+01 -2.70523617868560500E+01
 -2.70521434942019781E+01 -2.70519196529355526E+01 -2.70516901214416627E+01
 -2.70514547544612434E+01 -2.70512134029951561E+01 -2.70509659142090548E+01
 -2.70507121313295897E+01 -2.70504518935440856E+01 -2.70501850358922233E+01
 -2.70499113891596217E+01 -2.70496307797638771E+01 -2.70493430296410828E+01
 -2.70490479561276373E+01 -2.70487453718387023E+01 -2.70484350845440460E+01
 -2.70481168970408952E+01 -2.70477906070206338E+01 -2.70474560069367627E+01
 -2.70471128838628516E+01 -2.70467610193534149E+01 -2.70464001892946655E+01
 -2.70460301637566580E+01 -2.70456507068356871E+01 -2.70452615764990227E+01
 -2.70448625244183134E+01 -2.70444532958035815E+01 -2.70440336292303023E+01
 -2.70436032564618429E+01 -2.70431619022679399E+01 -2.70427092842358796E+01
 -2.70422451125787475E+01 -2.70417690899378051E+01 -2.70412809111776866E+01
 -2.70407802631775702E+01 -2.70402668246152125E+01 -2.70397402657467403E+01
 -2.70392002481770639E+01 -2.70386464246265490E+01 -2.70380784386902562E+01
 -2.70374959245888924E+01 -2.70368985069147669E+01 -2.70362858003690718E+01
 -2.70356574094909519E+01 -2.70350129283811320E+01 -2.70343519404150037E+01
 -2.70336740179485417E+01 -2.70329787220156312E+01 -2.70322656020166221E+01
 -2.70315341953963078E+01 -2.70307840273152671E+01 -2.70300146103081715E+01
 -2.70292254439357720E+01 -2.70284160144217367E+01 -2.70275857942836559E+01
 -2.70267342419496863E+01 -2.70258608013647113E+01 -2.70249649015859461E+01
 -2.70240459563629969E+01 -2.70231033637103764E+01 -2.70221365054608889E+01
 -2.70211447468116397E+01 -2.70201274358513892E+01 -2.70190839030754546E+01
 -2.70180134608876337E+01 -2.70169154030817324E+01 -2.70157890043126052E+01
 -2.70146335195477931E+01 -2.70134481835021738E+01 -2.70122322100563892E+01
 -2.70109847916564618E+01 -2.70097050986932210E+01 -2.70083922788655357E+01
 -2.70070454565203981E+01 -2.70056637319722412E+01 -2.70042461808038148E+01
 -2.70027918531416233E+01 -2.70012997729083644E+01 -2.69997689370543945E+01
 -2.69981983147606783E+01 -2.69965868466192020E+01 -2.69949334437847206E+01
 -2.69932369871003850E+01 -2.69914963261942162E+01 -2.69897102785466494E+01
 -2.69878776285269169E+01 -2.69859971263982104E+01 -2.69840674872906803E+01
 -2.69820873901388367E+01 -2.69800554765861733E+01 -2.69779703498507075E+01
 -2.69758305735553741E+01 -2.69736346705171002E+01 -2.69713811214975969E+01
 -2.69690683639088498E+01 -2.69666947904792664E+01 -2.69642587478712876E+01
 -2.69617585352537503E+01 -2.69591924028256997E+01 -2.69565585502890315E+01
 -2.69538551252707457E+01 -2.69510802216885317E+01 -2.69482318780640497E+01
 -2.69453080757733936E+01 -2.69423067372422622E+01 -2.69392257240748272E+01
 -2.69360628351194968E+01 -2.69328158044688877E+01 -2.69294822993864145E+01
 -2.69260599181652687E+01 -2.69225461879088179E+01 -2.69189385622360078E+01
 -2.69152344189048449E+01 -2.69114310573530418E+01 -2.69075256961524083E+01
 -2.69035154703740957E+01 -2.68993974288589612E+01 -2.68951685313948268E+01
 -2.68908256457917609E+01 -2.68863655448537067E+01 -2.68817849032458973E+01
 -2.68770802942477296E+01 -2.68722481863927207E+01 -2.68672849399898048E+01
 -2.68621868035196698E+01 -2.68569499099049622E+01 -2.68515702726477201E+01
 -2.68460437818293833E+01 -2.68403661999704326E+01 -2.68345331577421753E+01
 -2.68285401495274343E+01 -2.68223825288250772E+01 -2.68160555034903432E+01
 -2.68095541308107208E+01 -2.68028733124040244E+01 -2.67960077889431894E+01
 -2.67889521346896409E+01 -2.67817007518409262E+01 -2.67742478646782871E+01
 -2.67665875135110589E+01 -2.67587135484121141E+01 -2.67506196227367568E+01
 -2.67422991864162256E+01 -2.67337454790260729E+01 -2.67249515226138676E+01
 -2.67159101142844300E+01 -2.67066138185358461E+01 -2.66970549593379829E+01
 -2.66872256119442071E+01 -2.66771175944348116E+01 -2.66667224589807788E+01
 -2.66560314828211737E+01 -2.66450356589507074E+01 -2.66337256865056702E+01
 -2.66220919608455837E+01 -2.66101245633227457E+01 -2.65978132507325356E+01
 -2.65851474444384372E+01 -2.65721162191693132E+01 -2.65587082914774442E+01
 -2.65449120078589296E+01 -2.65307153325266469E+01 -2.65161058348351126E+01
 -2.65010706763524766E+01 -2.64855965975754373E+01 -2.64696699042902068E+01
 -2.64532764535722649E+01 -2.64364016394280412E+01 -2.64190303780823115E+01
 -2.64011470929057133E+01 -2.63827356989946793E+01 -2.63637795874031475E+01
 -2.63442616090342447E+01 -2.63241640582014327E+01 -2.63034686558690503E+01
 -2.62821565325817588E+01 -2.62602082111063595E+01 -2.62376035887904955E+01
 -2.62143219196717006E+01 -2.61903417963476599E+01 -2.61656411316449500E+01
 -2.61401971401086008E+01 -2.61139863193509960E+01 -2.60869844312934731E+01
 -2.60591664833469601E+01 -2.60305067095803260E+01 -2.60009785519204257E+01
 -2.59705546414456236E+01 -2.59392067798407169E+01 -2.59069059210744719E+01
 -2.58736221533848756E+01 -2.58393246816478843E+01 -2.58039818102261442E+01
 -2.57675609263951273E+01 -2.57300284844586429E+01 -2.56913499906593294E+01
 -2.56514899890163441E+01 -2.56104120482310051E+01 -2.55680787497999162E+01
 -2.55244516775038264E+01 -2.54794914084310591E+01 -2.54331575057269319E+01
 -2.53854085132613463E+01 -2.53362019524337363E+01 -2.52854943213105656E+01
 -2.52332410963521561E+01 -2.51793967369817544E+01 -2.51239146932637176E+01
 -2.50667474169713103E+01 -2.50078463763479988E+01 -2.49471620748752940E+01
 -2.48846440743958439E+01 -2.48202410229381805E+01 -2.47539006875747063E+01
 -2.46855699927399250E+01 -2.46151950644022754E+01 -2.45427212805128008E+01
 -2.44680933281632242E+01 -2.43912552679069741E+01 -2.43121506057153418E+01
 -2.42307223730694226E+01 -2.41469132156718516E+01 -2.40606654912293934E+01
 -2.39719213768980133E+01 -2.38806229869079871E+01 -2.37867125008868001E+01
 -2.36901323034321187E+01 -2.35908251354594896E+01 -2.34887342578734248E+01
 -2.33838036281320250E+01 -2.32759780901468289E+01 -2.31652035780020107E+01
 -2.30514273340639697E+01 -2.29345981419137850E+01 -2.28146665745231765E+01
 -2.26915852580662794E+01 -2.25653091517056694E+01 -2.24357958436571536E+01
 -2.23030058638311566E+01 -2.21669030130342577E+01 -2.20274547088822921E+01
 -2.18846323484899656E+01 -2.17384116878033140E+01 -2.15887732373351255E+01
 -2.14357026739873255E+01 -2.12791912684775717E+01 -2.11192363277752015E+01
 -2.09558416518412116E+01 -2.07890180034677705E+01 -2.06187835902849024E+01
 -2.04451645576178009E+01 -2.02681954906088642E+01 -2.00879199238228914E+01
 -1.99043908563020544E+01 -1.97176712697704133E+01 -1.95278346474349256E+01
 -1.93349654904494628E+01 -1.91391598286421925E+01 -1.89405257221154812E+01
 -1.87391837496271734E+01 -1.85352674792844496E+01 -1.83289239165633653E+01
 -1.81203139241286237E+01 -1.79096126072751112E+01 -1.76970096580415088E+01
 -1.74827096502096850E+01 -1.72669322765012581E+01 -1.70499125179672717E+01
 -1.68319007341102207E+01 -1.66131626605506000E+01 -1.63939792988623729E+01
 -1.61746466805630078E+01 -1.59554754838624415E+01 -1.57367904773684568E+01
 -1.55189297606255856E+01 -1.53022437645104006E+01 -1.50870939660839181E+01
 -1.48738512634161744E+01 -1.46628939441341739E+01 -1.44546051678088983E+01
 -1.42493698669160516E+01 -1.40475709544686058E+01 -1.38495847097441800E+01
 -1.36557752051847281E+01 -1.34664876285190598E+01 -1.32820403654628478E+01
 -1.31027157431296306E+01 -1.29287494027239234E+01 -1.27603183862377527E+01
 -1.25975281958112664E+01 -1.24403993192411857E+01 -1.22888540094622520E+01
 -1.21427044361232372E+01 -1.20016436145063636E+01 -1.18652407436219249E+01
 -1.17329426354381141E+01 -1.16040827405896021E+01 -1.14778988706408587E+01
 -1.13535601948568186E+01 -1.12302037474458842E+01 -1.11069810609823509E+01
 -1.09831175633243330E+01 -1.08579925426649844E+01 -1.07312580389351311E+01
 -1.06030342552418055E+01 -1.04742526586470870E+01 -1.03472541090269115E+01
 -1.02267435053132623E+01 -1.01238192910789717E+01 -9.99168699881561473E+00
 -9.84897356019430248E+00 -9.72844149974266159E+00 -9.60817819682320895E+00
 -9.48915230782745134E+00 -9.37145036650166219E+00 -9.25510384463096969E+00
 -9.14014190244072111E+00 -9.02658825767170825E+00 -8.91445202010991089E+00
 -8.80371522777288718E+00 -8.69435369615021081E+00 -8.58635069874397239E+00
 -8.47968933748116882E+00 -8.37435294497254290E+00 -8.27032506198984230E+00
 -8.16758943393465309E+00 -8.06613000829072568E+00 -7.96593093192027091E+00
 -7.86697654857252893E+00 -7.76925139643985574E+00 -7.67274020574417381E+00
 -7.57742789635299285E+00 -7.48329957542565705E+00 -7.39034053510474376E+00
 -7.29853625039272735E+00 -7.20787237680342585E+00 -7.11833474800254429E+00
 -7.02990937359367241E+00 -6.94258243693503019E+00 -6.85634029298216419E+00
 -6.77116946615764892E+00 -6.68705664824834045E+00 -6.60398869637550145E+00
 -6.52195263108832268E+00 -6.44093563418227699E+00 -6.36092504664696712E+00
 -6.28190836669060726E+00 -6.20387324778814886E+00 -6.12680749675383129E+00
 -6.05069907183794609E+00 -5.97553608084836263E+00 -5.90130677938829340E+00
 -5.82799956907578753E+00 -5.75560299558620869E+00 -5.68410574685151726E+00
 -5.61349665129398190E+00 -5.54376467608182910E+00 -5.47489892540779710E+00
 -5.40688863878728476E+00 -5.33972318939029478E+00 -5.27339208250483260E+00
 -5.20788495384804584E+00 -5.14319156785682896E+00 -5.07930181608781250E+00
 -5.01620571563995021E+00 -4.95389340759571972E+00 -4.89235515548230993E+00
 -4.83158134375159865E+00 -4.77156247631296182E+00 -4.71228917515702150E+00
 -4.65375217878097303E+00 -4.59594234070400276E+00 -4.53885062803998540E+00
 -4.48246812008694562E+00 -4.42678600693484281E+00 -4.37179558809002611E+00
 -4.31748827111828959E+00 -4.26385557037128393E+00 -4.21088910570054065E+00
 -4.15858060104374783E+00 -4.10692188312234485E+00 -4.05590488016579975E+00
 -4.00552162065148831E+00 -3.95576423206033834E+00 -3.90662493964783053E+00
 -3.85809606523844328E+00 -3.81017002611624855E+00 -3.76283933380354263E+00
 -3.71609659282586824E+00 -3.66993449955638340E+00 -3.62434584107577029E+00
 -3.57932349404625150E+00 -3.53486042359960084E+00 -3.49094968223892765E+00
 -3.44758440877967232E+00 -3.40475782735443788E+00 -3.36246324627389637E+00
 -3.32069405695535114E+00 -3.27944373289113544E+00 -3.23870582862981582E+00
 -3.19847397877002537E+00 -3.15874189696678087E+00 -3.11950337495101371E+00
 -3.08075228161142700E+00 -3.04248256206191492E+00 -3.00468823662076456E+00
 -2.96736339987034636E+00 -2.93050221973528835E+00 -2.89409893657206752E+00
 -2.85814786226989037E+00 -2.82264337936274945E+00 -2.78757994015911903E+00
 -2.75295206594142305E+00 -2.71875434607952160E+00 -2.68498143714044835E+00
 -2.65162806205363788E+00 -2.61868900928716464E+00 -2.58615913203420389E+00
 -2.55403334740958510E+00 -2.52230663565630442E+00 -2.49097403938230055E+00
 -2.46003066283946703E+00 -2.42947167109881246E+00 -2.39929228927814187E+00
 -2.36948780179670893E+00 -2.34005355163909590E+00 -2.31098493962824358E+00
 -2.28227742370747988E+00 -2.25392651823237022E+00 -2.22592779330970325E+00
 -2.19827687411901174E+00 -2.17096944017625226E+00 -2.14400122465520360E+00
 -2.11736801372142791E+00 -2.09106564587447119E+00 -2.06509001129823444E+00
 -2.03943705121940644E+00 -2.01410275727963262E+00 -1.98908317095794995E+00
 -1.96437438292580602E+00 -1.93997253240626621E+00 -1.91587380657104212E+00
 -1.89207443994530689E+00 -1.86857071381989126E+00 -1.84535895567077013E+00
 -1.82243553858575713E+00 -1.79979688071518429E+00 -1.77743944474843207E+00
 -1.75535973731659745E+00 -1.73355430843623548E+00 -1.71201975097081260E+00
 -1.69075270009886203E+00 -1.66974983278871325E+00 -1.64900786727974213E+00
 -1.62852356257102238E+00 -1.60829371794590736E+00 -1.58831517247718068E+00
 -1.56858480449649207E+00 -1.54909953110474730E+00 -1.52985630769086578E+00
 -1.51085212745650765E+00 -1.49208402094670745E+00 -1.47354905558630933E+00
 -1.45524433522738428E+00 -1.43716699973232775E+00 -1.41931422450400513E+00
 -1.40168322002504908E+00 -1.38427123142230757E+00 -1.36707553803680715E+00
 -1.35009345299904959E+00 -1.33332232280957252E+00 -1.31675952692474585E+00
 -1.30040247736186987E+00 -1.28424861831823756E+00 -1.26829542573884857E+00
 -1.25254040691588808E+00 -1.23698110009962181E+00 -1.22161507411411385E+00
 -1.20643992797770583E+00 -1.19145329052821314E+00 -1.17665282005379246E+00
 -1.16203620395117624E+00 -1.14760115836407195E+00 -1.13334542780132219E+00
 -1.11926678478362640E+00 -1.10536302949582810E+00 -1.09163198944352402E+00
 -1.07807151911392607E+00
                             </PP_LOCAL> 
<PP_NONLOCAL> 
 <PP_BETA.1 type="real" size="   961" angular_momentum="0" columns="3" cutoff_radius_index="   794" norm_conserving_radius="    1.801735" label= "2S">
 -8.75835820733659141E-04 -8.86852478368424773E-04 -8.98007708467053506E-04
 -9.09303254055407115E-04 -9.20740880083871635E-04 -9.32322373703127439E-04
 -9.44049544543395592E-04 -9.55924224997194301E-04 -9.67948270505649831E-04
 -9.80123559848414651E-04 -9.92451995437222114E-04 -1.00493550361314141E-03
 -1.01757603494757052E-03 -1.03037556454701096E-03 -1.04333609236168618E-03
 -1.05645964349802488E-03 -1.06974826853509166E-03 -1.08320404384498747E-03
 -1.09682907191728388E-03 -1.11062548168754040E-03 -1.12459542886994644E-03
 -1.13874109629415405E-03 -1.15306469424634626E-03 -1.16756846081459190E-03
 -1.18225466223855088E-03 -1.19712559326356832E-03 -1.21218357749923390E-03
 -1.22743096778244322E-03 -1.24287014654502490E-03 -1.25850352618600081E-03
 -1.27433354944851674E-03 -1.29036268980152469E-03 -1.30659345182625956E-03
 -1.32302837160757822E-03 -1.33967001713022373E-03 -1.35652098868006572E-03
 -1.37358391925039699E-03 -1.39086147495333639E-03 -1.40835635543640463E-03
 -1.42607129430434988E-03 -1.44400905954625942E-03 -1.46217245396806006E-03
 -1.48056431563045252E-03 -1.49918751829235491E-03 -1.51804497185992790E-03
 -1.53713962284123570E-03 -1.55647445480663893E-03 -1.57605248885497201E-03
 -1.59587678408558008E-03 -1.61595043807630646E-03 -1.63627658736747636E-03
 -1.65685840795197969E-03 -1.67769911577150929E-03 -1.69880196721904466E-03
 -1.72017025964766278E-03 -1.74180733188573108E-03 -1.76371656475859864E-03
 -1.78590138161684089E-03 -1.80836524887114281E-03 -1.83111167653392574E-03
 -1.85414421876776395E-03 -1.87746647444072103E-03 -1.90108208768865984E-03
 -1.92499474848462472E-03 -1.94920819321538663E-03 -1.97372620526523436E-03
 -1.99855261560712583E-03 -2.02369130340125658E-03 -2.04914619660115632E-03
 -2.07492127256742737E-03 -2.10102055868918204E-03 -2.12744813301330403E-03
 -2.15420812488162534E-03 -2.18130471557611205E-03 -2.20874213897217847E-03
 -2.23652468220019232E-03 -2.26465668631532866E-03 -2.29314254697583373E-03
 -2.32198671512980808E-03 -2.35119369771065456E-03 -2.38076805834125773E-03
 -2.41071441804701627E-03 -2.44103745597783889E-03 -2.47174191013924127E-03
 -2.50283257813262985E-03 -2.53431431790486928E-03 -2.56619204850732892E-03
 -2.59847075086443082E-03 -2.63115546855186445E-03 -2.66425130858463774E-03
 -2.69776344221498224E-03 -2.73169710574029407E-03 -2.76605760132131017E-03
 -2.80085029781048907E-03 -2.83608063159083079E-03 -2.87175410742527984E-03
 -2.90787629931678251E-03 -2.94445285137915702E-03 -2.98148947871892988E-03
 -3.01899196832826344E-03 -3.05696617998909084E-03 -3.09541804718865355E-03
 -3.13435357804651375E-03 -3.17377885625327308E-03 -3.21370004202106317E-03
 -3.25412337304596070E-03 -3.29505516548260144E-03 -3.33650181493094430E-03
 -3.37846979743550114E-03 -3.42096567049714455E-03 -3.46399607409756229E-03
 -3.50756773173670168E-03 -3.55168745148318806E-03 -3.59636212703796010E-03
 -3.64159873881131010E-03 -3.68740435501342537E-03 -3.73378613275867060E-03
 -3.78075131918378590E-03 -3.82830725258006925E-03 -3.87646136353985132E-03
 -3.92522117611739715E-03 -3.97459430900433397E-03 -4.02458847671995166E-03
 -4.07521149081639840E-03 -4.12647126109907079E-03 -4.17837579686232419E-03
 -4.23093320814073130E-03 -4.28415170697609305E-03 -4.33803960870035588E-03
 -4.39260533323461780E-03 -4.44785740640458657E-03 -4.50380446127247348E-03
 -4.56045523948563764E-03 -4.61781859264225134E-03 -4.67590348367409332E-03
 -4.73471898824670730E-03 -4.79427429617720977E-03 -4.85457871286988640E-03
 -4.91564166076987469E-03 -4.97747268083506469E-03 -5.04008143402657604E-03
 -5.10347770281791100E-03 -5.16767139272309491E-03 -5.23267253384406862E-03
 -5.29849128243747424E-03 -5.36513792250117773E-03 -5.43262286738072434E-03
 -5.50095666139594798E-03 -5.57014998148810513E-03 -5.64021363888766308E-03
 -5.71115858080306019E-03 -5.78299589213068441E-03 -5.85573679718636494E-03
 -5.92939266145858443E-03 -6.00397499338384526E-03 -6.07949544614415707E-03
 -6.15596581948731330E-03 -6.23339806156991173E-03 -6.31180427082357956E-03
 -6.39119669784463280E-03 -6.47158774730762203E-03 -6.55298997990267848E-03
 -6.63541611429733710E-03 -6.71887902912317227E-03 -6.80339176498704137E-03
 -6.88896752650793726E-03 -6.97561968437922317E-03 -7.06336177745691199E-03
 -7.15220751487406770E-03 -7.24217077818189309E-03 -7.33326562351760587E-03
 -7.42550628379968006E-03 -7.51890717095046474E-03 -7.61348287814701125E-03
 -7.70924818209984316E-03 -7.80621804536074920E-03 -7.90440761865915907E-03
 -8.00383224326809903E-03 -8.10450745339989786E-03 -8.20644897863181261E-03
 -8.30967274636229894E-03 -8.41419488429804262E-03 -8.52003172297207539E-03
 -8.62719979829401629E-03 -8.73571585413159164E-03 -8.84559684492533353E-03
 -8.95685993833552491E-03 -9.06952251792267350E-03 -9.18360218586168967E-03
 -9.29911676568990347E-03 -9.41608430508978494E-03 -9.53452307870651140E-03
 -9.65445159100092841E-03 -9.77588857913832578E-03 -9.89885301591348493E-03
 -1.00233641127124417E-02 -1.01494413225113496E-02 -1.02771043429131081E-02
 -1.04063731192219969E-02 -1.05372678475569512E-02 -1.06698089780038630E-02
 -1.08040172178075263E-02 -1.09399135346034231E-02 -1.10775191596903487E-02
 -1.12168555913438467E-02 -1.13579445981713979E-02 -1.15008082225093906E-02
 -1.16454687838631697E-02 -1.17919488823898418E-02 -1.19402714024248111E-02
 -1.20904595160527609E-02 -1.22425366867231784E-02 -1.23965266729113080E-02
 -1.25524535318249520E-02 -1.27103416231578482E-02 -1.28702156128899826E-02
 -1.30321004771355650E-02 -1.31960215060392023E-02 -1.33620043077210988E-02
 -1.35300748122712602E-02 -1.37002592757942028E-02 -1.38725842845040942E-02
 -1.40470767588711989E-02 -1.42237639578203113E-02 -1.44026734829817305E-02
 -1.45838332829955428E-02 -1.47672716578696774E-02 -1.49530172633925516E-02
 -1.51410991156011969E-02 -1.53315465953047254E-02 -1.55243894526652573E-02
 -1.57196578118352880E-02 -1.59173821756537319E-02 -1.61175934304002670E-02
 -1.63203228506095498E-02 -1.65256021039453631E-02 -1.67334632561357416E-02
 -1.69439387759697524E-02 -1.71570615403572012E-02 -1.73728648394506704E-02
 -1.75913823818325751E-02 -1.78126482997662886E-02 -1.80366971545132329E-02
 -1.82635639417163716E-02 -1.84932840968504916E-02 -1.87258935007413932E-02
 -1.89614284851531527E-02 -1.91999258384454898E-02 -1.94414228113016507E-02
 -1.96859571225280645E-02 -1.99335669649255941E-02 -2.01842910112349609E-02
 -2.04381684201554795E-02 -2.06952388424392064E-02 -2.09555424270611232E-02
 -2.12191198274659862E-02 -2.14860122078929898E-02 -2.17562612497792553E-02
 -2.20299091582431238E-02 -2.23069986686481835E-02 -2.25875730532485337E-02
 -2.28716761279173716E-02 -2.31593522589587236E-02 -2.34506463700042272E-02
 -2.37456039489953620E-02 -2.40442710552526070E-02 -2.43466943266322997E-02
 -2.46529209867726827E-02 -2.49629988524292731E-02 -2.52769763409017995E-02
 -2.55949024775532358E-02 -2.59168269034215706E-02 -2.62427998829268191E-02
 -2.65728723116724630E-02 -2.69070957243443577E-02 -2.72455223027072146E-02
 -2.75882048836999932E-02 -2.79351969676310367E-02 -2.82865527264754973E-02
 -2.86423270122745585E-02 -2.90025753656384146E-02 -2.93673540243552036E-02
 -2.97367199321046244E-02 -3.01107307472803544E-02 -3.04894448519213261E-02
 -3.08729213607513049E-02 -3.12612201303327855E-02 -3.16544017683303980E-02
 -3.20525276428908629E-02 -3.24556598921366610E-02 -3.28638614337775012E-02
 -3.32771959748388510E-02 -3.36957280215107458E-02 -3.41195228891167865E-02
 -3.45486467122059909E-02 -3.49831664547677751E-02 -3.54231499205720918E-02
 -3.58686657636362941E-02 -3.63197834988198201E-02 -3.67765735125484827E-02
 -3.72391070736690991E-02 -3.77074563444377495E-02 -3.81816943916405693E-02
 -3.86618951978508554E-02 -3.91481336728228269E-02 -3.96404856650243928E-02
 -4.01390279733089272E-02 -4.06438383587301583E-02 -4.11549955564989023E-02
 -4.16725792880857857E-02 -4.21966702734696969E-02 -4.27273502435342942E-02
 -4.32647019526152393E-02 -4.38088091911967570E-02 -4.43597567987638608E-02
 -4.49176306768065622E-02 -4.54825178019827372E-02 -4.60545062394371041E-02
 -4.66336851562817456E-02 -4.72201448352366077E-02 -4.78139766884338874E-02
 -4.84152732713873310E-02 -4.90241282971278572E-02 -4.96406366505083921E-02
 -5.02648944026771738E-02 -5.08969988257252856E-02 -5.15370484075059407E-02
 -5.21851428666302575E-02 -5.28413831676396994E-02 -5.35058715363590232E-02
 -5.41787114754275698E-02 -5.48600077800156377E-02 -5.55498665537240352E-02
 -5.62483952246707053E-02 -5.69557025617647220E-02 -5.76718986911711959E-02
 -5.83970951129659799E-02 -5.91314047179876123E-02 -5.98749418048806561E-02
 -6.06278220973384616E-02 -6.13901627615459633E-02 -6.21620824238203959E-02
 -6.29437011884579206E-02 -6.37351406557821465E-02 -6.45365239404017549E-02
 -6.53479756896733349E-02 -6.61696221023762160E-02 -6.70015909475994292E-02
 -6.78440115838395419E-02 -6.86970149783174278E-02 -6.95607337265090053E-02
 -7.04353020718960776E-02 -7.13208559259389530E-02 -7.22175328882686679E-02
 -7.31254722671050017E-02 -7.40448150998995469E-02 -7.49757041742067226E-02
 -7.59182840487825361E-02 -7.68727010749136880E-02 -7.78391034179807956E-02
 -7.88176410792528620E-02 -7.98084659179175981E-02 -8.08117316733486524E-02
 -8.18275939876107333E-02 -8.28562104282033474E-02 -8.38977405110459123E-02
 -8.49523457237049556E-02 -8.60201895488639928E-02 -8.71014374880376141E-02
 -8.81962570855325673E-02 -8.93048179526532981E-02 -9.04272917921569580E-02
 -9.15638524229562961E-02 -9.27146758050715752E-02 -9.38799400648332172E-02
 -9.50598255203355946E-02 -9.62545147071415114E-02 -9.74641924042402158E-02
 -9.86890456602571436E-02 -9.99292638199154176E-02 -1.01185038550752948E-01
 -1.02456563870092304E-01 -1.03744036172261855E-01 -1.05047654256071987E-01
 -1.06367619352545184E-01 -1.07704135152897423E-01 -1.09057407836770190E-01
 -1.10427646100719076E-01 -1.11815061186947229E-01 -1.13219866912293188E-01
 -1.14642279697464572E-01 -1.16082518596522119E-01 -1.17540805326604977E-01
 -1.19017364297907366E-01 -1.20512422643888090E-01 -1.22026210251731992E-01
 -1.23558959793036313E-01 -1.25110906754745038E-01 -1.26682289470307491E-01
 -1.28273349151069332E-01 -1.29884329917890118E-01 -1.31515478832983895E-01
 -1.33167045931976674E-01 -1.34839284256180997E-01 -1.36532449885079149E-01
 -1.38246801969011623E-01 -1.39982602762067698E-01 -1.41740117655168529E-01
 -1.43519615209338203E-01 -1.45321367189161776E-01 -1.47145648596412826E-01
 -1.48992737703855488E-01 -1.50862916089202381E-01 -1.52756468669229539E-01
 -1.54673683734032452E-01 -1.56614852981420971E-01 -1.58580271551435642E-01
 -1.60570238060984777E-01 -1.62585054638581278E-01 -1.64625026959176773E-01
 -1.66690464279077522E-01 -1.68781679470927065E-01 -1.70898989058745066E-01
 -1.73042713253013486E-01 -1.75213175985780928E-01 -1.77410704945787256E-01
 -1.79635631613579011E-01 -1.81888291296605997E-01 -1.84169023164276968E-01
 -1.86478170282957156E-01 -1.88816079650890312E-01 -1.91183102233017793E-01
 -1.93579592995683197E-01 -1.96005910941187439E-01 -1.98462419142181823E-01
 -2.00949484775865161E-01 -2.03467479157970033E-01 -2.06016777776490190E-01
 -2.08597760325145959E-01 -2.11210810736542132E-01 -2.13856317214982911E-01
 -2.16534672268929279E-01 -2.19246272743041731E-01 -2.21991519849793512E-01
 -2.24770819200601296E-01 -2.27584580836438788E-01 -2.30433219257900807E-01
 -2.33317153454656367E-01 -2.36236806934267574E-01 -2.39192607750307484E-01
 -2.42184988529747180E-01 -2.45214386499541942E-01 -2.48281243512380900E-01
 -2.51386006071532608E-01 -2.54529125354730379E-01 -2.57711057237051011E-01
 -2.60932262312693952E-01 -2.64193205915633111E-01 -2.67494358139039046E-01
 -2.70836193853422114E-01 -2.74219192723411165E-01 -2.77643839223099598E-01
 -2.81110622649864028E-01 -2.84620037136586013E-01 -2.88172581662182459E-01
 -2.91768760060349297E-01 -2.95409081026432707E-01 -2.99094058122323703E-01
 -3.02824209779269549E-01 -3.06600059298501759E-01 -3.10422134849566211E-01
 -3.14290969466233638E-01 -3.18207101039876650E-01 -3.22171072310190709E-01
 -3.26183430853105027E-01 -3.30244729065782172E-01 -3.34355524148533589E-01
 -3.38516378083520642E-01 -3.42727857610074071E-01 -3.46990534196491396E-01
 -3.51304984008123489E-01 -3.55671787871590594E-01 -3.60091531234951190E-01
 -3.64564804123615305E-01 -3.69092201091836658E-01 -3.73674321169562562E-01
 -3.78311767804426324E-01 -3.83005148798684136E-01 -3.87755076240853536E-01
 -3.92562166431809911E-01 -3.97427039805120508E-01 -4.02350320841338982E-01
 -4.07332637975990119E-01 -4.12374623501004789E-01 -4.17476913459266685E-01
 -4.22640147532013788E-01 -4.27864968918768462E-01 -4.33152024209476405E-01
 -4.38501963248513538E-01 -4.43915438990227451E-01 -4.49393107345646581E-01
 -4.54935627019971478E-01 -4.60543659340478695E-01 -4.66217868074415065E-01
 -4.71958919236478536E-01 -4.77767480885435858E-01 -4.83644222909427601E-01
 -4.89589816799507083E-01 -4.95604935410888292E-01 -5.01690252711446516E-01
 -5.07846443516894563E-01 -5.14074183212126279E-01 -5.20374147458144476E-01
 -5.26747011883981764E-01 -5.33193451763025905E-01 -5.39714141673074743E-01
 -5.46309755139509190E-01 -5.52980964260877950E-01 -5.59728439316185322E-01
 -5.66552848353148786E-01 -5.73454856756678510E-01 -5.80435126796770562E-01
 -5.87494317155001666E-01 -5.94633082428783877E-01 -6.01852072612471534E-01
 -6.09151932554445330E-01 -6.16533301389183164E-01 -6.23996811943369978E-01
 -6.31543090114999206E-01 -6.39172754224433537E-01 -6.46886414336306559E-01
 -6.54684671551145847E-01 -6.62568117265537992E-01 -6.70537332399611885E-01
 -6.78592886590574373E-01 -6.86735337351001562E-01 -6.94965229190511735E-01
 -7.03283092699435119E-01 -7.11689443593004012E-01 -7.20184781714554578E-01
 -7.28769589996218214E-01 -7.37444333375432137E-01 -7.46209457665632958E-01
 -7.55065388379389302E-01 -7.64012529502182902E-01 -7.73051262214974222E-01
 -7.82181943563646342E-01 -7.91404905073344156E-01 -8.00720451305624970E-01
 -8.10128858356325421E-01 -8.19630372291927589E-01 -8.29225207522195862E-01
 -8.38913545106660608E-01 -8.48695530992591318E-01 -8.58571274181937238E-01
 -8.68540844824598923E-01 -8.78604272235438355E-01 -8.88761542832184781E-01
 -8.99012597991436402E-01 -9.09357331819767745E-01 -9.19795588836956224E-01
 -9.30327161568179073E-01 -9.40951788041918813E-01 -9.51669149190313091E-01
 -9.62478866148419709E-01 -9.73380497448981141E-01 -9.84373536108951952E-01
 -9.95457406604080886E-01 -1.00663146172763374E+00 -1.01789497932936723E+00
 -1.02924715893063534E+00 -1.04068711821140902E+00 -1.05221388936494709E+00
 -1.06382641531565691E+00 -1.07552354579561249E+00 -1.08730403327510450E+00
 -1.09916652874243548E+00 -1.11110957732796689E+00 -1.12313161376752113E+00
 -1.13523095769999527E+00 -1.14740580879394893E+00 -1.15965424169781395E+00
 -1.17197420080825920E+00 -1.18436349485117098E+00 -1.19681979126957660E+00
 -1.20934061041283147E+00 -1.22192331952103861E+00 -1.23456512649876538E+00
 -1.24726307347221788E+00 -1.26001403012364177E+00 -1.27281468679686904E+00
 -1.28566154736774196E+00 -1.29855092187322319E+00 -1.31147891889288193E+00
 -1.32444143767662603E+00 -1.33743416001227877E+00 -1.35045254182641106E+00
 -1.36349180451274488E+00 -1.37654692598175776E+00 -1.38961263142549019E+00
 -1.40268338379160662E+00 -1.41575337396095757E+00 -1.42881651062301085E+00
 -1.44186640984398529E+00 -1.45489638432270607E+00 -1.46789943232840381E+00
 -1.48086822631692283E+00 -1.49379510122123116E+00 -1.50667204241258856E+00
 -1.51949067332927701E+00 -1.53224224277062082E+00 -1.54491761185440635E+00
 -1.55750724063698143E+00 -1.57000117439645281E+00 -1.58238902957781402E+00
 -1.59465997940316973E+00 -1.60680273915034499E+00 -1.61880555110376001E+00
 -1.63065616918344491E+00 -1.64234184325923005E+00 -1.65384930315928380E+00
 -1.66516474238391154E+00 -1.67627380153874506E+00 -1.68716155149917468E+00
 -1.69781247632487697E+00 -1.70821045594601006E+00 -1.71833874864328595E+00
 -1.72817997334820017E+00 -1.73771609179300968E+00 -1.74692839054377158E+00
 -1.75579746295406780E+00 -1.76430319108368039E+00 -1.77242472762235370E+00
 -1.78014047787186702E+00 -1.78742808184638680E+00 -1.79426439655186520E+00
 -1.80062547851354382E+00 -1.80648656662710905E+00 -1.81182206541642188E+00
 -1.81660552878897574E+00 -1.82080964439296911E+00 -1.82440621867264419E+00
 -1.82736616274193331E+00 -1.82965947921030381E+00 -1.83125525009571555E+00
 -1.83212162597437889E+00 -1.83222581652907945E+00 -1.83153408267082107E+00
 -1.83001173042328169E+00 -1.82762310678227125E+00 -1.82433159774660902E+00
 -1.82009962876090081E+00 -1.81488866783308000E+00 -1.80865923158965658E+00
 -1.80137089455610266E+00 -1.79298230196977215E+00 -1.78345118645265432E+00
 -1.77273438889509327E+00 -1.76078788393812236E+00 -1.74756681040396833E+00
 -1.73302550711006220E+00 -1.71711755452440240E+00 -1.69979582271753027E+00
 -1.68101252610179208E+00 -1.66071928547426517E+00 -1.63886719790537394E+00
 -1.61540691504671852E+00 -1.59028873047946950E+00 -1.56346267663676253E+00
 -1.53487863199344798E+00 -1.50448643920803993E+00 -1.47223603489022903E+00
 -1.43807759170427207E+00 -1.40196167353697132E+00 -1.36383940447554819E+00
 -1.32366265236758918E+00 -1.28138422776709882E+00 -1.23695809888821140E+00
 -1.19033962345526945E+00 -1.14148579821958140E+00 -1.09035552687561421E+00
 -1.03690990710956443E+00 -9.81112537483489588E-01 -9.22929844819017298E-01
 -8.62331432728490443E-01 -7.99290451862901707E-01 -7.33783992134810048E-01
 -6.65793497511470656E-01 -5.95305203617598422E-01 -5.22310598270405713E-01
 -4.46806904941772720E-01 -3.68797588971991885E-01 -2.88292886164805251E-01
 -2.05310353238855547E-01 -1.19875439235780812E-01 -3.20220765635441593E-02
  5.82067094679983368E-02  1.50758174474191542E-01  2.45569214356923082E-01
  3.42565712773949704E-01  4.41661879746322039E-01  5.42759584928540484E-01
  6.45747689531558922E-01  7.50501381713702842E-01  8.56881520740755631E-01
  9.64733995625339347E-01  1.07388910497860124E+00  1.18416096546370442E+00
  1.29534695701543145E+00  1.40722721380599869E+00  1.51956417078369621E+00
  1.63210217652811540E+00  1.74456718403060096E+00  1.85666653174548202E+00
  1.96808882831864929E+00  2.07850395526121146E+00  2.18756320266939941E+00
  2.29489955390099887E+00  2.40012813586796581E+00  2.50284685235017079E+00
  2.60263721860160846E+00  2.69906541458090699E+00  2.79168357584847193E+00
  2.88003134099960389E+00  2.96363767400582123E+00  3.04202297955480683E+00
  3.11470152875119677E+00  3.18118421145756125E+00  3.24098163054988664E+00
  3.29360755126071592E+00  3.33858271315830324E+00  3.37543901466771379E+00
  3.40372407347252492E+00  3.42300616183952222E+00  3.43287951097839494E+00
  3.43296997253127101E+00  3.42294101836742337E+00  3.40250005336346062E+00
  3.37140500343604455E+00  3.32947113004728612E+00  3.27657801840460250E+00
  3.21267666770738991E+00  3.13779659900104280E+00  3.05205288092691918E+00
  2.95565295681208351E+00  2.84890313849057408E+00  2.73221461436330326E+00
  2.60610879132046991E+00  2.47122177586086300E+00  2.32830777852584792E+00
  2.17824119833637075E+00  2.02201712349847584E+00  1.86074996368597434E+00
  1.69566991038484249E+00  1.52811690626589480E+00  1.35953179251754008E+00
  1.19144430319394523E+00  1.02545758314322533E+00  8.63228921321844367E-01
  7.06446427265296495E-01  5.56801433122448342E-01  4.15956482348600720E-01
  2.85508873953337849E-01  1.66949868357734371E-01  6.16198470594645428E-02
 -2.93400270339405911E-02 -1.05038867625332502E-01 -1.64888698752317320E-01
 -2.08657124254618465E-01 -2.36518030808870489E-01 -2.49097791716592243E-01
 -2.47513841687145741E-01 -2.33401840646661973E-01 -2.08926884733033780E-01
 -1.76773482615158212E-01 -1.40108289379994033E-01 -1.02509402077407524E-01
 -6.78698999957182830E-02 -3.94335158316740514E-02 -1.87442903616079903E-02
 -6.35032619690704785E-03 -1.35503250346737060E-03  7.46502567508929786E-05
  5.51904617514322598E-06  3.57994192065784501E-07  2.03592635235095055E-08
  9.67235184020906238E-10  3.18535245919227663E-11 -1.07072956974607169E-13
 -1.30795481334798811E-13 -1.47297673085851559E-14 -1.22295108781319975E-15
 -8.66490583985991830E-17 -5.40731430674580103E-18  0.00000000000000000E+00
  0.00000000000000000E+00  0.00000000000000000E+00  0.00000000000000000E+00
  0.00000000000000000E+00  0.00000000000000000E+00  0.00000000000000000E+00
  0.00000000000000000E+00  0.00000000000000000E+00  0.00000000000000000E+00
  0.00000000000000000E+00  0.00000000000000000E+00  0.00000000000000000E+00
  0.00000000000000000E+00  0.00000000000000000E+00  0.00000000000000000E+00
  0.00000000000000000E+00  0.00000000000000000E+00  0.00000000000000000E+00
  0.00000000000000000E+00  0.00000000000000000E+00  0.00000000000000000E+00
  0.00000000000000000E+00  0.00000000000000000E+00  0.00000000000000000E+00
  0.00000000000000000E+00  0.00000000000000000E+00  0.00000000000000000E+00
  0.00000000000000000E+00  0.00000000000000000E+00  0.00000000000000000E+00
  0.00000000000000000E+00  0.00000000000000000E+00  0.00000000000000000E+00
  0.00000000000000000E+00  0.00000000000000000E+00  0.00000000000000000E+00
  0.00000000000000000E+00  0.00000000000000000E+00  0.00000000000000000E+00
  0.00000000000000000E+00  0.00000000000000000E+00  0.00000000000000000E+00
  0.00000000000000000E+00  0.00000000000000000E+00  0.00000000000000000E+00
  0.00000000000000000E+00  0.00000000000000000E+00  0.00000000000000000E+00
  0.00000000000000000E+00  0.00000000000000000E+00  0.00000000000000000E+00
  0.00000000000000000E+00  0.00000000000000000E+00  0.00000000000000000E+00
  0.00000000000000000E+00  0.00000000000000000E+00  0.00000000000000000E+00
  0.00000000000000000E+00  0.00000000000000000E+00  0.00000000000000000E+00
  0.00000000000000000E+00  0.00000000000000000E+00  0.00000000000000000E+00
  0.00000000000000000E+00  0.00000000000000000E+00  0.00000000000000000E+00
  0.00000000000000000E+00  0.00000000000000000E+00  0.00000000000000000E+00
  0.00000000000000000E+00  0.00000000000000000E+00  0.00000000000000000E+00
  0.00000000000000000E+00  0.00000000000000000E+00  0.00000000000000000E+00
  0.00000000000000000E+00  0.00000000000000000E+00  0.00000000000000000E+00
  0.00000000000000000E+00  0.00000000000000000E+00  0.00000000000000000E+00
  0.00000000000000000E+00  0.00000000000000000E+00  0.00000000000000000E+00
  0.00000000000000000E+00  0.00000000000000000E+00  0.00000000000000000E+00
  0.00000000000000000E+00  0.00000000000000000E+00  0.00000000000000000E+00
  0.00000000000000000E+00  0.00000000000000000E+00  0.00000000000000000E+00
  0.00000000000000000E+00  0.00000000000000000E+00  0.00000000000000000E+00
  0.00000000000000000E+00  0.00000000000000000E+00  0.00000000000000000E+00
  0.00000000000000000E+00  0.00000000000000000E+00  0.00000000000000000E+00
  0.00000000000000000E+00  0.00000000000000000E+00  0.00000000000000000E+00
  0.00000000000000000E+00  0.00000000000000000E+00  0.00000000000000000E+00
  0.00000000000000000E+00  0.00000000000000000E+00  0.00000000000000000E+00
  0.00000000000000000E+00  0.00000000000000000E+00  0.00000000000000000E+00
  0.00000000000000000E+00  0.00000000000000000E+00  0.00000000000000000E+00
  0.00000000000000000E+00  0.00000000000000000E+00  0.00000000000000000E+00
  0.00000000000000000E+00  0.00000000000000000E+00  0.00000000000000000E+00
  0.00000000000000000E+00  0.00000000000000000E+00  0.00000000000000000E+00
  0.00000000000000000E+00  0.00000000000000000E+00  0.00000000000000000E+00
  0.00000000000000000E+00  0.00000000000000000E+00  0.00000000000000000E+00
  0.00000000000000000E+00  0.00000000000000000E+00  0.00000000000000000E+00
  0.00000000000000000E+00  0.00000000000000000E+00  0.00000000000000000E+00
  0.00000000000000000E+00  0.00000000000000000E+00  0.00000000000000000E+00
  0.00000000000000000E+00  0.00000000000000000E+00  0.00000000000000000E+00
  0.00000000000000000E+00  0.00000000000000000E+00  0.00000000000000000E+00
  0.00000000000000000E+00  0.00000000000000000E+00  0.00000000000000000E+00
  0.00000000000000000E+00  0.00000000000000000E+00  0.00000000000000000E+00
  0.00000000000000000E+00  0.00000000000000000E+00  0.00000000000000000E+00
  0.00000000000000000E+00  0.00000000000000000E+00  0.00000000000000000E+00
  0.00000000000000000E+00  0.00000000000000000E+00  0.00000000000000000E+00
  0.00000000000000000E+00  0.00000000000000000E+00  0.00000000000000000E+00
  0.00000000000000000E+00
                              </PP_BETA.1>
 <PP_BETA.2 type="real" size="   961" angular_momentum="0" columns="3" cutoff_radius_index="   794" norm_conserving_radius="    1.801735" label= "0S">
 -1.58380971358939963E-03 -1.60373158685136064E-03 -1.62390404641278639E-03
 -1.64433024426061331E-03 -1.66501337202887159E-03 -1.68595666149737354E-03
 -1.70716338509668939E-03 -1.72863685641947047E-03 -1.75038043073820070E-03
 -1.77239750552947006E-03 -1.79469152100482539E-03 -1.81726596064831435E-03
 -1.84012435176078440E-03 -1.86327026601102656E-03 -1.88670731999386393E-03
 -1.91043917579523589E-03 -1.93446954156441405E-03 -1.95880217209340284E-03
 -1.98344086940362933E-03 -2.00838948334002357E-03 -2.03365191217254934E-03
 -2.05923210320532128E-03 -2.08513405339337717E-03 -2.11136180996720612E-03
 -2.13791947106513726E-03 -2.16481118637367256E-03 -2.19204115777588701E-03
 -2.21961364000797636E-03 -2.24753294132406080E-03 -2.27580342416936442E-03
 -2.30442950586184263E-03 -2.33341565928240225E-03 -2.36276641357379162E-03
 -2.39248635484828193E-03 -2.42258012690425763E-03 -2.45305243195180663E-03
 -2.48390803134745323E-03 -2.51515174633812517E-03 -2.54678845881447331E-03
 -2.57882311207368632E-03 -2.61126071159186726E-03 -2.64410632580615442E-03
 -2.67736508690666732E-03 -2.71104219163841552E-03 -2.74514290211330322E-03
 -2.77967254663232487E-03 -2.81463652051812613E-03 -2.85004028695802752E-03
 -2.88588937785764620E-03 -2.92218939470527189E-03 -2.95894600944708814E-03
 -2.99616496537342698E-03 -3.03385207801616392E-03 -3.07201323605739342E-03
 -3.11065440224954793E-03 -3.14978161434706447E-03 -3.18940098604980106E-03
 -3.22951870795830679E-03 -3.27014104854109243E-03 -3.31127435511409905E-03
 -3.35292505483245204E-03 -3.39509965569471939E-03 -3.43780474755977974E-03
 -3.48104700317648829E-03 -3.52483317922631023E-03 -3.56917011737903443E-03
 -3.61406474536179762E-03 -3.65952407804153801E-03 -3.70555521852105859E-03
 -3.75216535924891102E-03 -3.79936178314319896E-03 -3.84715186472953021E-03
 -3.89554307129328552E-03 -3.94454296404638839E-03 -3.99415919930875066E-03
 -4.04439952970453258E-03 -4.09527180537352584E-03 -4.14678397519772923E-03
 -4.19894408804332916E-03 -4.25176029401835333E-03 -4.30524084574612515E-03
 -4.35939409965471758E-03 -4.41422851728263000E-03 -4.46975266660091033E-03
 -4.52597522335189927E-03 -4.58290497240477351E-03 -4.64055080912821345E-03
 -4.69892174078027480E-03 -4.75802688791574033E-03 -4.81787548581123250E-03
 -4.87847688590819020E-03 -4.93984055727400475E-03 -5.00197608808158108E-03
 -5.06489318710745019E-03 -5.12860168524874576E-03 -5.19311153705927318E-03
 -5.25843282230488256E-03 -5.32457574753840944E-03 -5.39155064769443904E-03
 -5.45936798770410483E-03 -5.52803836413019115E-03 -5.59757250682287131E-03
 -5.66798128059614690E-03 -5.73927568692549246E-03 -5.81146686566682072E-03
 -5.88456609679699916E-03 -5.95858480217633431E-03 -6.03353454733321012E-03
 -6.10942704327115203E-03 -6.18627414829863581E-03 -6.26408786988188245E-03
 -6.34288036652100751E-03 -6.42266394964972984E-03 -6.50345108555896740E-03
 -6.58525439734465850E-03 -6.66808666688005914E-03 -6.75196083681283907E-03
 -6.83689001258732873E-03 -6.92288746449216952E-03 -7.00996662973373159E-03
 -7.09814111453558293E-03 -7.18742469626443628E-03 -7.27783132558272421E-03
 -7.36937512862835715E-03 -7.46207040922182777E-03 -7.55593165110106987E-03
 -7.65097352018447984E-03 -7.74721086686236144E-03 -7.84465872831719563E-03
 -7.94333233087306245E-03 -8.04324709237468072E-03 -8.14441862459633001E-03
 -8.24686273568102021E-03 -8.35059543261041683E-03 -8.45563292370581608E-03
 -8.56199162116050641E-03 -8.66968814360408700E-03 -8.77873931869888741E-03
 -8.88916218576922719E-03 -9.00097399846359371E-03 -9.11419222745031392E-03
 -9.22883456314726493E-03 -9.34491891848570136E-03 -9.46246343170901137E-03
 -9.58148646920663899E-03 -9.70200662838352663E-03 -9.82404274056582726E-03
 -9.94761387394299361E-03 -1.00727393365469924E-02 -1.01994386792688824E-02
 -1.03277316989134216E-02 -1.04576384412920446E-02 -1.05891792043546398E-02
 -1.07223745413608986E-02 -1.08572452640914568E-02 -1.09938124460993419E-02
 -1.11320974260024057E-02 -1.12721218108171612E-02 -1.14139074793344689E-02
 -1.15574765855376745E-02 -1.17028515620639512E-02 -1.18500551237087342E-02
 -1.19991102709746545E-02 -1.21500402936648624E-02 -1.23028687745215248E-02
 -1.24576195929103316E-02 -1.26143169285508946E-02 -1.27729852652944589E-02
 -1.29336493949489262E-02 -1.30963344211519634E-02 -1.32610657632929053E-02
 -1.34278691604838990E-02 -1.35967706755809100E-02 -1.37677966992555481E-02
 -1.39409739541177316E-02 -1.41163294988905005E-02 -1.42938907326371160E-02
 -1.44736853990414215E-02 -1.46557415907419396E-02 -1.48400877537204975E-02
 -1.50267526917461057E-02 -1.52157655708745378E-02 -1.54071559240045938E-02
 -1.56009536554916582E-02 -1.57971890458191884E-02 -1.59958927563290283E-02
 -1.61970958340109973E-02 -1.64008297163529826E-02 -1.66071262362517090E-02
 -1.68160176269854904E-02 -1.70275365272492887E-02 -1.72417159862531949E-02
 -1.74585894688849379E-02 -1.76781908609373352E-02 -1.79005544744013922E-02
 -1.81257150528261052E-02 -1.83537077767452483E-02 -1.85845682691728326E-02
 -1.88183326011673660E-02 -1.90550372974660730E-02 -1.92947193421900906E-02
 -1.95374161846210322E-02 -1.97831657450505925E-02 -2.00320064207032585E-02
 -2.02839770917338583E-02 -2.05391171273000515E-02 -2.07974663917113757E-02
 -2.10590652506556786E-02 -2.13239545775035719E-02 -2.15921757596920921E-02
 -2.18637707051888598E-02 -2.21387818490371181E-02 -2.24172521599832822E-02
 -2.26992251471875434E-02 -2.29847448670190829E-02 -2.32738559299362595E-02
 -2.35666035074535880E-02 -2.38630333391960381E-02 -2.41631917400421427E-02
 -2.44671256073566365E-02 -2.47748824283140594E-02 -2.50865102873144459E-02
 -2.54020578734919199E-02 -2.57215744883178624E-02 -2.60451100532993682E-02
 -2.63727151177747116E-02 -2.67044408668062824E-02 -2.70403391291729189E-02
 -2.73804623854626526E-02 -2.77248637762669801E-02 -2.80735971104779623E-02
 -2.84267168736898439E-02 -2.87842782367055162E-02 -2.91463370641507034E-02
 -2.95129499231953397E-02 -2.98841740923853801E-02 -3.02600675705844563E-02
 -3.06406890860287974E-02 -3.10260981054953158E-02 -3.14163548435843903E-02
 -3.18115202721202320E-02 -3.22116561296681356E-02 -3.26168249311717187E-02
 -3.30270899777111715E-02 -3.34425153663837488E-02 -3.38631660003082188E-02
 -3.42891075987550725E-02 -3.47204067074035061E-02 -3.51571307087274465E-02
 -3.55993478325118476E-02 -3.60471271665001314E-02 -3.65005386671766394E-02
 -3.69596531706827824E-02 -3.74245424038712610E-02 -3.78952789954981051E-02
 -3.83719364875558244E-02 -3.88545893467478545E-02 -3.93433129761072489E-02
 -3.98381837267614142E-02 -4.03392789098436025E-02 -4.08466768085540902E-02
 -4.13604566903725199E-02 -4.18806988194233010E-02 -4.24074844689958860E-02
 -4.29408959342217553E-02 -4.34810165449106695E-02 -4.40279306785471974E-02
 -4.45817237734508695E-02 -4.51424823420996518E-02 -4.57102939846221676E-02
 -4.62852474024571733E-02 -4.68674324121854530E-02 -4.74569399595336297E-02
 -4.80538621335542190E-02 -4.86582921809827068E-02 -4.92703245207743099E-02
 -4.98900547588229173E-02 -5.05175797028635729E-02 -5.11529973775622510E-02
 -5.17964070397934837E-02 -5.24479091941095973E-02 -5.31076056084036005E-02
 -5.37755993297667767E-02 -5.44519947005456112E-02 -5.51368973745995153E-02
 -5.58304143337600145E-02 -5.65326539044982701E-02 -5.72437257747979572E-02
 -5.79637410112410212E-02 -5.86928120763057642E-02 -5.94310528458813700E-02
 -6.01785786270003439E-02 -6.09355061757930125E-02 -6.17019537156658568E-02
 -6.24780409557063390E-02 -6.32638891093178224E-02 -6.40596209130860211E-02
 -6.48653606458814008E-02 -6.56812341481994022E-02 -6.65073688417421455E-02
 -6.73438937492424061E-02 -6.81909395145373909E-02 -6.90486384228894273E-02
 -6.99171244215615467E-02 -7.07965331406489456E-02 -7.16870019141686299E-02
 -7.25886698014124726E-02 -7.35016776085652274E-02 -7.44261679105912566E-02
 -7.53622850733941391E-02 -7.63101752762496838E-02 -7.72699865345198716E-02
 -7.82418687226475174E-02 -7.92259735974352591E-02 -8.02224548216167038E-02
 -8.12314679877158552E-02 -8.22531706422061498E-02 -8.32877223099651037E-02
 -8.43352845190362549E-02 -8.53960208256933223E-02 -8.64700968398183223E-02
 -8.75576802505914215E-02 -8.86589408524995765E-02 -8.97740505716663612E-02
 -9.09031834925073529E-02 -9.20465158847149634E-02 -9.32042262305759067E-02
 -9.43764952526259387E-02 -9.55635059416467536E-02 -9.67654435850057587E-02
 -9.79824957953479431E-02 -9.92148525396387981E-02 -1.00462706168565175E-01
 -1.01726251446299543E-01 -1.03005685580627337E-01 -1.04301208253447367E-01
 -1.05613021651643851E-01 -1.06941330498340911E-01 -1.08286342084536330E-01
 -1.09648266301126313E-01 -1.11027315671321250E-01 -1.12423705383457348E-01
 -1.13837653324211363E-01 -1.15269380112220127E-01 -1.16719109132110699E-01
 -1.18187066568946023E-01 -1.19673481443090576E-01 -1.21178585645501630E-01
 -1.22702613973447963E-01 -1.24245804166665391E-01 -1.25808396943950518E-01
 -1.27390636040198152E-01 -1.28992768243890249E-01 -1.30615043435035882E-01
 -1.32257714623574330E-01 -1.33921037988238206E-01 -1.35605272915890834E-01
 -1.37310682041334647E-01 -1.39037531287600935E-01 -1.40786089906725670E-01
 -1.42556630521013750E-01 -1.44349429164800730E-01 -1.46164765326714824E-01
 -1.48002921992444664E-01 -1.49864185688021678E-01 -1.51748846523615338E-01
 -1.53657198237856119E-01 -1.55589538242682263E-01 -1.57546167668723341E-01
 -1.59527391411222352E-01 -1.61533518176502022E-01 -1.63564860528981254E-01
 -1.65621734938750265E-01 -1.67704461829705026E-01 -1.69813365628248530E-01
 -1.71948774812568622E-01 -1.74111021962490203E-01 -1.76300443809916191E-01
 -1.78517381289854782E-01 -1.80762179592045519E-01 -1.83035188213185207E-01
 -1.85336761009762374E-01 -1.87667256251504350E-01 -1.90027036675442129E-01
 -1.92416469540602070E-01 -1.94835926683326249E-01 -1.97285784573228068E-01
 -1.99766424369792167E-01 -2.02278231979618917E-01 -2.04821598114323211E-01
 -2.07396918349092407E-01 -2.10004593181906396E-01 -2.12645028093430777E-01
 -2.15318633607581716E-01 -2.18025825352773733E-01 -2.20767024123854266E-01
 -2.23542655944726276E-01 -2.26353152131673840E-01 -2.29198949357382692E-01
 -2.32080489715675048E-01 -2.34998220786951345E-01 -2.37952595704352676E-01
 -2.40944073220645288E-01 -2.43973117775830667E-01 -2.47040199565490309E-01
 -2.50145794609863747E-01 -2.53290384823671666E-01 -2.56474458086680790E-01
 -2.59698508315020560E-01 -2.62963035533254785E-01 -2.66268545947206448E-01
 -2.69615552017549998E-01 -2.73004572534164380E-01 -2.76436132691255387E-01
 -2.79910764163251891E-01 -2.83429005181473126E-01 -2.86991400611577352E-01
 -2.90598502031786610E-01 -2.94250867811895300E-01 -2.97949063193064356E-01
 -3.01693660368398953E-01 -3.05485238564313366E-01 -3.09324384122685980E-01
 -3.13211690583802993E-01 -3.17147758770089494E-01 -3.21133196870630189E-01
 -3.25168620526485153E-01 -3.29254652916783630E-01 -3.33391924845613641E-01
 -3.37581074829692906E-01 -3.41822749186823149E-01 -3.46117602125125434E-01
 -3.50466295833055275E-01 -3.54869500570186847E-01 -3.59327894758769251E-01
 -3.63842165076046609E-01 -3.68413006547337607E-01 -3.73041122639866440E-01
 -3.77727225357338603E-01 -3.82472035335258087E-01 -3.87276281936965117E-01
 -3.92140703350408903E-01 -3.97066046685610685E-01 -4.02053068072843800E-01
 -4.07102532761487168E-01 -4.12215215219557785E-01 -4.17391899233903574E-01
 -4.22633378011036065E-01 -4.27940454278595339E-01 -4.33313940387422714E-01
 -4.38754658414226673E-01 -4.44263440264819010E-01 -4.49841127777901584E-01
 -4.55488572829381433E-01 -4.61206637437184597E-01 -4.66996193866556331E-01
 -4.72858124735797192E-01 -4.78793323122432224E-01 -4.84802692669760726E-01
 -4.90887147693763959E-01 -4.97047613290334256E-01 -5.03285025442792744E-01
 -5.09600331129640649E-01 -5.15994488432526155E-01 -5.22468466644361529E-01
 -5.29023246377559486E-01 -5.35659819672329895E-01 -5.42379190104992026E-01
 -5.49182372896243942E-01 -5.56070395019331420E-01 -5.63044295308062659E-01
 -5.70105124564589949E-01 -5.77253945666913126E-01 -5.84491833676014316E-01
 -5.91819875942557472E-01 -5.99239172213079097E-01 -6.06750834735578115E-01
 -6.14355988364428618E-01 -6.22055770664513785E-01 -6.29851332014496279E-01
 -6.37743835709115747E-01 -6.45734458060412297E-01 -6.53824388497770137E-01
 -6.62014829666644045E-01 -6.70306997525880521E-01 -6.78702121443475748E-01
 -6.87201444290647334E-01 -6.95806222534076202E-01 -7.04517726326181148E-01
 -7.13337239593243133E-01 -7.22266060121255493E-01 -7.31305499639291368E-01
 -7.40456883900230123E-01 -7.49721552758647936E-01 -7.59100860245679909E-01
 -7.68596174640634899E-01 -7.78208878539166982E-01 -7.87940368917747325E-01
 -7.97792057194227300E-01 -8.07765369284217716E-01 -8.17861745653043926E-01
 -8.28082641362982041E-01 -8.38429526115500034E-01 -8.48903884288204513E-01
 -8.59507214966166999E-01 -8.70241031967294631E-01 -8.81106863861423673E-01
 -8.92106253982741126E-01 -9.03240760435171319E-01 -9.14511956090320766E-01
 -9.25921428577560879E-01 -9.37470780265822312E-01 -9.49161628236613431E-01
 -9.60995604247816271E-01 -9.72974354687731080E-01 -9.85099540518831751E-01
 -9.97372837210714347E-01 -1.00979593466161144E+00 -1.02237053710791592E+00
 -1.03509836302101532E+00 -1.04798114499081940E+00 -1.06102062959524934E+00
 -1.07421857725496417E+00 -1.08757676207256804E+00 -1.10109697165544707E+00
 -1.11478100692145166E+00 -1.12863068188648064E+00 -1.14264782343307525E+00
 -1.15683427105904180E+00 -1.17119187660508173E+00 -1.18572250396033718E+00
 -1.20042802874477306E+00 -1.21531033796717391E+00 -1.23037132965756335E+00
 -1.24561291247272155E+00 -1.26103700527347451E+00 -1.27664553667229974E+00
 -1.29244044454979568E+00 -1.30842367553844285E+00 -1.32459718447203123E+00
 -1.34096293379900855E+00 -1.35752289295797013E+00 -1.37427903771341287E+00
 -1.39123334944975108E+00 -1.40838781442155248E+00 -1.42574442295779069E+00
 -1.44330516861783553E+00 -1.46107204729680995E+00 -1.47904705627782262E+00
 -1.49723219322842849E+00 -1.51562945513855407E+00 -1.53424083719700044E+00
 -1.55306833160350211E+00 -1.57211392631315627E+00 -1.59137960370992881E+00
 -1.61086733920566383E+00 -1.63057909976099680E+00 -1.65051684232430085E+00
 -1.67068251218475905E+00 -1.69107804123518224E+00 -1.71170534614023984E+00
 -1.73256632640543184E+00 -1.75366286234193813E+00 -1.77499681292231082E+00
 -1.79657001352158274E+00 -1.81838427353825272E+00 -1.84044137388919804E+00
 -1.86274306437253045E+00 -1.88529106089194354E+00 -1.90808704253568595E+00
 -1.93113264850315569E+00 -1.95442947487169949E+00 -1.97797907119593996E+00
 -2.00178293693141907E+00 -2.02584251767416834E+00 -2.05015920120717876E+00
 -2.07473431334447866E+00 -2.09956911356348641E+00 -2.12466479041503709E+00
 -2.15002245670052350E+00 -2.17564314440504436E+00 -2.20152779937493737E+00
 -2.22767727572751584E+00 -2.25409232998032261E+00 -2.28077361488658381E+00
 -2.30772167296276498E+00 -2.33493692969438449E+00 -2.36241968640477795E+00
 -2.39017011277075708E+00 -2.41818823896892310E+00 -2.44647394743552926E+00
 -2.47502696422205304E+00 -2.50384684992794293E+00 -2.53293299019120521E+00
 -2.56228458571638207E+00 -2.59190064181947255E+00 -2.62177995746865378E+00
 -2.65192111379732154E+00 -2.68232246206625558E+00 -2.71298211105079989E+00
 -2.74389791382790005E+00 -2.77506745393702214E+00 -2.80648803088799514E+00
 -2.83815664498774245E+00 -2.87006998145700232E+00 -2.90222439380928909E+00
 -2.93461588645981086E+00 -2.96724009653324083E+00 -3.00009227483826901E+00
 -3.03316726597594721E+00 -3.06645948754794695E+00 -3.09996290843004196E+00
 -3.13367102607538861E+00 -3.16757684281067542E+00 -3.20167284109162420E+00
 -3.23595095767845597E+00 -3.27040255669370294E+00 -3.30501840152486981E+00
 -3.33978862553407829E+00 -3.37470270153648233E+00 -3.40974941000963128E+00
 -3.44491680599594208E+00 -3.48019218465988311E+00 -3.51556204546712880E+00
 -3.55101205494821581E+00 -3.58652700801141666E+00 -3.62209078777324667E+00
 -3.65768632387586479E+00 -3.69329554926309278E+00 -3.72889935538946871E+00
 -3.76447754583990113E+00 -3.80000878834027445E+00 -3.83547056514806783E+00
 -3.87083912181186962E+00 -3.90608941429476708E+00 -3.94119505446511909E+00
 -3.97612825396450376E+00 -4.01085976647072506E+00 -4.04535882838248639E+00
 -4.07959309796269398E+00 -4.11352859298822970E+00 -4.14712962696772180E+00
 -4.18035874399933860E+00 -4.21317665235740435E+00 -4.24554215691344261E+00
 -4.27741209051498128E+00 -4.30874124446508944E+00 -4.33948229826717480E+00
 -4.36958574882354078E+00 -4.39899983930539396E+00 -4.42767048792850826E+00
 -4.45554121690535965E+00 -4.48255308188225943E+00 -4.50864460219825780E+00
 -4.53375169234180397E+00 -4.55780759502184285E+00 -4.58074281631281810E+00
 -4.60248506338148022E+00 -4.62295918536548012E+00 -4.64208711797911544E+00
 -4.65978783251974793E+00 -4.67597729001179019E+00 -4.69056840126649099E+00
 -4.70347099370870403E+00 -4.71459178589121652E+00 -4.72383437068991352E+00
 -4.73109920825526054E+00 -4.73628362990297180E+00 -4.73928185407795866E+00
 -4.73998501575549192E+00 -4.73828121070411434E+00 -4.73405555608371209E+00
 -4.72719026895985728E+00 -4.71756476440734485E+00 -4.70505577496781147E+00
 -4.68953749333972159E+00 -4.67088174030840708E+00 -4.64895815972401838E+00
 -4.62363444281040081E+00 -4.59477658401556965E+00 -4.56224917064717861E+00
 -4.52591570863163195E+00 -4.48563898679102024E+00 -4.44128148207618523E+00
 -4.39270580828928026E+00 -4.33977521082567907E+00 -4.28235410949295403E+00
 -4.22030869224037364E+00 -4.15350756213637418E+00 -4.08182243985864357E+00
 -4.00512892388109965E+00 -3.92330731038667313E+00 -3.83624347473748273E+00
 -3.74382981625386835E+00 -3.64596626747960872E+00 -3.54256136835221147E+00
 -3.43353340647847727E+00 -3.31881162338668378E+00 -3.19833748621062197E+00
 -3.07206602366776460E+00 -2.93996722448149761E+00 -2.80202749560604714E+00
 -2.65825117700716973E+00 -2.50866210793979327E+00 -2.35330523883743403E+00
 -2.19224828277611428E+00 -2.02558339808778154E+00 -1.85342889256187626E+00
 -1.67593093817771832E+00 -1.49326528368561307E+00 -1.30563895065492774E+00
 -1.11329189702400000E+00 -9.16498629132474818E-01 -7.15569742498495587E-01
 -5.10853369553708636E-01 -3.02736509737742798E-01 -9.16462154861494988E-02
  1.21949394491238858E-01  3.37540325364227012E-01  5.54574132570183953E-01
  7.72455619423316864E-01  9.90546842418998708E-01  1.20816746210013171E+00
  1.42459547927478480E+00  1.63906839731073806E+00  1.85078485192063136E+00
  2.05890675012665669E+00  2.26256195984691866E+00  2.46084759125399755E+00
  2.65283390953774667E+00  2.83756891243676934E+00  3.01408360860197000E+00
  3.18139802582372955E+00  3.33852797277040558E+00  3.48449257157606107E+00
  3.61832257073582486E+00  3.73906943848601259E+00  3.84581522832919909E+00
  3.93768319074503959E+00  4.01384908871864976E+00  4.07355317052767596E+00
  4.11611272570187481E+00  4.14093513169867311E+00  4.14753127681031142E+00
  4.13552922037954929E+00  4.10468792517179715E+00  4.05491087188112243E+00
  3.98625932011549633E+00  3.89896496119249836E+00  3.79344167772806928E+00
  3.67029607926380308E+00  3.53033645017700115E+00  3.37457970957504294E+00
  3.20425594676479353E+00  3.02081006180254930E+00  2.82590000800960217E+00
  2.62139109851982122E+00  2.40934583474956465E+00  2.19200869089064065E+00
  1.97178528566171174E+00  1.75121538560598689E+00  1.53293921266215571E+00
  1.31965657773176170E+00  1.11407842995169504E+00  9.18870514444768083E-01
  7.36588996441425392E-01  5.69608034927600704E-01  4.20039519852361931E-01
  2.89645440372910568E-01  1.79743648522117078E-01  9.11081269547250189E-02
  2.38652586438544735E-02 -2.26119925913212741E-02 -4.98095404622956456E-02
 -6.01743408079135622E-02 -5.72100229489988857E-02 -4.55642697776238864E-02
 -3.11517406504812043E-02 -1.86972555832380267E-02 -9.24411393254429350E-03
 -3.37115571552154243E-03 -9.36093943169970439E-04  6.34435018418602994E-05
  4.69050786183428580E-06  3.04250864929934761E-07  1.73028604196628223E-08
  8.22030490581113834E-10  2.70715632346866889E-11 -9.09987940925690342E-14
 -1.11160010991818270E-13 -1.25184836602885164E-14 -1.03935743785976579E-15
 -7.36410018581915721E-17 -4.59554956822624665E-18  0.00000000000000000E+00
  0.00000000000000000E+00  0.00000000000000000E+00  0.00000000000000000E+00
  0.00000000000000000E+00  0.00000000000000000E+00  0.00000000000000000E+00
  0.00000000000000000E+00  0.00000000000000000E+00  0.00000000000000000E+00
  0.00000000000000000E+00  0.00000000000000000E+00  0.00000000000000000E+00
  0.00000000000000000E+00  0.00000000000000000E+00  0.00000000000000000E+00
  0.00000000000000000E+00  0.00000000000000000E+00  0.00000000000000000E+00
  0.00000000000000000E+00  0.00000000000000000E+00  0.00000000000000000E+00
  0.00000000000000000E+00  0.00000000000000000E+00  0.00000000000000000E+00
  0.00000000000000000E+00  0.00000000000000000E+00  0.00000000000000000E+00
  0.00000000000000000E+00  0.00000000000000000E+00  0.00000000000000000E+00
  0.00000000000000000E+00  0.00000000000000000E+00  0.00000000000000000E+00
  0.00000000000000000E+00  0.00000000000000000E+00  0.00000000000000000E+00
  0.00000000000000000E+00  0.00000000000000000E+00  0.00000000000000000E+00
  0.00000000000000000E+00  0.00000000000000000E+00  0.00000000000000000E+00
  0.00000000000000000E+00  0.00000000000000000E+00  0.00000000000000000E+00
  0.00000000000000000E+00  0.00000000000000000E+00  0.00000000000000000E+00
  0.00000000000000000E+00  0.00000000000000000E+00  0.00000000000000000E+00
  0.00000000000000000E+00  0.00000000000000000E+00  0.00000000000000000E+00
  0.00000000000000000E+00  0.00000000000000000E+00  0.00000000000000000E+00
  0.00000000000000000E+00  0.00000000000000000E+00  0.00000000000000000E+00
  0.00000000000000000E+00  0.00000000000000000E+00  0.00000000000000000E+00
  0.00000000000000000E+00  0.00000000000000000E+00  0.00000000000000000E+00
  0.00000000000000000E+00  0.00000000000000000E+00  0.00000000000000000E+00
  0.00000000000000000E+00  0.00000000000000000E+00  0.00000000000000000E+00
  0.00000000000000000E+00  0.00000000000000000E+00  0.00000000000000000E+00
  0.00000000000000000E+00  0.00000000000000000E+00  0.00000000000000000E+00
  0.00000000000000000E+00  0.00000000000000000E+00  0.00000000000000000E+00
  0.00000000000000000E+00  0.00000000000000000E+00  0.00000000000000000E+00
  0.00000000000000000E+00  0.00000000000000000E+00  0.00000000000000000E+00
  0.00000000000000000E+00  0.00000000000000000E+00  0.00000000000000000E+00
  0.00000000000000000E+00  0.00000000000000000E+00  0.00000000000000000E+00
  0.00000000000000000E+00  0.00000000000000000E+00  0.00000000000000000E+00
  0.00000000000000000E+00  0.00000000000000000E+00  0.00000000000000000E+00
  0.00000000000000000E+00  0.00000000000000000E+00  0.00000000000000000E+00
  0.00000000000000000E+00  0.00000000000000000E+00  0.00000000000000000E+00
  0.00000000000000000E+00  0.00000000000000000E+00  0.00000000000000000E+00
  0.00000000000000000E+00  0.00000000000000000E+00  0.00000000000000000E+00
  0.00000000000000000E+00  0.00000000000000000E+00  0.00000000000000000E+00
  0.00000000000000000E+00  0.00000000000000000E+00  0.00000000000000000E+00
  0.00000000000000000E+00  0.00000000000000000E+00  0.00000000000000000E+00
  0.00000000000000000E+00  0.00000000000000000E+00  0.00000000000000000E+00
  0.00000000000000000E+00  0.00000000000000000E+00  0.00000000000000000E+00
  0.00000000000000000E+00  0.00000000000000000E+00  0.00000000000000000E+00
  0.00000000000000000E+00  0.00000000000000000E+00  0.00000000000000000E+00
  0.00000000000000000E+00  0.00000000000000000E+00  0.00000000000000000E+00
  0.00000000000000000E+00  0.00000000000000000E+00  0.00000000000000000E+00
  0.00000000000000000E+00  0.00000000000000000E+00  0.00000000000000000E+00
  0.00000000000000000E+00  0.00000000000000000E+00  0.00000000000000000E+00
  0.00000000000000000E+00  0.00000000000000000E+00  0.00000000000000000E+00
  0.00000000000000000E+00  0.00000000000000000E+00  0.00000000000000000E+00
  0.00000000000000000E+00  0.00000000000000000E+00  0.00000000000000000E+00
  0.00000000000000000E+00  0.00000000000000000E+00  0.00000000000000000E+00
  0.00000000000000000E+00  0.00000000000000000E+00  0.00000000000000000E+00
  0.00000000000000000E+00  0.00000000000000000E+00  0.00000000000000000E+00
  0.00000000000000000E+00  0.00000000000000000E+00  0.00000000000000000E+00
  0.00000000000000000E+00
                              </PP_BETA.2>
 <PP_BETA.3 type="real" size="   961" angular_momentum="1" columns="3" cutoff_radius_index="   794" norm_conserving_radius="    1.801735" label= "2P">
  8.98630427295468128E-08  9.21379364948112305E-08  9.44704194703274280E-08
  9.68619495339141929E-08  9.93140214697447478E-08  1.01828167902634599E-07
  1.04405960255982200E-07  1.07049009733960019E-07  1.09758968328569652E-07
  1.12537529852191190E-07  1.15386430996269985E-07  1.18307452416806504E-07
  1.21302419847324056E-07  1.24373205240011207E-07  1.27521727935754815E-07
  1.30749955863788448E-07  1.34059906771713428E-07  1.37453649486657147E-07
  1.40933305208356900E-07  1.44501048834979715E-07  1.48159110322503823E-07
  1.51909776078514286E-07  1.55755390391282204E-07  1.59698356895021784E-07
  1.63741140072240570E-07  1.67886266794119551E-07  1.72136327899892510E-07
  1.76493979816203405E-07  1.80961946217460137E-07  1.85543019728221461E-07
  1.90240063668676030E-07  1.95056013844312983E-07  1.99993880380895098E-07
  2.05056749605885867E-07  2.10247785977506837E-07  2.15570234062624156E-07
  2.21027420564711227E-07  2.26622756403146170E-07  2.32359738845147267E-07
  2.38241953691682352E-07  2.44273077518707142E-07  2.50456879975148681E-07
  2.56797226139057153E-07  2.63298078933407118E-07  2.69963501603055070E-07
  2.76797660254397107E-07  2.83804826459324444E-07  2.90989379925094350E-07
  2.98355811231790808E-07  3.05908724639084712E-07  3.13652840964045346E-07
  3.21593000531805864E-07  3.29734166200925850E-07  3.38081426465338572E-07
  3.46639998634829785E-07  3.55415232096022624E-07  3.64412611655922688E-07
  3.73637760970100988E-07  3.83096446057661935E-07  3.92794578905196842E-07
  4.02738221161966170E-07  4.12933587928630828E-07  4.23387051641893563E-07
  4.34105146057478685E-07  4.45094570333948912E-07  4.56362193219892671E-07
  4.67915057347122506E-07  4.79760383632547597E-07  4.91905575791483896E-07
  5.04358224965223121E-07  5.17126114465741554E-07  5.30217224640525925E-07
  5.43639737860552243E-07  5.57402043634537740E-07  5.71512743852662233E-07
  5.85980658163025270E-07  6.00814829484220928E-07  6.16024529657459295E-07
  6.31619265241769376E-07  6.47608783455914788E-07  6.64003078270723124E-07
  6.80812396655648688E-07  6.98047244983464321E-07  7.15718395597089837E-07
  7.33836893542666233E-07  7.52414063473065010E-07  7.71461516726176798E-07
  7.90991158582376903E-07  8.11015195705718105E-07  8.31546143773502430E-07
  8.52596835298986489E-07  8.74180427652129049E-07  8.96310411283382991E-07
  9.19000618155668908E-07  9.42265230389815191E-07  9.66118789128844960E-07
  9.90576203626676754E-07  1.01565276056690033E-06  1.04136413361745643E-06
  1.06772639322720800E-06  1.09475601667049094E-06  1.12246989834596565E-06
  1.15088536033617118E-06  1.18002016323440145E-06  1.20989251724567419E-06
  1.24052109356870426E-06  1.27192503606602582E-06  1.30412397322954314E-06
  1.33713803044898948E-06  1.37098784259097280E-06  1.40569456689644623E-06
  1.44127989620468805E-06  1.47776607251205304E-06  1.51517590087396261E-06
  1.55353276365882835E-06  1.59286063516280446E-06  1.63318409659452840E-06
  1.67452835143920146E-06  1.71691924121160392E-06  1.76038326160791710E-06
  1.80494757906640821E-06  1.85064004774737657E-06  1.89748922694292971E-06
  1.94552439892750789E-06  1.99477558726028688E-06  2.04527357555090652E-06
  2.09704992670027437E-06  2.15013700262842956E-06  2.20456798450184367E-06
  2.26037689347276797E-06  2.31759861194360338E-06  2.37626890536957210E-06
  2.43642444461334739E-06  2.49810282886557952E-06  2.56134260914567296E-06
  2.62618331239748077E-06  2.69266546619497761E-06  2.76083062407336874E-06
  2.83072139150148548E-06  2.90238145251164729E-06  2.97585559700366123E-06
  3.05118974874004864E-06  3.12843099404997449E-06  3.20762761125979760E-06
  3.28882910086869228E-06  3.37208621648817330E-06  3.45745099656481856E-06
  3.54497679690611354E-06  3.63471832402965472E-06  3.72673166935662272E-06
  3.82107434427086148E-06  3.91780531606548264E-06  4.01698504479944938E-06
  4.11867552108724321E-06  4.22294030484513086E-06  4.32984456501836051E-06
  4.43945512031398268E-06  4.55184048096489893E-06  4.66707089155116702E-06
  4.78521837490530659E-06  4.90635677712913987E-06  5.03056181375015019E-06
  5.15791111704639345E-06  5.28848428456942850E-06  5.42236292889554946E-06
  5.55963072863664581E-06  5.70037348074218469E-06  5.84467915412545797E-06
  5.99263794464725050E-06  6.14434233149149776E-06  6.29988713496811519E-06
  6.45936957577905242E-06  6.62288933578476470E-06  6.79054862030900292E-06
  6.96245222202079503E-06  7.13870758643373607E-06  7.31942487906328257E-06
  7.50471705428424958E-06  7.69469992593144893E-06  7.88949223968755690E-06
  8.08921574730360460E-06  8.29399528269823060E-06  8.50395883998356164E-06
  8.71923765346627511E-06  8.93996627967394105E-06  9.16628268145789752E-06
  9.39832831422517723E-06  9.63624821435349220E-06  9.88019108984443684E-06
  1.01303094132715829E-05  1.03867595170818029E-05  1.06497016913087894E-05
  1.09193002837606475E-05  1.11957238027434984E-05  1.14791450223857371E-05
  1.17697410906285839E-05  1.20676936399503583E-05  1.23731889008939572E-05
  1.26864178184682053E-05  1.30075761714960418E-05  1.33368646949841322E-05
  1.36744892055900150E-05  1.40206607302659590E-05  1.43755956381591318E-05
  1.47395157758511913E-05  1.51126486060212871E-05  1.54952273496194804E-05
  1.58874911316395506E-05  1.62896851305817839E-05  1.67020607316997666E-05
  1.71248756841267030E-05  1.75583942619792452E-05  1.80028874295401157E-05
  1.84586330106220676E-05  1.89259158622197624E-05  1.94050280525575385E-05
  1.98962690436446260E-05  2.03999458784517785E-05  2.09163733728267776E-05
  2.14458743122678199E-05  2.19887796536791689E-05  2.25454287322335073E-05
  2.31161694734718299E-05  2.37013586107726069E-05  2.43013619083262071E-05
  2.49165543897545319E-05  2.55473205725177953E-05  2.61940547082558193E-05
  2.68571610292138759E-05  2.75370540009067235E-05  2.82341585811795373E-05
  2.89489104858265591E-05  2.96817564609346290E-05  3.04331545621213667E-05
  3.12035744408421491E-05  3.19934976379459369E-05  3.28034178846617878E-05
  3.36338414112061663E-05  3.44852872632023808E-05  3.53582876261107637E-05
  3.62533881578720757E-05  3.71711483299723354E-05  3.81121417771417340E-05
  3.90769566559071575E-05  4.00661960122216098E-05  4.10804781584005286E-05
  4.21204370596010586E-05  4.31867227300852338E-05  4.42800016395153697E-05
  4.54009571295355799E-05  4.65502898408987723E-05  4.77287181514083169E-05
  4.89369786249457966E-05  5.01758264718668822E-05  5.14460360210532210E-05
  5.27484012039146989E-05  5.40837360506453844E-05  5.54528751990420062E-05
  5.68566744162060401E-05  5.82960111334515475E-05  5.97717849947561696E-05
  6.12849184190975596E-05  6.28363571770254977E-05  6.44270709818315897E-05
  6.60580540956858133E-05  6.77303259511180289E-05  6.94449317882343202E-05
  7.12029433080652323E-05  7.30054593424551957E-05  7.48536065409121238E-05
  7.67485400748450932E-05  7.86914443596330019E-05  8.06835337949727551E-05
  8.27260535239718558E-05  8.48202802114595902E-05  8.69675228420022735E-05
  8.91691235381240118E-05  9.14264583992408902E-05  9.37409383618362387E-05
  9.61140100814145799E-05  9.85471568367825784E-05  1.01041899457227392E-04
  1.03599797273166224E-04  1.06222449090866979E-04  1.08911494191847534E-04
  1.11668613357574504E-04  1.14495529920110377E-04  1.17394010839357807E-04
  1.20365867807580384E-04  1.23412958381887458E-04  1.26537187145391901E-04
  1.29740506897767482E-04  1.33024919875949425E-04  1.36392479005742505E-04
  1.39845289185118357E-04  1.43385508600004800E-04  1.47015350073390240E-04
  1.50737082448585791E-04  1.54553032007512562E-04  1.58465583924899124E-04
  1.62477183759296635E-04  1.66590338981849442E-04  1.70807620543772352E-04
  1.75131664483516172E-04  1.79565173574629217E-04  1.84110919015341283E-04
  1.88771742160929540E-04  1.93550556299948451E-04  1.98450348475436033E-04
  2.03474181352234970E-04  2.08625195131593923E-04  2.13906609514253368E-04
  2.19321725713234511E-04  2.24873928517597716E-04  2.30566688408460310E-04
  2.36403563728590467E-04  2.42388202906947603E-04  2.48524346739544433E-04
  2.54815830728072302E-04  2.61266587477744690E-04  2.67880649155858533E-04
  2.74662150012616973E-04  2.81615328965785418E-04  2.88744532250797376E-04
  2.96054216137977709E-04  3.03548949718566974E-04  3.11233417761306078E-04
  3.19112423641358136E-04  3.27190892343404778E-04  3.35473873540795666E-04
  3.43966544752673275E-04  3.52674214581059334E-04  3.61602326029914856E-04
  3.70756459908262107E-04  3.80142338319491054E-04  3.89765828239038692E-04
  3.99632945182676563E-04  4.09749856967708327E-04  4.20122887569420453E-04
  4.30758521075212761E-04  4.41663405738875511E-04  4.52844358137552590E-04
  4.64308367433996180E-04  4.76062599746774565E-04  4.88114402631177418E-04
  5.00471309673616339E-04  5.13141045202397217E-04  5.26131529117827997E-04
  5.39450881844661008E-04  5.53107429409997416E-04  5.67109708649807015E-04
  5.81466472547353887E-04  5.96186695706844199E-04  6.11279579965734454E-04
  6.26754560149227332E-04  6.42621309970529725E-04  6.58889748080606101E-04
  6.75570044271183411E-04  6.92672625834915546E-04  7.10208184086681378E-04
  7.28187681050101445E-04  7.46622356313475966E-04  7.65523734059418552E-04
  7.84903630272606773E-04  8.04774160130170479E-04  8.25147745579320213E-04
  8.46037123107011135E-04  8.67455351706466734E-04  8.89415821045587483E-04
  9.11932259842349632E-04  9.35018744452454785E-04  9.58689707674596206E-04
  9.82959947778897294E-04  1.00784463776414242E-03  1.03335933484963215E-03
  1.05951999020761803E-03  1.08634295894239718E-03  1.11384501032236213E-03
  1.14204333827138153E-03  1.17095557212614203E-03  1.20059978766615290E-03
  1.23099451842337824E-03  1.26215876727856966E-03  1.29411201835156835E-03
  1.32687424919308698E-03  1.36046594328555659E-03  1.39490810286095070E-03
  1.43022226204359590E-03  1.46643050032624258E-03  1.50355545638783893E-03
  1.54162034226172011E-03  1.58064895786306646E-03  1.62066570588481726E-03
  1.66169560707134212E-03  1.70376431587950850E-03  1.74689813653697160E-03
  1.79112403950777515E-03  1.83646967837565976E-03  1.88296340715559405E-03
  1.93063429804456784E-03  1.97951215962264681E-03  2.02962755551586464E-03
  2.08101182353263598E-03  2.13369709528573887E-03  2.18771631631223479E-03
  2.24310326670396033E-03  2.29989258226162736E-03  2.35811977618578068E-03
  2.41782126131836507E-03  2.47903437294882869E-03  2.54179739219918561E-03
  2.60614957000274540E-03  2.67213115169165653E-03  2.73978340220870469E-03
  2.80914863195935380E-03  2.88027022332021853E-03  2.95319265782082200E-03
  3.02796154401566544E-03  3.10462364606428013E-03  3.18322691303729284E-03
  3.26382050896696771E-03  3.34645484366123853E-03  3.43118160430069602E-03
  3.51805378783850119E-03  3.60712573422363727E-03  3.69845316046861624E-03
  3.79209319558307997E-03  3.88810441639546485E-03  3.98654688428533212E-03
  4.08748218284968930E-03  4.19097345652703294E-03  4.29708545020373277E-03
  4.40588454982766223E-03  4.51743882405498867E-03  4.63181806695638423E-03
  4.74909384180976276E-03  4.86933952600742369E-03  4.99263035710595295E-03
  5.11904348004816809E-03  5.24865799558715471E-03  5.38155500994295759E-03
  5.51781768572380971E-03  5.65753129414380343E-03  5.80078326857070420E-03
  5.94766325943757532E-03  6.09826319055334874E-03  6.25267731684815958E-03
  6.41100228359017636E-03  6.57333718711174651E-03  6.73978363708339565E-03
  6.91044582037561063E-03  7.08543056654892429E-03  7.26484741501425869E-03
  7.44880868390630693E-03  7.63742954071409703E-03  7.83082807471357188E-03
  8.02912537124896020E-03  8.23244558790992877E-03  8.44091603265364684E-03
  8.65466724392174348E-03  8.87383307280319514E-03  9.09855076729628939E-03
  9.32896105872313072E-03  9.56520825035270250E-03  9.80744030828891930E-03
  1.00558089546822944E-02  1.03104697633251158E-02  1.05715822576913834E-02
  1.08393100114850000E-02  1.11138207517603744E-02  1.13952864646825417E-02
  1.16838835039941510E-02  1.19797927022599737E-02  1.22831994849603339E-02
  1.25942939875072733E-02  1.29132711752588322E-02  1.32403309666092837E-02
  1.35756783592346948E-02  1.39195235595757985E-02  1.42720821156415312E-02
  1.46335750532198758E-02  1.50042290155838719E-02  1.53842764067836230E-02
  1.57739555386172403E-02  1.61735107813760631E-02  1.65831927184623661E-02
  1.70032583049800588E-02  1.74339710304012227E-02  1.78756010854148571E-02
  1.83284255330663469E-02  1.87927284842988700E-02  1.92688012780119940E-02
  1.97569426657540730E-02  2.02574590011696844E-02  2.07706644343257120E-02
  2.12968811110428556E-02  2.18364393773631364E-02  2.23896779892868956E-02
  2.29569443279174432E-02  2.35385946201529493E-02  2.41349941650713731E-02
  2.47465175661561801E-02  2.53735489695152173E-02  2.60164823082491767E-02
  2.66757215531299892E-02  2.73516809697536868E-02  2.80447853823364811E-02
  2.87554704443269971E-02  2.94841829160132074E-02  3.02313809493060213E-02
  3.09975343798863830E-02  3.17831250269084917E-02  3.25886470004553355E-02
  3.34146070169494269E-02  3.42615247227248051E-02  3.51299330259737877E-02
  3.60203784372869415E-02  3.69334214190070106E-02  3.78696367436295520E-02
  3.88296138614827174E-02  3.98139572779283579E-02  4.08232869403314866E-02
  4.18582386350502961E-02  4.29194643947076182E-02  4.40076329160081839E-02
  4.51234299883754783E-02  4.62675589336868018E-02  4.74407410573919747E-02
  4.86437161113091529E-02  4.98772427683962793E-02  5.11420991098076386E-02
  5.24390831245472866E-02  5.37690132220419031E-02  5.51327287579623376E-02
  5.65310905736293862E-02  5.79649815493483642E-02  5.94353071720246026E-02
  6.09429961174185950E-02  6.24890008474075082E-02  6.40742982226290697E-02
  6.56998901308907396E-02  6.73668041317341676E-02  6.90760941175540127E-02
  7.08288409916773970E-02  7.26261533638178497E-02  7.44691682633254193E-02
  7.63590518706636079E-02  7.82970002675473925E-02  8.02842402061889338E-02
  8.23220298981002241E-02  8.44116598229133902E-02  8.65544535576805718E-02
  8.87517686271268313E-02  9.10049973753307984E-02  9.33155678593171611E-02
  9.56849447650481993E-02  9.81146303463045488E-02  1.00606165386951885E-01
  1.03161130187096314E-01  1.05781145573623045E-01  1.08467873935628262E-01
  1.11223020285242530E-01  1.14048333344350966E-01  1.16945606657711892E-01
  1.19916679732972070E-01  1.22963439208071054E-01  1.26087820046521693E-01
  1.29291806761051925E-01  1.32577434666081545E-01  1.35946791159485991E-01
  1.39402017034093856E-01  1.42945307819349554E-01  1.46578915153549871E-01
  1.50305148187040216E-01  1.54126375016736178E-01  1.58045024152295654E-01
  1.62063586014236705E-01  1.66184614464304437E-01  1.70410728368271758E-01
  1.74744613191359782E-01  1.79189022626400296E-01  1.83746780254812364E-01
  1.88420781240394936E-01  1.93213994055866201E-01  1.98129462242007254E-01
  2.03170306199143280E-01  2.08339725010715127E-01  2.13640998298495616E-01
  2.19077488108871316E-01  2.24652640829548389E-01  2.30369989135882025E-01
  2.36233153965889286E-01  2.42245846522834513E-01  2.48411870304110660E-01
  2.54735123154884058E-01  2.61219599344884479E-01  2.67869391666558598E-01
  2.74688693552270657E-01  2.81681801208183979E-01  2.88853115762148394E-01
  2.96207145422584583E-01  3.03748507645037025E-01  3.11481931302697856E-01
  3.19412258856752340E-01  3.27544448521975951E-01  3.35883576423090080E-01
  3.44434838736024485E-01  3.53203553808172421E-01  3.62195164251165824E-01
  3.71415238999033170E-01  3.80869475323976692E-01  3.90563700801286551E-01
  4.00503875214109073E-01  4.10696092387746570E-01  4.21146581943598719E-01
  4.31861710960312228E-01  4.42847985529255583E-01  4.54112052190654591E-01
  4.65660699235450171E-01  4.77500857856746397E-01  4.89639603133456391E-01
  5.02084154827282747E-01  5.14841877972152306E-01  5.27920283236136267E-01
  5.41327027031691888E-01  5.55069911348491152E-01  5.69156883282294523E-01
  5.83596034230951743E-01  5.98395598726546796E-01  6.13563952870534668E-01
  6.29109612336204216E-01  6.45041229899229185E-01  6.61367592458888542E-01
  6.78097617505739048E-01  6.95240348988063639E-01  7.12804952528766189E-01
  7.30800709940435222E-01  7.49237012982919892E-01  7.68123356304281191E-01
  7.87469329502129667E-01  8.07284608236265577E-01  8.27578944327711508E-01
  8.48362154768024790E-01  8.69644109556684808E-01  8.91434718284778715E-01
  9.13743915376974525E-01  9.36581643899004113E-01  9.59957837832994154E-01
  9.83882402717526583E-01  1.00836519454021345E+00  1.03341599678026852E+00
  1.05904449547951596E+00  1.08526025221282163E+00  1.11207267483180816E+00
  1.13949098584752262E+00  1.16752418831232996E+00  1.19618102905605972E+00
  1.22546995912536527E+00  1.25539909126399318E+00  1.28597615429361256E+00
  1.31720844422265793E+00  1.34910277190788452E+00  1.38166540710178531E+00
  1.41490201871149557E+00  1.44881761109252749E+00  1.48341645619926243E+00
  1.51870202141138688E+00  1.55467689284778254E+00  1.59134269402523598E+00
  1.62869999966825207E+00  1.66674824449522885E+00  1.70548562682571991E+00
  1.74490900685576578E+00  1.78501379945912331E+00  1.82579386138556177E+00
  1.86724137273884061E+00  1.90934671263009026E+00  1.95209832898539259E+00
  1.99548260242250475E+00  2.03948370418213987E+00  2.08408344814149826E+00
  2.12926113697051722E+00  2.17499340253611750E+00  2.22125404071041688E+00
  2.26801384078731605E+00  2.31524040978173051E+00  2.36289799200921102E+00
  2.41094728431308702E+00  2.45934524745893057E+00  2.50804491430553478E+00
  2.55699519545897624E+00  2.60614068322846393E+00  2.65542145482447589E+00
  2.70477287586543413E+00  2.75412540542241002E+00  2.80340440398252033E+00
  2.85252994582439268E+00  2.90141663752467505E+00  2.94997344448780074E+00
  2.99810352758497034E+00  3.04570409219443006E+00  3.09266625215206670E+00
  3.13887491137319330E+00  3.18420866609825115E+00  3.22853973092001256E+00
  3.27173389209928178E+00  3.31365049186698002E+00  3.35414244767261227E+00
  3.39305631059368329E+00  3.43023236737157911E+00  3.46550479079445406E+00
  3.49870184350495661E+00  3.52964614014554412E+00  3.55815497322140173E+00
  3.58404070839715150E+00  3.60711125484863393E+00  3.62717061647147432E+00
  3.64401952981723465E+00  3.65745619464294336E+00  3.66727710298223242E+00
  3.67327797274358980E+00  3.67525479047739312E+00  3.67300496908291896E+00
  3.66632862543096438E+00  3.65502998209231444E+00  3.63891889685408021E+00
  3.61781252291230748E+00  3.59153710167114770E+00  3.55992988920789655E+00
  3.52284121596430255E+00  3.48013667596246012E+00  3.43169944316123487E+00
  3.37743270868540346E+00  3.31726223037513002E+00  3.25113898353540831E+00
  3.17904189870011278E+00  3.10098066878351819E+00  3.01699860471832837E+00
  2.92717551282156352E+00  2.83163056218111908E+00  2.73052510807785387E+00
  2.62406542880626059E+00  2.51250532734857090E+00  2.39614854230727881E+00
  2.27535090474436341E+00  2.15052216923391182E+00  2.02212743875353462E+00
  1.89068809161558393E+00  1.75678211120516514E+00  1.62104370885084004E+00
  1.48416211861781777E+00  1.34687943339543170E+00  1.20998734246074968E+00
  1.07432262285091817E+00  9.40761230837979578E-01  8.10210835792726014E-01
  6.83601645955612680E-01  5.61875378908815781E-01  4.45972245306682002E-01
  3.36815841715391751E-01  2.35295886933951676E-01  1.42248791226212368E-01
  5.84361227939059411E-02 -1.54788684142138817E-02 -7.89563788020128943E-02
 -1.31606363522377701E-01 -1.73215394052245342E-01 -2.03773159236902479E-01
 -2.23497412777043158E-01 -2.32855817943062871E-01 -2.32582725094294063E-01
 -2.23688435607151764E-01 -2.07457955030259211E-01 -1.85435591465898775E-01
 -1.59391069558692644E-01 -1.31262057997967196E-01 -1.03067127163855729E-01
 -7.67822202492570854E-02 -5.41727044503215391E-02 -3.65719754424493754E-02
 -2.45964138243846692E-02 -1.77851802505487357E-02 -1.41547853566412075E-02
 -1.11037987199776381E-02 -8.30930017758052183E-03 -5.87949518917874406E-03
 -3.88880726504215162E-03 -2.37433627627971731E-03 -1.33298887339128856E-03
 -7.19624965004470301E-04 -4.42727084936343242E-04 -2.63544006895743575E-04
 -1.10617753273787047E-05 -6.90307512755493799E-07  0.00000000000000000E+00
  0.00000000000000000E+00  0.00000000000000000E+00  0.00000000000000000E+00
  0.00000000000000000E+00  0.00000000000000000E+00  0.00000000000000000E+00
  0.00000000000000000E+00  0.00000000000000000E+00  0.00000000000000000E+00
  0.00000000000000000E+00  0.00000000000000000E+00  0.00000000000000000E+00
  0.00000000000000000E+00  0.00000000000000000E+00  0.00000000000000000E+00
  0.00000000000000000E+00  0.00000000000000000E+00  0.00000000000000000E+00
  0.00000000000000000E+00  0.00000000000000000E+00  0.00000000000000000E+00
  0.00000000000000000E+00  0.00000000000000000E+00  0.00000000000000000E+00
  0.00000000000000000E+00  0.00000000000000000E+00  0.00000000000000000E+00
  0.00000000000000000E+00  0.00000000000000000E+00  0.00000000000000000E+00
  0.00000000000000000E+00  0.00000000000000000E+00  0.00000000000000000E+00
  0.00000000000000000E+00  0.00000000000000000E+00  0.00000000000000000E+00
  0.00000000000000000E+00  0.00000000000000000E+00  0.00000000000000000E+00
  0.00000000000000000E+00  0.00000000000000000E+00  0.00000000000000000E+00
  0.00000000000000000E+00  0.00000000000000000E+00  0.00000000000000000E+00
  0.00000000000000000E+00  0.00000000000000000E+00  0.00000000000000000E+00
  0.00000000000000000E+00  0.00000000000000000E+00  0.00000000000000000E+00
  0.00000000000000000E+00  0.00000000000000000E+00  0.00000000000000000E+00
  0.00000000000000000E+00  0.00000000000000000E+00  0.00000000000000000E+00
  0.00000000000000000E+00  0.00000000000000000E+00  0.00000000000000000E+00
  0.00000000000000000E+00  0.00000000000000000E+00  0.00000000000000000E+00
  0.00000000000000000E+00  0.00000000000000000E+00  0.00000000000000000E+00
  0.00000000000000000E+00  0.00000000000000000E+00  0.00000000000000000E+00
  0.00000000000000000E+00  0.00000000000000000E+00  0.00000000000000000E+00
  0.00000000000000000E+00  0.00000000000000000E+00  0.00000000000000000E+00
  0.00000000000000000E+00  0.00000000000000000E+00  0.00000000000000000E+00
  0.00000000000000000E+00  0.00000000000000000E+00  0.00000000000000000E+00
  0.00000000000000000E+00  0.00000000000000000E+00  0.00000000000000000E+00
  0.00000000000000000E+00  0.00000000000000000E+00  0.00000000000000000E+00
  0.00000000000000000E+00  0.00000000000000000E+00  0.00000000000000000E+00
  0.00000000000000000E+00  0.00000000000000000E+00  0.00000000000000000E+00
  0.00000000000000000E+00  0.00000000000000000E+00  0.00000000000000000E+00
  0.00000000000000000E+00  0.00000000000000000E+00  0.00000000000000000E+00
  0.00000000000000000E+00  0.00000000000000000E+00  0.00000000000000000E+00
  0.00000000000000000E+00  0.00000000000000000E+00  0.00000000000000000E+00
  0.00000000000000000E+00  0.00000000000000000E+00  0.00000000000000000E+00
  0.00000000000000000E+00  0.00000000000000000E+00  0.00000000000000000E+00
  0.00000000000000000E+00  0.00000000000000000E+00  0.00000000000000000E+00
  0.00000000000000000E+00  0.00000000000000000E+00  0.00000000000000000E+00
  0.00000000000000000E+00  0.00000000000000000E+00  0.00000000000000000E+00
  0.00000000000000000E+00  0.00000000000000000E+00  0.00000000000000000E+00
  0.00000000000000000E+00  0.00000000000000000E+00  0.00000000000000000E+00
  0.00000000000000000E+00  0.00000000000000000E+00  0.00000000000000000E+00
  0.00000000000000000E+00  0.00000000000000000E+00  0.00000000000000000E+00
  0.00000000000000000E+00  0.00000000000000000E+00  0.00000000000000000E+00
  0.00000000000000000E+00  0.00000000000000000E+00  0.00000000000000000E+00
  0.00000000000000000E+00  0.00000000000000000E+00  0.00000000000000000E+00
  0.00000000000000000E+00  0.00000000000000000E+00  0.00000000000000000E+00
  0.00000000000000000E+00  0.00000000000000000E+00  0.00000000000000000E+00
  0.00000000000000000E+00  0.00000000000000000E+00  0.00000000000000000E+00
  0.00000000000000000E+00  0.00000000000000000E+00  0.00000000000000000E+00
  0.00000000000000000E+00  0.00000000000000000E+00  0.00000000000000000E+00
  0.00000000000000000E+00  0.00000000000000000E+00  0.00000000000000000E+00
  0.00000000000000000E+00  0.00000000000000000E+00  0.00000000000000000E+00
  0.00000000000000000E+00  0.00000000000000000E+00  0.00000000000000000E+00
  0.00000000000000000E+00
                              </PP_BETA.3>
 <PP_BETA.4 type="real" size="   961" angular_momentum="1" columns="3" cutoff_radius_index="   794" norm_conserving_radius="    1.801735" label= "0P">
 -1.88994254719992749E-07 -1.93778667074344572E-07 -1.98684197404992665E-07
 -2.03713911828150454E-07 -2.08870954079136604E-07 -2.14158547477310163E-07
 -2.19579996940750443E-07 -2.25138691051939193E-07 -2.30838104175735116E-07
 -2.36681798630966102E-07 -2.42673426916992286E-07 -2.48816733996639382E-07
 -2.55115559636921986E-07 -2.61573840809021853E-07 -2.68195614149027404E-07
 -2.74985018480958208E-07 -2.81946297403667124E-07 -2.89083801943228801E-07
 -2.96401993272471451E-07 -3.03905445499357230E-07 -3.11598848525947018E-07
 -3.19487010979743334E-07 -3.27574863219238781E-07 -3.35867460415552405E-07
 -3.44369985712076939E-07 -3.53087753464109094E-07 -3.62026212560499797E-07
 -3.71190949829384148E-07 -3.80587693530132237E-07 -3.90222316933701564E-07
 -4.00100841993617739E-07 -4.10229443109896363E-07 -4.20614450988242341E-07
 -4.31262356596947934E-07 -4.42179815223964323E-07 -4.53373650636666963E-07
 -4.64850859346937948E-07 -4.76618614984213047E-07 -4.88684272779233139E-07
 -5.01055374161310611E-07 -5.13739651471959344E-07 -5.26745032797868144E-07
 -5.40079646926210400E-07 -5.53751828425402981E-07 -5.67770122854487711E-07
 -5.82143292104377991E-07 -5.96880319874333164E-07 -6.11990417287061683E-07
 -6.27483028645975467E-07 -6.43367837338189616E-07 -6.59654771886953772E-07
 -6.76354012157304010E-07 -6.93475995718814781E-07 -7.11031424369417127E-07
 -7.29031270824380704E-07 -7.47486785574610491E-07 -7.66409503918578898E-07
 -7.85811253172263221E-07 -8.05704160061603883E-07 -8.26100658302110788E-07
 -8.47013496370336610E-07 -8.68455745472097313E-07 -8.90440807712402977E-07
 -9.12982424472208763E-07 -9.36094684997239852E-07 -9.59792035204219343E-07
 -9.84089286710050908E-07 -1.00900162608955803E-06 -1.03454462436759164E-06
 -1.06073424675144146E-06 -1.08758686260960745E-06 -1.11511925570319277E-06
 -1.14334863467630281E-06 -1.17229264381202113E-06 -1.20196937406066912E-06
 -1.23239737434722935E-06 -1.26359566316504681E-06 -1.29558374046301195E-06
 -1.32838159983366329E-06 -1.36200974100984900E-06 -1.39648918267773121E-06
 -1.43184147561415881E-06 -1.46808871615660931E-06 -1.50525356001412841E-06
 -1.54335923642790480E-06 -1.58242956269029539E-06 -1.62248895903143318E-06
 -1.66356246388266968E-06 -1.70567574952642107E-06 -1.74885513814220052E-06
 -1.79312761825883787E-06 -1.83852086162320748E-06 -1.88506324049598927E-06
 -1.93278384538526076E-06 -1.98171250322903872E-06 -2.03187979603809103E-06
 -2.08331708001071258E-06 -2.13605650513138863E-06 -2.19013103526559103E-06
 -2.24557446876330953E-06 -2.30242145958411412E-06 -2.36070753895704996E-06
 -2.42046913758882227E-06 -2.48174360843419851E-06 -2.54456925004286729E-06
 -2.60898533049728570E-06 -2.67503211195653856E-06 -2.74275087582153007E-06
 -2.81218394853723335E-06 -2.88337472804814367E-06 -2.95636771092342574E-06
 -3.03120852016874831E-06 -3.10794393374219986E-06 -3.18662191379207098E-06
 -3.26729163663480649E-06 -3.35000352349183802E-06 -3.43480927200453532E-06
 -3.52176188854697293E-06 -3.61091572135668068E-06 -3.70232649450413313E-06
 -3.79605134272213609E-06 -3.89214884711698481E-06 -3.99067907178360094E-06
 -4.09170360134763161E-06 -4.19528557945789900E-06 -4.30148974825331780E-06
 -4.41038248882892609E-06 -4.52203186272628314E-06 -4.63650765447426266E-06
 -4.75388141520672638E-06 -4.87422650738443392E-06 -4.99761815064901549E-06
 -5.12413346883783889E-06 -5.25385153818901367E-06 -5.38685343676674958E-06
 -5.52322229513789442E-06 -5.66304334833135669E-06 -5.80640398911289252E-06
 -5.95339382260862649E-06 -6.10410472231129277E-06 -6.25863088750428066E-06
 -6.41706890213945465E-06 -6.57951779520544163E-06 -6.74607910262410688E-06
 -6.91685693071404204E-06 -7.09195802126061352E-06 -7.27149181823320716E-06
 -7.45557053619154134E-06 -7.64430923042362113E-06 -7.83782586885928864E-06
 -8.03624140580428953E-06 -8.23967985754092387E-06 -8.44826837984247658E-06
 -8.66213734745009519E-06 -8.88142043556150313E-06 -9.10625470338274123E-06
 -9.33678067979489131E-06 -9.57314245118960729E-06 -9.81548775152819070E-06
 -1.00639680546805013E-05 -1.03187386691015342E-05 -1.05799588349045997E-05
 -1.08477918233921138E-05 -1.11224050391060042E-05 -1.14039701244613365E-05
 -1.16926630670292657E-05 -1.19886643095351979E-05 -1.22921588626422203E-05
 -1.26033364205893177E-05 -1.29223914797571139E-05 -1.32495234602351964E-05
 -1.35849368304667847E-05 -1.39288412350489696E-05 -1.42814516257682950E-05
 -1.46429883959533379E-05 -1.50136775182287572E-05 -1.53937506857563136E-05
 -1.57834454570516991E-05 -1.61830054044674119E-05 -1.65926802664344099E-05
 -1.70127261035580398E-05 -1.74434054586652714E-05 -1.78849875209038870E-05
 -1.83377482939957545E-05 -1.88019707687495610E-05 -1.92779450999407367E-05
 -1.97659687876691777E-05 -2.02663468633080977E-05 -2.07793920801603092E-05
 -2.13054251089408302E-05 -2.18447747382088784E-05 -2.23977780798727919E-05
 -2.29647807798984535E-05 -2.35461372343512645E-05 -2.41422108109076033E-05
 -2.47533740759739643E-05 -2.53800090275553766E-05 -2.60225073340194936E-05
 -2.66812705789047519E-05 -2.73567105119261262E-05 -2.80492493063354825E-05
 -2.87593198227963154E-05 -2.94873658799397190E-05 -3.02338425317687073E-05
 -3.09992163520859785E-05 -3.17839657261212880E-05 -3.25885811495421588E-05
 -3.34135655350342351E-05 -3.42594345266424019E-05 -3.51267168220700875E-05
 -3.60159545031378718E-05 -3.69277033746072568E-05 -3.78625333115828271E-05
 -3.88210286157081915E-05 -3.98037883803803048E-05 -4.08114268652086325E-05
 -4.18445738799544501E-05 -4.29038751781892768E-05 -4.39899928609203391E-05
 -4.51036057904322744E-05 -4.62454100146078117E-05 -4.74161192019880779E-05
 -4.86164650878486012E-05 -4.98471979315674634E-05 -5.11090869855717621E-05
 -5.24029209761569747E-05 -5.37295085964774129E-05 -5.50896790120176879E-05
 -5.64842823788610878E-05 -5.79141903750777235E-05 -5.93802967455661052E-05
 -6.08835178606868818E-05 -6.24247932890395306E-05 -6.40050863847401352E-05
 -6.56253848895651750E-05 -6.72867015503412634E-05 -6.89900747519624208E-05
 -7.07365691664350470E-05 -7.25272764183531915E-05 -7.43633157672210791E-05
 -7.62458348070497538E-05 -7.81760101836652632E-05 -8.01550483301749121E-05
 -8.21841862210549587E-05 -8.42646921453275616E-05 -8.63978664993121415E-05
 -8.85850425994463972E-05 -9.08275875156848412E-05 -9.31269029259965196E-05
 -9.54844259924958179E-05 -9.79016302597519503E-05 -1.00380026575843764E-04
 -1.02921164036729905E-04 -1.05526630954527807E-04 -1.08198055850307380E-04
 -1.10937108472018123E-04 -1.13745500838187291E-04 -1.16624988308039180E-04
 -1.19577370678711084E-04 -1.22604493310242137E-04 -1.25708248279046204E-04
 -1.28890575560587655E-04 -1.32153464241997417E-04 -1.35498953765389484E-04
 -1.38929135202655425E-04 -1.42446152562531792E-04 -1.46052204130759988E-04
 -1.49749543844175171E-04 -1.53540482699581881E-04 -1.57427390198302186E-04
 -1.61412695827291286E-04 -1.65498890577756675E-04 -1.69688528502220617E-04
 -1.73984228311005809E-04 -1.78388675009140895E-04 -1.82904621574706699E-04
 -1.87534890679677850E-04 -1.92282376454329000E-04 -1.97150046296312915E-04
 -2.02140942725544722E-04 -2.07258185286041948E-04 -2.12504972495923224E-04
 -2.17884583846769192E-04 -2.23400381853610020E-04 -2.29055814156817059E-04
 -2.34854415677201371E-04 -2.40799810825688881E-04 -2.46895715768931769E-04
 -2.53145940752288437E-04 -2.59554392481616165E-04 -2.66125076565368226E-04
 -2.72862100018523538E-04 -2.79769673829913116E-04 -2.86852115594549812E-04
 -2.94113852212607213E-04 -3.01559422656734878E-04 -3.09193480809440634E-04
 -3.17020798372313515E-04 -3.25046267848911078E-04 -3.33274905603172687E-04
 -3.41711854995266015E-04 -3.50362389596842693E-04 -3.59231916487699212E-04
 -3.68325979635911204E-04 -3.77650263363559033E-04 -3.87210595900203721E-04
 -3.97012953026340814E-04 -4.07063461809111231E-04 -4.17368404432603448E-04
 -4.27934222125146712E-04 -4.38767519186042908E-04 -4.49875067114272064E-04
 -4.61263808841732854E-04 -4.72940863073682545E-04 -4.84913528739090932E-04
 -4.97189289553673776E-04 -5.09775818698491993E-04 -5.22680983617006831E-04
 -5.35912850933623845E-04 -5.49479691496786225E-04 -5.63389985549769476E-04
 -5.77652428032427649E-04 -5.92275934017194605E-04 -6.07269644282739697E-04
 -6.22642931028789619E-04 -6.38405403735652641E-04 -6.54566915172148439E-04
 -6.71137567555679356E-04 -6.88127718868310981E-04 -7.05547989332806161E-04
 -7.23409268052664861E-04 -7.41722719820341785E-04 -7.60499792097870785E-04
 -7.79752222174301293E-04 -7.99492044504392639E-04 -8.19731598233187139E-04
 -8.40483534911151665E-04 -8.61760826404736570E-04 -8.83576773007273167E-04
 -9.05945011755323834E-04 -9.28879524955661048E-04 -9.52394648928231208E-04
 -9.76505082970568474E-04 -1.00122589854927308E-03 -1.02657254872430786E-03
 -1.05256087781201895E-03 -1.07920713129291165E-03 -1.10652796597043141E-03
 -1.13454046038704887E-03 -1.16326212550422613E-03 -1.19271091565290770E-03
 -1.22290523976144880E-03 -1.25386397286795484E-03 -1.28560646792427475E-03
 -1.31815256789905933E-03 -1.35152261818740249E-03 -1.38573747933492847E-03
 -1.42081854008421164E-03 -1.45678773075176658E-03 -1.49366753694394868E-03
 -1.53148101362037556E-03 -1.57025179951370453E-03 -1.61000413191474795E-03
 -1.65076286183223932E-03 -1.69255346953676306E-03 -1.73540208049850482E-03
 -1.77933548172895073E-03 -1.82438113853663434E-03 -1.87056721170755585E-03
 -1.91792257512096416E-03 -1.96647683381160525E-03 -2.01626034248970302E-03
 -2.06730422453036853E-03 -2.11964039144426101E-03 -2.17330156284176396E-03
 -2.22832128690321355E-03 -2.28473396136796283E-03 -2.34257485505552643E-03
 -2.40188012993222157E-03 -2.46268686373725702E-03 -2.52503307318235762E-03
 -2.58895773773958971E-03 -2.65450082403226057E-03 -2.72170331084418439E-03
 -2.79060721476312185E-03 -2.86125561647434124E-03 -2.93369268772095517E-03
 -3.00796371894788278E-03 -3.08411514764684799E-03 -3.16219458742015820E-03
 -3.24225085778162949E-03 -3.32433401471324058E-03 -3.40849538199688605E-03
 -3.49478758334077896E-03 -3.58326457532077633E-03 -3.67398168115732433E-03
 -3.76699562534922551E-03 -3.86236456918612799E-03 -3.96014814716182974E-03
 -4.06040750431166993E-03 -4.16320533449710158E-03 -4.26860591966184491E-03
 -4.37667517008417852E-03 -4.48748066565073274E-03 -4.60109169817780796E-03
 -4.71757931480679734E-03 -4.83701636250116404E-03 -4.95947753367281807E-03
 -5.08503941296688418E-03 -5.21378052523408398E-03 -5.34578138472119671E-03
 -5.48112454551042370E-03 -5.61989465323963541E-03 -5.76217849813593329E-03
 -5.90806506939618725E-03 -6.05764561094861414E-03 -6.21101367863089587E-03
 -6.36826519882059249E-03 -6.52949852855513272E-03 -6.69481451717924680E-03
 -6.86431656955874443E-03 -7.03811071090064064E-03 -7.21630565322057584E-03
 -7.39901286349959383E-03 -7.58634663357319813E-03 -7.77842415179714596E-03
 -7.97536557653512335E-03 -8.17729411151492044E-03 -8.38433608310066615E-03
 -8.59662101953029105E-03 -8.81428173216803994E-03 -9.03745439882397764E-03
 -9.26627864919279780E-03 -9.50089765246654727E-03 -9.74145820717648922E-03
 -9.98811083332114963E-03 -1.02410098668392763E-02 -1.05003135564873569E-02
 -1.07661841631832272E-02 -1.10387880618792612E-02 -1.13182958460290983E-02
 -1.16048824347154550E-02 -1.18987271825056942E-02 -1.22000139921064829E-02
 -1.25089314298881659E-02 -1.28256728443527819E-02 -1.31504364876212972E-02
 -1.34834256400171298E-02 -1.38248487378257179E-02 -1.41749195043111200E-02
 -1.45338570840737626E-02 -1.49018861808345119E-02 -1.52792371987334388E-02
 -1.56661463872332270E-02 -1.60628559897201470E-02 -1.64696143958969025E-02
 -1.68866762980657871E-02 -1.73143028514010089E-02 -1.77527618383134730E-02
 -1.82023278370133067E-02 -1.86632823943773431E-02 -1.91359142032334617E-02
 -1.96205192841741559E-02 -2.01174011720172165E-02 -2.06268711070321069E-02
 -2.11492482310555001E-02 -2.16848597886216063E-02 -2.22340413332364518E-02
 -2.27971369389293015E-02 -2.33744994172161678E-02 -2.39664905396166153E-02
 -2.45734812658650638E-02 -2.51958519779654881E-02 -2.58339927202391462E-02
 -2.64883034455207292E-02 -2.71591942676610021E-02 -2.78470857204995322E-02
 -2.85524090234742928E-02 -2.92756063540400568E-02 -3.00171311270706447E-02
 -3.07774482814268495E-02 -3.15570345738744526E-02 -3.23563788805427688E-02
 -3.31759825061185842E-02 -3.40163595009756875E-02 -3.48780369864454126E-02
 -3.57615554884393311E-02 -3.66674692796389173E-02 -3.75963467304755161E-02
 -3.85487706691275481E-02 -3.95253387507675871E-02 -4.05266638363007969E-02
 -4.15533743808379347E-02 -4.26061148321570521E-02 -4.36855460394116601E-02
 -4.47923456723502492E-02 -4.59272086513199326E-02 -4.70908475883319785E-02
 -4.82839932394784482E-02 -4.95073949689895237E-02 -5.07618212252360992E-02
 -5.20480600289846829E-02 -5.33669194742213970E-02 -5.47192282418704490E-02
 -5.61058361267396458E-02 -5.75276145780344861E-02 -5.89854572537907643E-02
 -6.04802805895834975E-02 -6.20130243818818594E-02 -6.35846523864260077E-02
 -6.51961529320116140E-02 -6.68485395500792029E-02 -6.85428516205125737E-02
 -7.02801550340635267E-02 -7.20615428718261036E-02 -7.38881361021983124E-02
 -7.57610842957788660E-02 -7.76815663586501726E-02 -7.96507912845234728E-02
 -8.16699989262184151E-02 -8.37404607869709633E-02 -8.58634808320702936E-02
 -8.80403963213357704E-02 -9.02725786629620663E-02 -9.25614342892637498E-02
 -9.49084055548719274E-02 -9.73149716579404245E-02 -9.97826495849332834E-02
 -1.02312995079579735E-01 -1.04907603636588534E-01 -1.07568111520736531E-01
 -1.10296196811945788E-01 -1.13093580476984909E-01 -1.15962027468439741E-01
 -1.18903347851607735E-01 -1.21919397959985631E-01 -1.25012081580031048E-01
 -1.28183351165887527E-01 -1.31435209084777432E-01 -1.34769708893776097E-01
 -1.38188956648689854E-01 -1.41695112245772442E-01 -1.45290390797022939E-01
 -1.48977064039817919E-01 -1.52757461781636794E-01 -1.56633973380648217E-01
 -1.60609049262932735E-01 -1.64685202477115683E-01 -1.68865010287206879E-01
 -1.73151115804420608E-01 -1.77546229658775367E-01 -1.82053131711253008E-01
 -1.86674672807312869E-01 -1.91413776572538413E-01 -1.96273441251199554E-01
 -2.01256741588500515E-01 -2.06366830757265113E-01 -2.11606942329813780E-01
 -2.16980392295782087E-01 -2.22490581126560866E-01 -2.28140995887070513E-01
 -2.33935212395515568E-01 -2.39876897431758385E-01 -2.45969810994905280E-01
 -2.52217808610657401E-01 -2.58624843688927075E-01 -2.65194969932160463E-01
 -2.71932343794795361E-01 -2.78841226994183344E-01 -2.85925989073195219E-01
 -2.93191110014690559E-01 -3.00641182907935955E-01 -3.08280916666946181E-01
 -3.16115138800604656E-01 -3.24148798234313085E-01 -3.32386968182741771E-01
 -3.40834849073113122E-01 -3.49497771518467337E-01 -3.58381199339862622E-01
 -3.67490732636456985E-01 -3.76832110902165118E-01 -3.86411216187367068E-01
 -3.96234076303864591E-01 -4.06306868071010463E-01 -4.16635920600632204E-01
 -4.27227718617909646E-01 -4.38088905815440799E-01 -4.49226288236964866E-01
 -4.60646837686727317E-01 -4.72357695160246560E-01 -4.84366174291665397E-01
 -4.96679764812358870E-01 -5.09306136014869293E-01 -5.22253140215648615E-01
 -5.35528816209185021E-01 -5.49141392705817633E-01 -5.63099291744964647E-01
 -5.77411132073626487E-01 -5.92085732479887938E-01 -6.07132115070102008E-01
 -6.22559508477310120E-01 -6.38377350987385128E-01 -6.54595293568170256E-01
 -6.71223202785373507E-01 -6.88271163587632961E-01 -7.05749481943474199E-01
 -7.23668687308340663E-01 -7.42039534899757824E-01 -7.60873007756934117E-01
 -7.80180318558956643E-01 -7.99972911173780887E-01 -8.20262461907940721E-01
 -8.41060880424403190E-01 -8.62380310292722996E-01 -8.84233129137284468E-01
 -9.06631948341180660E-01 -9.29589612262081810E-01 -9.53119196914144928E-01
 -9.77234008066147908E-01 -1.00194757870244211E+00 -1.02727366578957535E+00
 -1.05322624628707695E+00 -1.07981951233480156E+00 -1.10706786555267334E+00
 -1.13498591037558527E+00 -1.16358844634185954E+00 -1.19289045925170800E+00
 -1.22290711110526806E+00 -1.25365372872397418E+00 -1.28514579095299575E+00
 -1.31739891433548362E+00 -1.35042883713915485E+00 -1.38425140162254090E+00
 -1.41888253440805201E+00 -1.45433822481965369E+00 -1.49063450104244910E+00
 -1.52778740395074641E+00 -1.56581295844256063E+00 -1.60472714210966472E+00
 -1.64454585106263562E+00 -1.68528486271412570E+00 -1.72695979533865507E+00
 -1.76958606419579634E+00 -1.81317883398847002E+00 -1.85775296743265339E+00
 -1.90332296969967740E+00 -1.94990292848192603E+00 -1.99750644942254540E+00
 -2.04614658663828752E+00 -2.09583576804325888E+00 -2.14658571521481045E+00
 -2.19840735749306715E+00 -2.25131073999102194E+00 -2.30530492520772023E+00
 -2.36039788792125327E+00 -2.41659640303138934E+00 -2.47390592601614490E+00
 -2.53233046565968634E+00 -2.59187244868917199E+00 -2.65253257603015546E+00
 -2.71430967031366022E+00 -2.77720051427600367E+00 -2.84119967973108256E+00
 -2.90629934679112623E+00 -2.97248911302429253E+00 -3.03975579225373949E+00
 -3.10808320271774541E+00 -3.17745194431589395E+00 -3.24783916480735790E+00
 -3.31921831472440454E+00 -3.39155889084572237E+00 -3.46482616815607125E+00
 -3.53898092026013922E+00 -3.61397912828465184E+00 -3.68977167837794706E+00
 -3.76630404799161056E+00 -3.84351598121421967E+00 -3.92134115366263947E+00
 -3.99970682735715899E+00 -4.07853349623387729E+00 -4.15773452311014236E+00
 -4.23721576906646913E+00 -4.31687521638731919E+00 -4.39660258639947887E+00
 -4.47627895374994988E+00 -4.55577635891583288E+00 -4.63495742104998065E+00
 -4.71367495338115550E+00 -4.79177158379161039E+00 -4.86907938349608660E+00
 -4.94541950707251043E+00 -5.02060184745070792E+00 -5.09442470984306262E+00
 -5.16667450902129044E+00 -5.23712549476086675E+00 -5.30553951059903994E+00
 -5.37166579164695435E+00 -5.43524080761861850E+00 -5.49598815771744853E+00
 -5.55361852451637628E+00 -5.60782969446647428E+00 -5.65830665317521309E+00
 -5.70472176426068511E+00 -5.74673504071517005E+00 -5.78399451812949028E+00
 -5.81613674020772020E+00 -5.84278736692429224E+00 -5.86356191615267264E+00
 -5.87806664992728667E+00 -5.88589961675911688E+00 -5.88665186164914989E+00
 -5.87990881601344118E+00 -5.86525187809021364E+00 -5.84226019550515829E+00
 -5.81051266192491145E+00 -5.76959013826146805E+00 -5.71907790856742881E+00
 -5.65856837993398987E+00 -5.58766403464092765E+00 -5.50598064172014556E+00
 -5.41315073415612602E+00 -5.30882735225560687E+00 -5.19268805635842501E+00
 -5.06443920800289593E+00 -4.92382051486995742E+00 -4.77060983198283761E+00
 -4.60462820790198712E+00 -4.42574516047524202E+00 -4.23388416276534763E+00
 -4.02902831408893469E+00 -3.81122616116828983E+00 -3.58059763667800945E+00
 -3.33734007065689520E+00 -3.08173422332180191E+00 -2.81415028034064862E+00
 -2.53505374315989718E+00 -2.24501113794011431E+00 -1.94469545803560440E+00
 -1.63489124152191567E+00 -1.31649917499779612E+00 -9.90540108879359726E-01
 -6.58158351875719361E-01 -3.20624101114675708E-01  2.06651484548708193E-02
  3.64184385100732921E-01  7.08282235083056877E-01  1.05118368893975389E+00
  1.39099460958613541E+00  1.72570824272024903E+00  2.05321396448067928E+00
  2.37130851035180346E+00  2.67770993602714613E+00  2.97007456415544846E+00
  3.24601716898369830E+00  3.50313464366620497E+00  3.73903338217922743E+00
  3.95136055438869294E+00  4.13783943555560185E+00  4.29630888317744741E+00
  4.42476696355901922E+00  4.52141861976057680E+00  4.58472712576755992E+00
  4.61346888454775605E+00  4.60679090114105172E+00  4.56426996084085790E+00
  4.48597214879241601E+00  4.37251099796997789E+00  4.22510198905573464E+00
  4.04561052299562718E+00  3.83658977844702065E+00  3.60130404141212734E+00
  3.34373214704139432E+00  3.06854459699738769E+00  2.78104666072108131E+00
  2.48707845056580412E+00  2.19286145074506100E+00  1.90477926030772537E+00
  1.62907847149751928E+00  1.37147357409373716E+00  1.13663755641452990E+00
  9.27557441019298379E-01  7.44731211546876604E-01  5.85185902741636954E-01
  4.44474240203548698E-01  3.22960807406429240E-01  2.21589713856879866E-01
  1.40747020602156075E-01  8.01285551414927105E-02  3.85886080496952652E-02
  1.39674698925968468E-02  2.88922502460596227E-03  3.73579741024483226E-04
  1.46182567246592174E-05  9.12248905963999070E-07  0.00000000000000000E+00
  0.00000000000000000E+00  0.00000000000000000E+00  0.00000000000000000E+00
  0.00000000000000000E+00  0.00000000000000000E+00  0.00000000000000000E+00
  0.00000000000000000E+00  0.00000000000000000E+00  0.00000000000000000E+00
  0.00000000000000000E+00  0.00000000000000000E+00  0.00000000000000000E+00
  0.00000000000000000E+00  0.00000000000000000E+00  0.00000000000000000E+00
  0.00000000000000000E+00  0.00000000000000000E+00  0.00000000000000000E+00
  0.00000000000000000E+00  0.00000000000000000E+00  0.00000000000000000E+00
  0.00000000000000000E+00  0.00000000000000000E+00  0.00000000000000000E+00
  0.00000000000000000E+00  0.00000000000000000E+00  0.00000000000000000E+00
  0.00000000000000000E+00  0.00000000000000000E+00  0.00000000000000000E+00
  0.00000000000000000E+00  0.00000000000000000E+00  0.00000000000000000E+00
  0.00000000000000000E+00  0.00000000000000000E+00  0.00000000000000000E+00
  0.00000000000000000E+00  0.00000000000000000E+00  0.00000000000000000E+00
  0.00000000000000000E+00  0.00000000000000000E+00  0.00000000000000000E+00
  0.00000000000000000E+00  0.00000000000000000E+00  0.00000000000000000E+00
  0.00000000000000000E+00  0.00000000000000000E+00  0.00000000000000000E+00
  0.00000000000000000E+00  0.00000000000000000E+00  0.00000000000000000E+00
  0.00000000000000000E+00  0.00000000000000000E+00  0.00000000000000000E+00
  0.00000000000000000E+00  0.00000000000000000E+00  0.00000000000000000E+00
  0.00000000000000000E+00  0.00000000000000000E+00  0.00000000000000000E+00
  0.00000000000000000E+00  0.00000000000000000E+00  0.00000000000000000E+00
  0.00000000000000000E+00  0.00000000000000000E+00  0.00000000000000000E+00
  0.00000000000000000E+00  0.00000000000000000E+00  0.00000000000000000E+00
  0.00000000000000000E+00  0.00000000000000000E+00  0.00000000000000000E+00
  0.00000000000000000E+00  0.00000000000000000E+00  0.00000000000000000E+00
  0.00000000000000000E+00  0.00000000000000000E+00  0.00000000000000000E+00
  0.00000000000000000E+00  0.00000000000000000E+00  0.00000000000000000E+00
  0.00000000000000000E+00  0.00000000000000000E+00  0.00000000000000000E+00
  0.00000000000000000E+00  0.00000000000000000E+00  0.00000000000000000E+00
  0.00000000000000000E+00  0.00000000000000000E+00  0.00000000000000000E+00
  0.00000000000000000E+00  0.00000000000000000E+00  0.00000000000000000E+00
  0.00000000000000000E+00  0.00000000000000000E+00  0.00000000000000000E+00
  0.00000000000000000E+00  0.00000000000000000E+00  0.00000000000000000E+00
  0.00000000000000000E+00  0.00000000000000000E+00  0.00000000000000000E+00
  0.00000000000000000E+00  0.00000000000000000E+00  0.00000000000000000E+00
  0.00000000000000000E+00  0.00000000000000000E+00  0.00000000000000000E+00
  0.00000000000000000E+00  0.00000000000000000E+00  0.00000000000000000E+00
  0.00000000000000000E+00  0.00000000000000000E+00  0.00000000000000000E+00
  0.00000000000000000E+00  0.00000000000000000E+00  0.00000000000000000E+00
  0.00000000000000000E+00  0.00000000000000000E+00  0.00000000000000000E+00
  0.00000000000000000E+00  0.00000000000000000E+00  0.00000000000000000E+00
  0.00000000000000000E+00  0.00000000000000000E+00  0.00000000000000000E+00
  0.00000000000000000E+00  0.00000000000000000E+00  0.00000000000000000E+00
  0.00000000000000000E+00  0.00000000000000000E+00  0.00000000000000000E+00
  0.00000000000000000E+00  0.00000000000000000E+00  0.00000000000000000E+00
  0.00000000000000000E+00  0.00000000000000000E+00  0.00000000000000000E+00
  0.00000000000000000E+00  0.00000000000000000E+00  0.00000000000000000E+00
  0.00000000000000000E+00  0.00000000000000000E+00  0.00000000000000000E+00
  0.00000000000000000E+00  0.00000000000000000E+00  0.00000000000000000E+00
  0.00000000000000000E+00  0.00000000000000000E+00  0.00000000000000000E+00
  0.00000000000000000E+00  0.00000000000000000E+00  0.00000000000000000E+00
  0.00000000000000000E+00  0.00000000000000000E+00  0.00000000000000000E+00
  0.00000000000000000E+00  0.00000000000000000E+00  0.00000000000000000E+00
  0.00000000000000000E+00  0.00000000000000000E+00  0.00000000000000000E+00
  0.00000000000000000E+00  0.00000000000000000E+00  0.00000000000000000E+00
  0.00000000000000000E+00
                              </PP_BETA.4>
   <PP_DIJ type="real" size="   16" columns="3">
  1.74000332829571391E-03 -2.73961223173019519E-01  0.00000000000000000E+00
  0.00000000000000000E+00 -2.73961223173018631E-01  4.91009892660891012E-01
  0.00000000000000000E+00  0.00000000000000000E+00  0.00000000000000000E+00
  0.00000000000000000E+00  6.44115957438134323E-01 -1.28261072907418683E+00
  0.00000000000000000E+00  0.00000000000000000E+00 -1.28261072907418772E+00
  1.70526740909984387E+00
                                       </PP_DIJ>
  <PP_AUGMENTATION q_with_l="T" nqf="0" cutoff_r="  1.8017354E+00" cutoff_r_index="   794" iraug="   794" nqlc="  3" lmax_aug="  2" shape="SINC**2" augmentation_epsilon="1.d-12">
    <PP_Q type="real" size="   16" columns="3">
  7.94044282892283904E-02 -7.25121126846229869E-02  0.00000000000000000E+00
  0.00000000000000000E+00 -7.25121126846229869E-02  5.31422251408707677E-02
  0.00000000000000000E+00  0.00000000000000000E+00  0.00000000000000000E+00
  0.00000000000000000E+00  5.21009066174255575E-01 -3.92917596530280133E-01
  0.00000000000000000E+00  0.00000000000000000E+00 -3.92917596530280133E-01
  2.47986113587805868E-01
                                       </PP_Q>
    <PP_MULTIPOLES type="real" size="    48" columns="3">
  7.94044282892283904E-02 -7.25121126846229869E-02  0.00000000000000000E+00
  0.00000000000000000E+00 -7.25121126846229869E-02  5.31422251408707677E-02
  0.00000000000000000E+00  0.00000000000000000E+00  0.00000000000000000E+00
  0.00000000000000000E+00  5.21009066174255575E-01 -3.92917596530280133E-01
  0.00000000000000000E+00  0.00000000000000000E+00 -3.92917596530280133E-01
  2.47986113587805868E-01  0.00000000000000000E+00  0.00000000000000000E+00
  2.39569348080160421E-01 -2.36888346352926771E-01  0.00000000000000000E+00
  0.00000000000000000E+00 -1.12931670004998985E-01  9.84718539892944500E-02
  2.39569348080160421E-01 -1.12931670004998985E-01  0.00000000000000000E+00
  0.00000000000000000E+00 -2.36888346352926771E-01  9.84718539892944500E-02
  0.00000000000000000E+00  0.00000000000000000E+00  0.00000000000000000E+00
  0.00000000000000000E+00  0.00000000000000000E+00  0.00000000000000000E+00
  0.00000000000000000E+00  0.00000000000000000E+00  0.00000000000000000E+00
  0.00000000000000000E+00  0.00000000000000000E+00  0.00000000000000000E+00
  2.37082088854159101E-01 -1.49378600140943396E-01  0.00000000000000000E+00
  0.00000000000000000E+00 -1.49378600140943396E-01  4.79928799198662340E-02
                                       </PP_MULTIPOLES>
 <PP_QIJL.1.1.0 type="real" size="   961" columns="3" first_index=" 1" second_index=" 1" composite_index=" 1" angular_momentum="0">
  3.17674060450294473E-09  3.25716017490062625E-09  3.33961557637031395E-09
  3.42415834621865734E-09  3.51084132642531807E-09  3.59971869667088926E-09
  3.69084600820100142E-09  3.78428021854763363E-09  3.88007972712936558E-09
  3.97830441175298783E-09  4.07901566603902432E-09  4.18227643779470135E-09
  4.28815126835840878E-09  4.39670633294012394E-09  4.50800948198304701E-09
  4.62213028357228582E-09  4.73914006691723676E-09  4.85911196693457088E-09
  4.98212096995993523E-09  5.10824396061691708E-09  5.23755976987228772E-09
  5.37014922430797519E-09  5.50609519664031698E-09  5.64548265751809181E-09
  5.78839872863201647E-09  5.93493273716856170E-09  6.08517627164230011E-09
  6.23922323914175446E-09  6.39716992402429427E-09  6.55911504809698876E-09
  6.72515983232094372E-09  6.89540806007759773E-09  7.06996614203672785E-09
  7.24894318266655949E-09  7.43245104842752039E-09  7.62060443769243726E-09
  7.81352095243664911E-09  8.01132117174307473E-09  8.21412872716799908E-09
  8.42207038001476899E-09  8.63527610056370992E-09  8.85387914930764463E-09
  9.07801616024410379E-09  9.30782722627584798E-09  9.54345598677353381E-09
  9.78504971735484538E-09  1.00327594219364764E-08  1.02867399271165417E-08
  1.05471499789459488E-08  1.08141523421500509E-08  1.10879139018615109E-08
  1.13686057679290951E-08  1.16564033818666358E-08  1.19514866265096962E-08
  1.22540399384480724E-08  1.25642524233045170E-08  1.28823179739317963E-08
  1.32084353916019906E-08  1.35428085102634910E-08  1.38856463239439348E-08
  1.42371631173778696E-08  1.45975785999417772E-08  1.49671180429792447E-08
  1.53460124206028634E-08  1.57344985540603217E-08  1.61328192597552808E-08
  1.65412235010151847E-08  1.69599665437014657E-08  1.73893101157585540E-08
  1.78295225708024648E-08  1.82808790558499821E-08  1.87436616832944377E-08
  1.92181597072348956E-08  1.97046697042689260E-08  2.02034957588627281E-08
  2.07149496534130351E-08  2.12393510631213107E-08  2.17770277558007150E-08
  2.23283157967411975E-08  2.28935597587611836E-08  2.34731129375760118E-08
  2.40673375726191651E-08  2.46766050734532377E-08  2.53012962519123013E-08
  2.59418015601216901E-08  2.65985213345423842E-08  2.72718660461939456E-08
  2.79622565572118345E-08  2.86701243838992119E-08  2.93959119664381880E-08
  3.01400729454286887E-08  3.09030724454278580E-08  3.16853873656673756E-08
  3.24875066781303234E-08  3.33099317331739047E-08  3.41531765728886276E-08
  3.50177682523907664E-08  3.59042471692479935E-08  3.68131674012443879E-08
  3.77450970526964137E-08  3.87006186095351536E-08  3.96803293033782480E-08
  4.06848414848176201E-08  4.17147830061575063E-08  4.27707976138415123E-08
  4.38535453508133667E-08  4.49637029690639938E-08  4.61019643526220658E-08
  4.72690409512525734E-08  4.84656622251346971E-08  4.96925761007959058E-08
  5.09505494385889510E-08  5.22403685120025726E-08  5.35628394991059647E-08
  5.49187889864345680E-08  5.63090644856308476E-08  5.77345349631644970E-08
  5.91960913834625044E-08  6.06946472657881575E-08  6.22311392552179864E-08
  6.38065277080721249E-08  6.54217972921655723E-08  6.70779576022543251E-08
  6.87760437910617814E-08  7.05171172162797877E-08  7.23022661039473737E-08
  7.41326062286241381E-08  7.60092816107815379E-08  7.79334652318486206E-08
  7.99063597673595521E-08  8.19291983386595968E-08  8.40032452836418234E-08
  8.61297969469938784E-08  8.83101824904505124E-08  9.05457647235568648E-08
  9.28379409554635221E-08  9.51881438682828807E-08  9.75978424125562320E-08
  1.00068542725388521E-07  1.02601789071825400E-07  1.05199164810062421E-07
  1.07862293381086205E-07  1.10592839323370036E-07  1.13392509313255555E-07
  1.16263053231671300E-07  1.19206265257856348E-07  1.22223984990769109E-07
  1.25318098598886330E-07  1.28490539999108188E-07  1.31743292065507005E-07
  1.35078387868676427E-07  1.38497911946451820E-07  1.42004001606801151E-07
  1.45598848263697487E-07  1.49284698806807584E-07  1.53063857005856582E-07
  1.56938684950539889E-07  1.60911604526889246E-07  1.64985098931011396E-07
  1.69161714221145914E-07  1.73444060909015093E-07  1.77834815591454832E-07
  1.82336722623352957E-07  1.86952595832935599E-07  1.91685320280475169E-07
  1.96537854061522633E-07  2.01513230155781905E-07  2.06614558322793469E-07
  2.11845027045603507E-07  2.17207905523636133E-07  2.22706545716016936E-07
  2.28344384436617598E-07  2.34124945502140109E-07  2.40051841934576492E-07
  2.46128778219422517E-07  2.52359552621058831E-07  2.58748059556741373E-07
  2.65298292030691205E-07  2.72014344129800593E-07  2.78900413582515733E-07
  2.85960804382498380E-07  2.93199929478700206E-07  3.00622313533538404E-07
  3.08232595750890305E-07  3.16035532775675512E-07  3.24036001666845515E-07
  3.32239002945623025E-07  3.40649663720910871E-07  3.49273240893818340E-07
  3.58115124443305467E-07  3.67180840795002744E-07  3.76476056275305911E-07
  3.86006580652913148E-07  3.95778370770010102E-07  4.05797534265374253E-07
  4.16070333391731122E-07  4.26603188929736019E-07  4.37402684201038010E-07
  4.48475569182933147E-07  4.59828764727169552E-07  4.71469366885555108E-07
  4.83404651345053308E-07  4.95642077975155495E-07  5.08189295490364297E-07
  5.21054146230697128E-07  5.34244671063209676E-07  5.47769114407587228E-07
  5.61635929388956200E-07  5.75853783121135052E-07  5.90431562123615805E-07
  6.05378377875679152E-07  6.20703572511090237E-07  6.36416724656959765E-07
  6.52527655420402302E-07  6.69046434526729086E-07  6.85983386613041108E-07
  7.03349097681103125E-07  7.21154421713590336E-07  7.39410487457792609E-07
  7.58128705381047341E-07  7.77320774802236369E-07  7.96998691203793552E-07
  8.17174753728807464E-07  8.37861572867903837E-07  8.59072078340690836E-07
  8.80819527176728978E-07  9.03117512001020546E-07  9.25979969529263962E-07
  9.49421189278111899E-07  9.73455822495941094E-07  9.98098891319655330E-07
  1.02336579816328957E-06  1.04927233534424390E-06  1.07583469495320302E-06
  1.10306947897386586E-06  1.13099370965884277E-06  1.15962484016817689E-06
  1.18898076547715289E-06  1.21907983356021585E-06  1.24994085685794958E-06
  1.28158312403434160E-06  1.31402641203161140E-06  1.34729099843018152E-06
  1.38139767412150714E-06  1.41636775630165727E-06  1.45222310179379003E-06
  1.48898612070784712E-06  1.52667979044596040E-06  1.56532767006239421E-06
  1.60495391498692191E-06  1.64558329212086051E-06  1.68724119531523703E-06
  1.72995366124066376E-06  1.77374738565892948E-06  1.81864974010642954E-06
  1.86468878899982488E-06  1.91189330717469656E-06  1.96029279786807337E-06
  2.00991751115610194E-06  2.06079846285838188E-06  2.11296745392076285E-06
  2.16645709028869584E-06  2.22130080328357675E-06  2.27753287049482460E-06
  2.33518843720068326E-06  2.39430353833116406E-06  2.45491512098689439E-06
  2.51706106752782765E-06  2.58078021924631618E-06  2.64611240063933204E-06
  2.71309844429494596E-06  2.78178021640864724E-06  2.85220064294540607E-06
  2.92440373646386987E-06  2.99843462361940373E-06  3.07433957336310166E-06
  3.15216602585452704E-06  3.23196262210606067E-06  3.31377923437749992E-06
  3.39766699733981196E-06  3.48367834002751288E-06  3.57186701859966635E-06
  3.66228814992991318E-06  3.75499824604648499E-06  3.85005524944376773E-06
  3.94751856928739131E-06  4.04744911853554089E-06  4.14990935199952980E-06
  4.25496330536750060E-06  4.36267663521559341E-06  4.47311666003150907E-06
  4.58635240227616722E-06  4.70245463150957983E-06  4.82149590860796584E-06
  4.94355063109967687E-06  5.06869507964820287E-06  5.19700746571130676E-06
  5.32856798040596214E-06  5.46345884460967110E-06  5.60176436032936430E-06
  5.74357096336993589E-06  5.88896727733536370E-06  6.03804416899597158E-06
  6.19089480505646321E-06  6.34761471036014677E-06  6.50830182756557911E-06
  6.67305657833298087E-06  6.84198192605848145E-06  7.01518344019537264E-06
  7.19276936220250315E-06  7.37485067316084267E-06  7.56154116310055538E-06
  7.75295750208164840E-06  7.94921931307260356E-06  8.15044924667248916E-06
  8.35677305772294957E-06  8.56831968385810041E-06  8.78522132604099876E-06
  9.00761353113716514E-06  9.23563527657649379E-06  9.46942905715627268E-06
  9.70914097403954004E-06  9.95492082600415991E-06  1.02069222029994916E-05
  1.04653025820689559E-05  1.07302234256982312E-05  1.10018502826503971E-05
  1.12803528913508681E-05  1.15659052858863277E-05  1.18586859046840115E-05
  1.21588777019386125E-05  1.24666682618566353E-05  1.27822499157889969E-05
  1.31058198623249085E-05  1.34375802904219124E-05  1.37777385056485431E-05
  1.41265070596182210E-05  1.44841038826952153E-05  1.48507524200546742E-05
  1.52266817711820658E-05  1.56121268328982513E-05  1.60073284459994334E-05
  1.64125335456033602E-05  1.68279953152946401E-05  1.72539733451659944E-05
  1.76907337938527021E-05  1.81385495546617005E-05  1.85977004258983674E-05
  1.90684732854965799E-05  1.95511622700611471E-05  2.00460689584331892E-05
  2.05535025598930788E-05  2.10737801071175348E-05  2.16072266540106183E-05
  2.21541754785318704E-05  2.27149682906470139E-05  2.32899554455306795E-05
  2.38794961621533444E-05  2.44839587473879742E-05  2.51037208257757572E-05
  2.57391695750928986E-05  2.63907019678652235E-05  2.70587250189798237E-05
  2.77436560395472937E-05  2.84459228971723562E-05  2.91659642827933503E-05
  2.99042299842566792E-05  3.06611811667953141E-05  3.14372906605846214E-05
  3.22330432555545282E-05  3.30489360036393887E-05  3.38854785286533261E-05
  3.47431933439825029E-05  3.56226161782906341E-05  3.65242963094392903E-05
  3.74487969068294977E-05  3.83966953823757081E-05  3.93685837503296703E-05
  4.03650689961756320E-05  4.13867734548251841E-05  4.24343351983448436E-05
  4.35084084334558160E-05  4.46096639090509781E-05  4.57387893339801307E-05
  4.68964898053615188E-05  4.80834882476829117E-05  4.93005258629632468E-05
  5.05483625922516520E-05  5.18277775887476404E-05  5.31395697028343197E-05
  5.44845579793218609E-05  5.58635821672075656E-05  5.72775032422657987E-05
  5.87272039427877085E-05  6.02135893188014145E-05  6.17375872951073980E-05
  6.33001492484763101E-05  6.49022505993624246E-05  6.65448914184941739E-05
  6.82290970487152014E-05  6.99559187424546086E-05  7.17264343152177120E-05
  7.35417488154960935E-05  7.54029952115065283E-05  7.73113350951779840E-05
  7.92679594038165085E-05  8.12740891598883700E-05  8.33309762293714466E-05
  8.54399040991380229E-05  8.76021886738416114E-05  8.98191790927921525E-05
  9.20922585673169836E-05  9.44228452391157846E-05  9.68123930601303768E-05
  9.92623926944634941E-05  1.01774372442892789E-04  1.04349899190540223E-04
  1.06990579378269960E-04  1.09698059998402032E-04  1.12474029615344215E-04
  1.15320219411756302E-04  1.18238404260879277E-04  1.21230403825674251E-04
  1.24298083685433727E-04  1.27443356490541113E-04  1.30668183146073790E-04
  1.33974574024958238E-04  1.37364590211405419E-04  1.40840344775371000E-04
  1.44404004078801284E-04  1.48057789114447040E-04  1.51803976878042430E-04
  1.55644901774666525E-04  1.59582957060127836E-04  1.63620596318222647E-04
  1.67760334974749958E-04  1.72004751849177062E-04  1.76356490744874876E-04
  1.80818262078864919E-04  1.85392844552037154E-04  1.90083086860824214E-04
  1.94891909451340830E-04  1.99822306317016157E-04  2.04877346840777247E-04
  2.10060177682857310E-04  2.15374024715337526E-04  2.20822195004547037E-04
  2.26408078842478029E-04  2.32135151828396900E-04  2.38006977001857533E-04
  2.44027207028354244E-04  2.50199586438875211E-04  2.56527953924649008E-04
  2.63016244688404714E-04  2.69668492853495680E-04  2.76488833932264741E-04
  2.83481507355063701E-04  2.90650859061368852E-04  2.98001344154467723E-04
  3.05537529621217473E-04  3.13264097118417259E-04  3.21185845827366896E-04
  3.29307695378214791E-04  3.37634688845738927E-04  3.46171995818234015E-04
  3.54924915541216738E-04  3.63898880137697618E-04  3.73099457906800151E-04
  3.82532356702553172E-04  3.92203427394709452E-04  4.02118667413493803E-04
  4.12284224380219440E-04  4.22706399825741974E-04  4.33391652998771631E-04
  4.44346604766094819E-04  4.55578041606807945E-04  4.67092919702700397E-04
  4.78898369126963487E-04  4.91001698133457644E-04  5.03410397548790470E-04
  5.16132145269528487E-04  5.29174810866879270E-04  5.42546460301245991E-04
  5.56255360749106985E-04  5.70309985544695947E-04  5.84719019239007343E-04
  5.99491362778704602E-04  6.14636138807547706E-04  6.30162697093012629E-04
  6.46080620080801966E-04  6.62399728580007996E-04  6.79130087581727255E-04
  6.96282012213969635E-04  7.13866073835747587E-04  7.31893106273274530E-04
  7.50374212201294021E-04  7.69320769672524919E-04  7.88744438798289339E-04
  8.08657168583444899E-04  8.29071203918766981E-04  8.49999092733979070E-04
  8.71453693314663716E-04  8.93448181786331676E-04  9.15996059768958422E-04
  9.39111162205336363E-04  9.62807665366599043E-04  9.87100095038428603E-04
  1.01200333489134429E-03  1.03753263503854332E-03  1.06370362078482225E-03
  1.09053230157011866E-03  1.11803508011124107E-03  1.14622876174536839E-03
  1.17513056397893336E-03  1.20475812624549930E-03  1.23512951987624683E-03
  1.26626325828668967E-03  1.29817830738341265E-03  1.33089409619435847E-03
  1.36443052772629758E-03  1.39880799005313362E-03  1.43404736763867420E-03
  1.47017005289745446E-03  1.50719795799718879E-03  1.54515352690639467E-03
  1.58405974769068049E-03  1.62394016506105894E-03  1.66481889317783962E-03
  1.70672062871352168E-03  1.74967066417770420E-03  1.79369490150730823E-03
  1.83881986592518464E-03  1.88507272007010511E-03  1.93248127840102034E-03
  1.98107402187830709E-03  2.03088011292464326E-03  2.08192941066782803E-03
  2.13425248646790123E-03  2.18788063973109547E-03  2.24284591401198267E-03
  2.29918111340567761E-03  2.35691981923153967E-03  2.41609640700961954E-03
  2.47674606373072528E-03  2.53890480542080452E-03  2.60260949499988578E-03
  2.66789786043540849E-03  2.73480851318959155E-03  2.80338096696077345E-03
  2.87365565671664734E-03  2.94567395801791001E-03  3.01947820663018857E-03
  3.09511171842164097E-03  3.17261880954290091E-03  3.25204481688561422E-03
  3.33343611881505714E-03  3.41684015617128379E-03  3.50230545353349748E-03
  3.58988164074181383E-03  3.67961947466759675E-03  3.77157086122461259E-03
  3.86578887761176949E-03  3.96232779477736271E-03  4.06124310009358964E-03
  4.16259152022907444E-03  4.26643104420589090E-03  4.37282094662553005E-03
  4.48182181105009295E-03  4.59349555352062382E-03  4.70790544619275643E-03
  4.82511614107001153E-03  4.94519369381283755E-03  5.06820558759984909E-03
  5.19422075701583916E-03  5.32330961193926318E-03  5.45554406139920397E-03
  5.59099753737028402E-03  5.72974501847568936E-03  5.87186305355837709E-03
  6.01742978508273269E-03  6.16652497232601966E-03  6.31923001431588215E-03
  6.47562797246730229E-03  6.63580359286936126E-03  6.79984332816878281E-03
  6.96783535899179497E-03  7.13986961485057244E-03  7.31603779446873912E-03
  7.49643338545615944E-03  7.68115168326336754E-03  7.87028980934021197E-03
  8.06394672841899765E-03  8.26222326483750172E-03  8.46522211781247994E-03
  8.67304787556641074E-03  8.88580702821089793E-03  9.10360797928700879E-03
  9.32656105584201214E-03  9.55477851692802804E-03  9.78837456039936132E-03
  1.00274653278781007E-02  1.02721689077507668E-02  1.05226053360513959E-02
  1.07788965950765033E-02  1.10411666095703714E-02  1.13095412403282792E-02
  1.15841482750253782E-02  1.18651174160878201E-02  1.21525802654128632E-02
  1.24466703057334229E-02  1.27475228784125569E-02  1.30552751574430862E-02
  1.33700661194146309E-02  1.36920365091942817E-02  1.40213288010882405E-02
  1.43580871551953395E-02  1.47024573686675049E-02  1.50545868215857873E-02
  1.54146244171427266E-02  1.57827205158087604E-02  1.61590268631457874E-02
  1.65436965109149632E-02  1.69368837311003884E-02  1.73387439225014366E-02
  1.77494335094783295E-02  1.81691098324264430E-02  1.85979310295569661E-02
  1.90360559095363868E-02  1.94836438145198493E-02  1.99408544730958308E-02
  2.04078478426393088E-02  2.08847839405368295E-02  2.13718226637901673E-02
  2.18691235964242267E-02  2.23768458041022598E-02  2.28951476153649858E-02
  2.34241863888792583E-02  2.39641182660613045E-02  2.45150979084207514E-02
  2.50772782189494711E-02  2.56508100468397365E-02  2.62358418748775586E-02
  2.68325194887609232E-02  2.74409856275632177E-02  2.80613796145928844E-02
  2.86938369678663707E-02  2.93384889893944199E-02  2.99954623324670301E-02
  3.06648785461053654E-02  3.13468535958116301E-02  3.20414973598386887E-02
  3.27489131000866379E-02  3.34691969067231337E-02  3.42024371156742918E-02
  3.49487136981103744E-02  3.57080976210502263E-02  3.64806501782112755E-02
  3.72664222902365228E-02  3.80654537734173362E-02  3.88777725761571130E-02
  3.97033939823083770E-02  4.05423197805624622E-02  4.13945373991514987E-02
  4.22600190051366439E-02  4.31387205676014920E-02  4.40305808841208873E-02
  4.49355205699310326E-02  4.58534410092896749E-02  4.67842232686605380E-02
  4.77277269713304517E-02  4.86837891332186842E-02  4.96522229597648190E-02
  5.06328166038925442E-02  5.16253318851836451E-02  5.26295029705491635E-02
  5.36450350168582446E-02  5.46716027761975781E-02  5.57088491645374162E-02
  5.67563837948842839E-02  5.78137814762431854E-02  5.88805806799538797E-02
  5.99562819752581452E-02  6.10403464362658937E-02  6.21321940228243066E-02
  6.32312019382153118E-02  6.43367029670111196E-02  6.54479837964106609E-02
  6.65642833254801169E-02  6.76847909668986808E-02  6.88086449463230776E-02
  6.99349306050685571E-02  7.10626787123978809E-02  7.21908637943407261E-02
  7.33184024868673845E-02  7.44441519216302028E-02  7.55669081525650044E-02
  7.66854046340674084E-02  7.77983107612341962E-02  7.89042304836886921E-02
  8.00017010054797084E-02  8.10891915845108335E-02  8.21651024459870150E-02
  8.32277638260858627E-02  8.42754351615069147E-02  8.53063044418453653E-02
  8.63184877453582466E-02  8.73100289776791022E-02  8.82788998347783377E-02
  8.92230000127702122E-02  9.01401576884455907E-02  9.10281302958328709E-02
  9.18846056267931949E-02  9.27072032800114049E-02  9.34934764881349828E-02
  9.42409143554404360E-02  9.49469445365413306E-02  9.56089363888213833E-02
  9.62242046324093964E-02  9.67900135525402994E-02  9.73035817806708059E-02
  9.77620876932322747E-02  9.81626754573768912E-02  9.85024617665999774E-02
  9.87785433051990153E-02  9.89880049782683874E-02  9.91279289449575329E-02
  9.91954044921696393E-02  9.91875387849776996E-02  9.91014685307809867E-02
  9.89343725912296135E-02  9.86834855611641720E-02  9.83461123547662575E-02
  9.79196438218415260E-02  9.74015734140178530E-02  9.67895149169854807E-02
  9.60812212593962350E-02  9.52746044027716760E-02  9.43677563142524961E-02
  9.33589710044139265E-02  9.22467676012654197E-02  9.10299144450837511E-02
  8.97074541564501782E-02  8.82787296215519768E-02  8.67434108252975455E-02
  8.51015224473239129E-02  8.33534721196632633E-02  8.15000792325031032E-02
  7.95426041309796883E-02  7.74827775472512331E-02  7.53228300943557944E-02
  7.30655216079440922E-02  7.07141701019832758E-02  6.82726800777165715E-02
  6.57455698969320879E-02  6.31379979023447974E-02  6.04557869380135879E-02
  5.77054468755336114E-02  5.48941947501014327E-02  5.20299720628204301E-02
  4.91214587720466486E-02  4.61780834684716174E-02  4.32100291988690086E-02
  4.02282343753241969E-02  3.72443881775183436E-02  3.42709198314801664E-02
  3.13209811517845688E-02  2.84084216935460536E-02  2.55477558604769936E-02
  2.27541213153042605E-02  2.00432280446900951E-02  1.74312974465510584E-02
  1.49349908331287487E-02  1.25713267556343423E-02  1.03575866703152098E-02
  8.31120852770530702E-03  6.44966786163607420E-03  4.79034613189370951E-03
  3.35038617986476578E-03  2.14653480738220912E-03  1.19497259776051501E-03
  5.11126365532181656E-04  1.09325844736263538E-04 -1.64478016122299057E-06
 -1.21601961638807311E-07 -7.88773904566392378E-09 -4.48578668018830660E-10
 -2.13112360379849267E-11 -7.01833424212526791E-13  2.35915431641445886E-15
  2.88183620848049908E-15  3.24543144298053935E-16  2.69454624127219203E-17
  1.90915153471275294E-18  1.19140156837121114E-19  0.00000000000000000E+00
  0.00000000000000000E+00  0.00000000000000000E+00  0.00000000000000000E+00
  0.00000000000000000E+00  0.00000000000000000E+00  0.00000000000000000E+00
  0.00000000000000000E+00  0.00000000000000000E+00  0.00000000000000000E+00
  0.00000000000000000E+00  0.00000000000000000E+00  0.00000000000000000E+00
  0.00000000000000000E+00  0.00000000000000000E+00  0.00000000000000000E+00
  0.00000000000000000E+00  0.00000000000000000E+00  0.00000000000000000E+00
  0.00000000000000000E+00  0.00000000000000000E+00  0.00000000000000000E+00
  0.00000000000000000E+00  0.00000000000000000E+00  0.00000000000000000E+00
  0.00000000000000000E+00  0.00000000000000000E+00  0.00000000000000000E+00
  0.00000000000000000E+00  0.00000000000000000E+00  0.00000000000000000E+00
  0.00000000000000000E+00  0.00000000000000000E+00  0.00000000000000000E+00
  0.00000000000000000E+00  0.00000000000000000E+00  0.00000000000000000E+00
  0.00000000000000000E+00  0.00000000000000000E+00  0.00000000000000000E+00
  0.00000000000000000E+00  0.00000000000000000E+00  0.00000000000000000E+00
  0.00000000000000000E+00  0.00000000000000000E+00  0.00000000000000000E+00
  0.00000000000000000E+00  0.00000000000000000E+00  0.00000000000000000E+00
  0.00000000000000000E+00  0.00000000000000000E+00  0.00000000000000000E+00
  0.00000000000000000E+00  0.00000000000000000E+00  0.00000000000000000E+00
  0.00000000000000000E+00  0.00000000000000000E+00  0.00000000000000000E+00
  0.00000000000000000E+00  0.00000000000000000E+00  0.00000000000000000E+00
  0.00000000000000000E+00  0.00000000000000000E+00  0.00000000000000000E+00
  0.00000000000000000E+00  0.00000000000000000E+00  0.00000000000000000E+00
  0.00000000000000000E+00  0.00000000000000000E+00  0.00000000000000000E+00
  0.00000000000000000E+00  0.00000000000000000E+00  0.00000000000000000E+00
  0.00000000000000000E+00  0.00000000000000000E+00  0.00000000000000000E+00
  0.00000000000000000E+00  0.00000000000000000E+00  0.00000000000000000E+00
  0.00000000000000000E+00  0.00000000000000000E+00  0.00000000000000000E+00
  0.00000000000000000E+00  0.00000000000000000E+00  0.00000000000000000E+00
  0.00000000000000000E+00  0.00000000000000000E+00  0.00000000000000000E+00
  0.00000000000000000E+00  0.00000000000000000E+00  0.00000000000000000E+00
  0.00000000000000000E+00  0.00000000000000000E+00  0.00000000000000000E+00
  0.00000000000000000E+00  0.00000000000000000E+00  0.00000000000000000E+00
  0.00000000000000000E+00  0.00000000000000000E+00  0.00000000000000000E+00
  0.00000000000000000E+00  0.00000000000000000E+00  0.00000000000000000E+00
  0.00000000000000000E+00  0.00000000000000000E+00  0.00000000000000000E+00
  0.00000000000000000E+00  0.00000000000000000E+00  0.00000000000000000E+00
  0.00000000000000000E+00  0.00000000000000000E+00  0.00000000000000000E+00
  0.00000000000000000E+00  0.00000000000000000E+00  0.00000000000000000E+00
  0.00000000000000000E+00  0.00000000000000000E+00  0.00000000000000000E+00
  0.00000000000000000E+00  0.00000000000000000E+00  0.00000000000000000E+00
  0.00000000000000000E+00  0.00000000000000000E+00  0.00000000000000000E+00
  0.00000000000000000E+00  0.00000000000000000E+00  0.00000000000000000E+00
  0.00000000000000000E+00  0.00000000000000000E+00  0.00000000000000000E+00
  0.00000000000000000E+00  0.00000000000000000E+00  0.00000000000000000E+00
  0.00000000000000000E+00  0.00000000000000000E+00  0.00000000000000000E+00
  0.00000000000000000E+00  0.00000000000000000E+00  0.00000000000000000E+00
  0.00000000000000000E+00  0.00000000000000000E+00  0.00000000000000000E+00
  0.00000000000000000E+00  0.00000000000000000E+00  0.00000000000000000E+00
  0.00000000000000000E+00  0.00000000000000000E+00  0.00000000000000000E+00
  0.00000000000000000E+00  0.00000000000000000E+00  0.00000000000000000E+00
  0.00000000000000000E+00  0.00000000000000000E+00  0.00000000000000000E+00
  0.00000000000000000E+00  0.00000000000000000E+00  0.00000000000000000E+00
  0.00000000000000000E+00  0.00000000000000000E+00  0.00000000000000000E+00
  0.00000000000000000E+00  0.00000000000000000E+00  0.00000000000000000E+00
  0.00000000000000000E+00  0.00000000000000000E+00  0.00000000000000000E+00
  0.00000000000000000E+00
                       </PP_QIJL.1.1.0>
 <PP_QIJL.1.2.0 type="real" size="   961" columns="3" first_index=" 1" second_index=" 2" composite_index=" 2" angular_momentum="0">
 -2.90099907078838916E-09 -2.97443821110289357E-09 -3.04973647206445426E-09
 -3.12694091753421422E-09 -3.20609980280052901E-09 -3.28726260474005353E-09
 -3.37048005274244178E-09 -3.45580416041784276E-09 -3.54328825810704409E-09
 -3.63298702621473930E-09 -3.72495652938650990E-09 -3.81925425155101176E-09
 -3.91593913184933605E-09 -4.01507160147387576E-09 -4.11671362143976570E-09
 -4.22092872131248862E-09 -4.32778203891597827E-09 -4.43734036104579561E-09
 -4.54967216521304832E-09 -4.66484766244512603E-09 -4.78293884116973454E-09
 -4.90401951221006103E-09 -5.02816535491894468E-09 -5.15545396448083518E-09
 -5.28596490041137400E-09 -5.41977973628461339E-09 -5.55698211071910829E-09
 -5.69765777965481876E-09 -5.84189466995327866E-09 -5.98978293435474279E-09
 -6.14141500782657795E-09 -6.29688566533803706E-09 -6.45629208109771252E-09
 -6.61973388929055905E-09 -6.78731324635241930E-09 -6.95913489482113845E-09
 -7.13530622880396487E-09 -7.31593736110236674E-09 -7.50114119203606303E-09
 -7.69103348000934079E-09 -7.88573291386381623E-09 -8.08536118706269034E-09
 -8.29004307375318094E-09 -8.49990650675428207E-09 -8.71508265751896059E-09
 -8.93570601812046367E-09 -9.16191448531415645E-09 -9.39384944672754323E-09
 -9.63165586923186831E-09 -9.87548238955130167E-09 -1.01254814071653901E-08
 -1.03818091795638333E-08 -1.06446259199122476E-08 -1.09140958971906367E-08
 -1.11903875388667163E-08 -1.14736735361684417E-08 -1.17641309520215400E-08
 -1.20619413317195610E-08 -1.23672908163953509E-08 -1.26803702593653900E-08
 -1.30013753454189677E-08 -1.33305067131276131E-08 -1.36679700802504350E-08
 -1.40139763723143854E-08 -1.43687418544493722E-08 -1.47324882665608674E-08
 -1.51054429619242916E-08 -1.54878390492882064E-08 -1.58799155385744513E-08
 -1.62819174902672225E-08 -1.66940961685833376E-08 -1.71167091985204918E-08
 -1.75500207268810438E-08 -1.79943015873719554E-08 -1.84498294698847560E-08
 -1.89168890940600517E-08 -1.93957723872466127E-08 -1.98867786669650585E-08
 -2.03902148279906520E-08 -2.09063955341724531E-08 -2.14356434151077422E-08
 -2.19782892677959542E-08 -2.25346722633971216E-08 -2.31051401592242632E-08
 -2.36900495161030227E-08 -2.42897659212329563E-08 -2.49046642166910779E-08
 -2.55351287337199677E-08 -2.61815535329466542E-08 -2.68443426506828703E-08
 -2.75239103514603171E-08 -2.82206813869587989E-08 -2.89350912614892517E-08
 -2.96675865041974687E-08 -3.04186249481587502E-08 -3.11886760165374628E-08
 -3.19782210159912388E-08 -3.27877534375024694E-08 -3.36177792648252110E-08
 -3.44688172907409229E-08 -3.53413994413194949E-08 -3.62360711083897047E-08
 -3.71533914904254896E-08 -3.80939339420623002E-08 -3.90582863324613946E-08
 -4.00470514127456300E-08 -4.10608471927374440E-08 -4.21003073272336777E-08
 -4.31660815120591042E-08 -4.42588358901462127E-08 -4.53792534678940949E-08
 -4.65280345420684514E-08 -4.77058971375080110E-08 -4.89135774559115444E-08
 -5.01518303359863290E-08 -5.14214297252444015E-08 -5.27231691637430154E-08
 -5.40578622800708839E-08 -5.54263432998900591E-08 -5.68294675673519843E-08
 -5.82681120797123966E-08 -5.97431760354806725E-08 -6.12555813964452525E-08
 -6.28062734639267192E-08 -6.43962214696191905E-08 -6.60264191813876286E-08
 -6.76978855244020762E-08 -6.94116652179952602E-08 -7.11688294286423153E-08
 -7.29704764394709385E-08 -7.48177323367192962E-08 -7.67117517135724929E-08
 -7.86537183918159944E-08 -8.06448461617580034E-08 -8.26863795408823796E-08
 -8.47795945517078743E-08 -8.69257995193369227E-08 -8.91263358891960878E-08
 -9.13825790654766261E-08 -9.36959392707998324E-08 -9.60678624276459572E-08
 -9.84998310620944081E-08 -1.00993365230443609E-07 -1.03550023469287396E-07
 -1.06171403769642231E-07 -1.08859144575735549E-07 -1.11614925809075961E-07
 -1.14440469918449728E-07 -1.17337542956496585E-07 -1.20307955683539035E-07
 -1.23353564699355573E-07 -1.26476273603602783E-07 -1.29678034185614693E-07
 -1.32960847644321601E-07 -1.36326765839049471E-07 -1.39777892571985495E-07
 -1.43316384903105497E-07 -1.46944454498391143E-07 -1.50664369012175960E-07
 -1.54478453504484264E-07 -1.58389091894251688E-07 -1.62398728449330296E-07
 -1.66509869314215502E-07 -1.70725084076445467E-07 -1.75047007372653063E-07
 -1.79478340535277022E-07 -1.84021853280954027E-07 -1.88680385441656782E-07
 -1.93456848739652080E-07 -1.98354228607391693E-07 -2.03375586053475084E-07
 -2.08524059575843912E-07 -2.13802867123412058E-07 -2.19215308107351738E-07
 -2.24764765463293706E-07 -2.30454707765733379E-07 -2.36288691395958094E-07
 -2.42270362764857782E-07 -2.48403460592003535E-07 -2.54691818242418861E-07
 -2.61139366122506849E-07 -2.67750134136626264E-07 -2.74528254205856564E-07
 -2.81477962850522427E-07 -2.88603603838091850E-07 -2.95909630898109605E-07
 -3.03400610505849101E-07 -3.11081224736435270E-07 -3.18956274191217822E-07
 -3.27030680998220827E-07 -3.35309491888548424E-07 -3.43797881350663948E-07
 -3.52501154864521018E-07 -3.61424752217561097E-07 -3.70574250904652073E-07
 -3.79955369614097357E-07 -3.89573971801883357E-07 -3.99436069356408928E-07
 -4.09547826355986414E-07 -4.19915562921453274E-07 -4.30545759166317217E-07
 -4.41445059246884212E-07 -4.52620275514918771E-07 -4.64078392775423247E-07
 -4.75826572652192340E-07 -4.87872158063884211E-07 -5.00222677813389737E-07
 -5.12885851293378775E-07 -5.25869593310964684E-07 -5.39182019034490817E-07
 -5.52831449065548038E-07 -5.66826414639369178E-07 -5.81175662956877510E-07
 -5.95888162651700930E-07 -6.10973109395569812E-07 -6.26439931645624557E-07
 -6.42298296537179865E-07 -6.58558115925679672E-07 -6.75229552581575318E-07
 -6.92323026542025819E-07 -7.09849221623379192E-07 -7.27819092098498236E-07
 -7.46243869543111646E-07 -7.65135069855476000E-07 -7.84504500453708522E-07
 -8.04364267655329332E-07 -8.24726784243568329E-07 -8.45604777225230262E-07
 -8.67011295784901828E-07 -8.88959719440528469E-07 -9.11463766405406631E-07
 -9.34537502161854332E-07 -9.58195348251888808E-07 -9.82452091290432855E-07
 -1.00732289220665328E-06 -1.03282329571922562E-06 -1.05896924005143391E-06
 -1.08577706689217691E-06 -1.11326353160912379E-06 -1.14144581372035478E-06
 -1.17034152763109547E-06 -1.19996873364218451E-06 -1.23034594923719572E-06
 -1.26149216065526580E-06 -1.29342683475683020E-06 -1.32616993118970678E-06
 -1.35974191486312433E-06 -1.39416376873746076E-06 -1.42945700693773825E-06
 -1.46564368819901004E-06 -1.50274642965205634E-06 -1.54078842095804409E-06
 -1.57979343880089402E-06 -1.61978586174649691E-06 -1.66079068547801757E-06
 -1.70283353841678312E-06 -1.74594069773857548E-06 -1.79013910579527828E-06
 -1.83545638695214975E-06 -1.88192086485126347E-06 -1.92956158011187112E-06
 -1.97840830847874731E-06 -2.02849157942986434E-06 -2.07984269525503056E-06
 -2.13249375061736960E-06 -2.18647765260987048E-06 -2.24182814131960267E-06
 -2.29857981091231773E-06 -2.35676813125069819E-06 -2.41642947005974867E-06
 -2.47760111565312056E-06 -2.54032130023461270E-06 -2.60462922378936762E-06
 -2.67056507857971618E-06 -2.73817007426095642E-06 -2.80748646363268526E-06
 -2.87855756904190652E-06 -2.95142780945424789E-06 -3.02614272821030273E-06
 -3.10274902148436839E-06 -3.18129456746334928E-06 -3.26182845626410121E-06
 -3.34440102060783847E-06 -3.42906386727074924E-06 -3.51586990933051446E-06
 -3.60487339922878419E-06 -3.69612996267036106E-06 -3.78969663338010336E-06
 -3.88563188873936676E-06 -3.98399568632419775E-06 -4.08484950136804359E-06
 -4.18825636517245781E-06 -4.29428090448963321E-06 -4.40298938190147212E-06
 -4.51444973722034613E-06 -4.62873162993736361E-06 -4.74590648274469375E-06
 -4.86604752615901975E-06 -4.98922984427404551E-06 -5.11553042167057958E-06
 -5.24502819151342908E-06 -5.37780408486521322E-06 -5.51394108124774030E-06
 -5.65352426048257126E-06 -5.79664085584310630E-06 -5.94338030855128955E-06
 -6.09383432365303285E-06 -6.24809692730711966E-06 -6.40626452552336719E-06
 -6.56843596438669012E-06 -6.73471259180453531E-06 -6.90519832081635534E-06
 -7.07999969450445124E-06 -7.25922595254672420E-06 -7.44298909945289590E-06
 -7.63140397452657552E-06 -7.82458832359699952E-06 -8.02266287256493907E-06
 -8.22575140280881967E-06 -8.43398082849796852E-06 -8.64748127586111037E-06
 -8.86638616445967857E-06 -9.09083229051643121E-06 -9.32095991235140226E-06
 -9.55691283797837452E-06 -9.79883851491643528E-06 -1.00468881222726220E-05
 -1.03012166651530126E-05 -1.05619830714609612E-05 -1.08293502911429794E-05
 -1.11034853979437937E-05 -1.13845596937342518E-05 -1.16727488154768150E-05
 -1.19682328448952640E-05 -1.22711964209170322E-05 -1.25818288549579894E-05
 -1.29003242491214545E-05 -1.32268816173852561E-05 -1.35617050098517433E-05
 -1.39050036401386444E-05 -1.42569920159895517E-05 -1.46178900731855054E-05
 -1.49879233128411011E-05 -1.53673229421700086E-05 -1.57563260188081850E-05
 -1.61551755987837305E-05 -1.65641208882259493E-05 -1.69834173989077378E-05
 -1.74133271077177545E-05 -1.78541186201619028E-05 -1.83060673379952573E-05
 -1.87694556310889183E-05 -1.92445730136384314E-05 -1.97317163248230270E-05
 -2.02311899140282189E-05 -2.07433058307463828E-05 -2.12683840192734461E-05
 -2.18067525183224469E-05 -2.23587476656776995E-05 -2.29247143080168084E-05
 -2.35050060160302535E-05 -2.40999853049724731E-05 -2.47100238607808122E-05
 -2.53355027719024398E-05 -2.59768127669734916E-05 -2.66343544584968112E-05
 -2.73085385926701341E-05 -2.79997863055189946E-05 -2.87085293854926571E-05
 -2.94352105426865890E-05 -3.01802836848569494E-05 -3.09442142003987111E-05
 -3.17274792484622547E-05 -3.25305680563874939E-05 -3.33539822246399514E-05
 -3.41982360394370061E-05 -3.50638567932572728E-05 -3.59513851134317267E-05
 -3.68613752990187553E-05 -3.77943956661715974E-05 -3.87510289022111862E-05
 -3.97318724286227897E-05 -4.07375387732005460E-05 -4.17686559515688228E-05
 -4.28258678583163027E-05 -4.39098346679829663E-05 -4.50212332461477123E-05
 -4.61607575708691196E-05 -4.73291191647388001E-05 -4.85270475378136290E-05
 -4.97552906416984529E-05 -5.10146153350588295E-05 -5.23058078608501644E-05
 -5.36296743355551054E-05 -5.49870412507313334E-05 -5.63787559871754089E-05
 -5.78056873420197735E-05 -5.92687260690853303E-05 -6.07687854328198623E-05
 -6.23068017761631309E-05 -6.38837351026847898E-05 -6.55005696733518598E-05
 -6.71583146182905635E-05 -6.88580045639162450E-05 -7.06007002758141919E-05
 -7.23874893177638081E-05 -7.42194867273086872E-05 -7.60978357082827545E-05
 -7.80237083407162908E-05 -7.99983063085527837E-05 -8.20228616456192700E-05
 -8.40986375003043024E-05 -8.62269289194074430E-05 -8.84090636516363435E-05
 -9.06464029712388556E-05 -9.29403425222689449E-05 -9.52923131839984917E-05
 -9.77037819579974136E-05 -1.00176252877419455E-04 -1.02711267939042996E-04
 -1.05310408058628167E-04 -1.07975294050167620E-04 -1.10707587629620157E-04
 -1.13508992443731794E-04 -1.16381255124562233E-04 -1.19326166370350821E-04
 -1.22345562053369688E-04 -1.25441324355428889E-04 -1.28615382931713005E-04
 -1.31869716103645139E-04 -1.35206352081491179E-04 -1.38627370217433505E-04
 -1.42134902289860291E-04 -1.45731133819637355E-04 -1.49418305419140538E-04
 -1.53198714174853674E-04 -1.57074715064349740E-04 -1.61048722408493086E-04
 -1.65123211359724466E-04 -1.69300719427303668E-04 -1.73583848040410161E-04
 -1.77975264150022821E-04 -1.82477701870517795E-04 -1.87093964161950033E-04
 -1.91826924553999470E-04 -1.96679528912594473E-04 -2.01654797250239138E-04
 -2.06755825581101321E-04 -2.11985787821939505E-04 -2.17347937739970532E-04
 -2.22845610948807168E-04 -2.28482226953618292E-04 -2.34261291246691002E-04
 -2.40186397454600977E-04 -2.46261229538224046E-04 -2.52489564046846882E-04
 -2.58875272427667113E-04 -2.65422323391999995E-04 -2.72134785339537644E-04
 -2.79016828842032158E-04 -2.86072729187810456E-04 -2.93306868988556962E-04
 -3.00723740849827260E-04 -3.08327950106795597E-04 -3.16124217626761593E-04
 -3.24117382679981738E-04 -3.32312405880420933E-04 -3.40714372198051396E-04
 -3.49328494044365083E-04 -3.58160114432792668E-04 -3.67214710215767529E-04
 -3.76497895400203361E-04 -3.86015424543186437E-04 -3.95773196229725482E-04
 -4.05777256634433500E-04 -4.16033803169061755E-04 -4.26549188217836307E-04
 -4.37329922962587461E-04 -4.48382681299706800E-04 -4.59714303850993367E-04
 -4.71331802070505516E-04 -4.83242362449557556E-04 -4.95453350822048577E-04
 -5.07972316772369818E-04 -5.20806998148145152E-04 -5.33965325680114565E-04
 -5.47455427711512226E-04 -5.61285635039329733E-04 -5.75464485869904021E-04
 -5.90000730891295433E-04 -6.04903338464978435E-04 -6.20181499939398613E-04
 -6.35844635087996399E-04 -6.51902397674326731E-04 -6.68364681146955530E-04
 -6.85241624466888743E-04 -7.02543618070259929E-04 -7.20281309969079725E-04
 -7.38465611992894294E-04 -7.57107706174227845E-04 -7.76219051280729747E-04
 -7.95811389496975255E-04 -8.15896753258917680E-04 -8.36487472244009430E-04
 -8.57596180520051672E-04 -8.79235823855839039E-04 -9.01419667196802130E-04
 -9.24161302308754585E-04 -9.47474655592910812E-04 -9.71373996075402483E-04
 -9.95873943574515381E-04 -1.02098947704892026E-03 -1.04673594313015213E-03
 -1.07312906484265070E-03 -1.10018495051465107E-03 -1.12792010288323180E-03
 -1.15635142839682248E-03 -1.18549624671863345E-03 -1.21537230043423537E-03
 -1.24599776496659570E-03 -1.27739125870192025E-03 -1.30957185332960472E-03
 -1.34255908439957707E-03 -1.37637296210029575E-03 -1.41103398226063710E-03
 -1.44656313757886333E-03 -1.48298192908174185E-03 -1.52031237781705716E-03
 -1.55857703678264313E-03 -1.59779900309468901E-03 -1.63800193039832743E-03
 -1.67921004152331516E-03 -1.72144814138753752E-03 -1.76474163015097481E-03
 -1.80911651662261463E-03 -1.85459943192272346E-03 -1.90121764340258400E-03
 -1.94899906882386206E-03 -1.99797229079990216E-03 -2.04816657150020927E-03
 -2.09961186761980188E-03 -2.15233884561477021E-03 -2.20637889720516405E-03
 -2.26176415514601223E-03 -2.31852750926711797E-03 -2.37670262278183745E-03
 -2.43632394886470144E-03 -2.49742674749754787E-03 -2.56004710258411067E-03
 -2.62422193933117050E-03 -2.68998904189490405E-03 -2.75738707129049437E-03
 -2.82645558356261865E-03 -2.89723504821376735E-03 -2.96976686688698146E-03
 -3.04409339229887166E-03 -3.12025794741786636E-03 -3.19830484488283244E-03
 -3.27827940665674413E-03 -3.36022798390735438E-03 -3.44419797710777313E-03
 -3.53023785634853796E-03 -3.61839718185195730E-03 -3.70872662467847461E-03
 -3.80127798761385489E-03 -3.89610422622485662E-03 -3.99325947006917790E-03
 -4.09279904404716288E-03 -4.19477948987873571E-03 -4.29925858768747445E-03
 -4.40629537767385157E-03 -4.51595018185764648E-03 -4.62828462586802741E-03
 -4.74336166075807995E-03 -4.86124558481884975E-03 -4.98200206536552823E-03
 -5.10569816046695536E-03 -5.23240234059122161E-03 -5.36218451013088879E-03
 -5.49511602877338599E-03 -5.63126973267942792E-03 -5.77071995542955025E-03
 -5.91354254869616743E-03 -6.05981490259584372E-03 -6.20961596567334156E-03
 -6.36302626446406342E-03 -6.52012792258580779E-03 -6.68100467930002068E-03
 -6.84574190747881152E-03 -7.01442663091412892E-03 -7.18714754090024263E-03
 -7.36399501201669485E-03 -7.54506111703448935E-03 -7.73043964086384070E-03
 -7.92022609345473076E-03 -8.11451772156200971E-03 -8.31341351928405539E-03
 -8.51701423726482915E-03 -8.72542239045485252E-03 -8.93874226431852666E-03
 -9.15707991936872030E-03 -9.38054319390330300E-03 -9.60924170481158163E-03
 -9.84328684630948400E-03 -1.00827917864559635E-02 -1.03278714613114705E-02
 -1.05786425665628809E-02 -1.08352235464474148E-02 -1.10977345797990401E-02
 -1.13662975630305762E-02 -1.16410360898556286E-02 -1.19220754275450435E-02
 -1.22095424895008031E-02 -1.25035658039156401E-02 -1.28042754783058241E-02
 -1.31118031596532195E-02 -1.34262819898963541E-02 -1.37478465565043957E-02
 -1.40766328378517189E-02 -1.44127781430986590E-02 -1.47564210462708904E-02
 -1.51077013142150406E-02 -1.54667598280851942E-02 -1.58337384980429471E-02
 -1.62087801707919456E-02 -1.65920285295589817E-02 -1.69836279861361600E-02
 -1.73837235645752548E-02 -1.77924607761098183E-02 -1.82099854848642509E-02
 -1.86364437638907657E-02 -1.90719817410441202E-02 -1.95167454342437298E-02
 -1.99708805755985756E-02 -2.04345324238498285E-02 -2.09078455645984942E-02
 -2.13909636977568929E-02 -2.18840294116442319E-02 -2.23871839431292394E-02
 -2.29005669232024631E-02 -2.34243161073249620E-02 -2.39585670899559143E-02
 -2.45034530025741194E-02 -2.50591041944811903E-02 -2.56256478957027044E-02
 -2.62032078612721084E-02 -2.67919039961670644E-02 -2.73918519601540657E-02
 -2.80031627517820583E-02 -2.86259422707312618E-02 -2.92602908578066430E-02
 -2.99063028117607828E-02 -3.05640658821211761E-02 -3.12336607372430686E-02
 -3.19151604067878444E-02 -3.26086296978270601E-02 -3.33141245837748137E-02
 -3.40316915653550781E-02 -3.47613670027995258E-02 -3.55031764185861631E-02
 -3.62571337699269663E-02 -3.70232406902546093E-02 -3.78014856990324388E-02
 -3.85918433792246524E-02 -3.93942735218046070E-02 -4.02087202367263086E-02
 -4.10351110298346825E-02 -4.18733558452478519E-02 -4.27233460728773176E-02
 -4.35849535207284353E-02 -4.44580293517617547E-02 -4.53424029852111179E-02
 -4.62378809623563772E-02 -4.71442457768733308E-02 -4.80612546700227156E-02
 -4.89886383910991194E-02 -4.99260999237541303E-02 -5.08733131789022644E-02
 -5.18299216551962871E-02 -5.27955370682797048E-02 -5.37697379502452485E-02
 -5.47520682209951329E-02 -5.57420357334827490E-02 -5.67391107951225812E-02
 -5.77427246680397299E-02 -5.87522680511999296E-02 -5.97670895474540775E-02
 -6.07864941195370712E-02 -6.18097415392221822E-02 -6.28360448343009970E-02
 -6.38645687385919203E-02 -6.48944281507228132E-02 -6.59246866080090005E-02
 -6.69543547825716956E-02 -6.79823890071974968E-02 -6.90076898385108412E-02
 -7.00291006672449229E-02 -7.10454063851902878E-02 -7.20553321193403706E-02
 -7.30575420446394341E-02 -7.40506382876214980E-02 -7.50331599341699379E-02
 -7.60035821561983044E-02 -7.69603154715467336E-02 -7.79017051525698334E-02
 -7.88260308021983269E-02 -7.97315061153333893E-02 -8.06162788450220380E-02
 -8.14784309940528445E-02 -8.23159792537783153E-02 -8.31268757132703484E-02
 -8.39090088643835302E-02 -8.46602049249734756E-02 -8.53782295074398817E-02
 -8.60607896621631285E-02 -8.67055363237001220E-02 -8.73100671895856578E-02
 -8.78719300626211175E-02 -8.83886266884699318E-02 -8.88576171217716620E-02
 -8.92763246562824492E-02 -8.96421413458495797E-02 -8.99524341553806922E-02
 -9.02045517773868294E-02 -9.03958321476124455E-02 -9.05236106942053920E-02
 -9.05852293543773363E-02 -9.05780463916820017E-02 -9.04994470477213236E-02
 -9.03468550593531372E-02 -9.01177450589769613E-02 -8.98096558946045315E-02
 -8.94202048906473784E-02 -8.89471030674865298E-02 -8.83881713345517767E-02
 -8.77413576666057210E-02 -8.70047552672051500E-02 -8.61766217210127583E-02
 -8.52553991187271071E-02 -8.42397351282558743E-02 -8.31285049981139446E-02
 -8.19208344495515328E-02 -8.06161234063277887E-02 -7.92140704987077254E-02
 -7.77146982641324091E-02 -7.61183789521159559E-02 -7.44258608296617247E-02
 -7.26382948437699211E-02 -7.07572614988026677E-02 -6.87847977902708713E-02
 -6.67234239997004791E-02 -6.45761701369770846E-02 -6.23466017920838306E-02
 -6.00388451323666389E-02 -5.76576107556633771E-02 -5.52082160823451421E-02
 -5.26966059262320291E-02 -5.01293708828449355E-02 -4.75137631298684221E-02
 -4.48577092040457204E-02 -4.21698192930629878E-02 -3.94593925537938817E-02
 -3.67364179426079018E-02 -3.40115700167368321E-02 -3.12961991436324014E-02
 -2.86023155585045374E-02 -2.59425666731252433E-02 -2.33302070389120701E-02
 -2.07790603673264941E-02 -1.83034730159668188E-02 -1.59182583631164616E-02
 -1.36386315167582820E-02 -1.14801338154516108E-02 -9.45854668259766759E-03
 -7.58979445215804058E-03 -5.88983577915627894E-03 -4.37454341021110710E-03
 -3.05957218565244609E-03 -1.96021528254588465E-03 -1.09124880728599907E-03
 -4.66760524722260634E-04 -9.98363459526719704E-05  1.50201301062969737E-06
  1.11046894172028872E-07  7.20308218104344543E-09  4.09641976198348395E-10
  1.94614177361263741E-11  6.40914183740017847E-13 -2.15437938812621694E-15
 -2.63169241804505430E-15 -2.96372753477210734E-16 -2.46065924647632946E-17
 -1.74343691151406077E-18 -1.08798774375268859E-19  0.00000000000000000E+00
  0.00000000000000000E+00  0.00000000000000000E+00  0.00000000000000000E+00
  0.00000000000000000E+00  0.00000000000000000E+00  0.00000000000000000E+00
  0.00000000000000000E+00  0.00000000000000000E+00  0.00000000000000000E+00
  0.00000000000000000E+00  0.00000000000000000E+00  0.00000000000000000E+00
  0.00000000000000000E+00  0.00000000000000000E+00  0.00000000000000000E+00
  0.00000000000000000E+00  0.00000000000000000E+00  0.00000000000000000E+00
  0.00000000000000000E+00  0.00000000000000000E+00  0.00000000000000000E+00
  0.00000000000000000E+00  0.00000000000000000E+00  0.00000000000000000E+00
  0.00000000000000000E+00  0.00000000000000000E+00  0.00000000000000000E+00
  0.00000000000000000E+00  0.00000000000000000E+00  0.00000000000000000E+00
  0.00000000000000000E+00  0.00000000000000000E+00  0.00000000000000000E+00
  0.00000000000000000E+00  0.00000000000000000E+00  0.00000000000000000E+00
  0.00000000000000000E+00  0.00000000000000000E+00  0.00000000000000000E+00
  0.00000000000000000E+00  0.00000000000000000E+00  0.00000000000000000E+00
  0.00000000000000000E+00  0.00000000000000000E+00  0.00000000000000000E+00
  0.00000000000000000E+00  0.00000000000000000E+00  0.00000000000000000E+00
  0.00000000000000000E+00  0.00000000000000000E+00  0.00000000000000000E+00
  0.00000000000000000E+00  0.00000000000000000E+00  0.00000000000000000E+00
  0.00000000000000000E+00  0.00000000000000000E+00  0.00000000000000000E+00
  0.00000000000000000E+00  0.00000000000000000E+00  0.00000000000000000E+00
  0.00000000000000000E+00  0.00000000000000000E+00  0.00000000000000000E+00
  0.00000000000000000E+00  0.00000000000000000E+00  0.00000000000000000E+00
  0.00000000000000000E+00  0.00000000000000000E+00  0.00000000000000000E+00
  0.00000000000000000E+00  0.00000000000000000E+00  0.00000000000000000E+00
  0.00000000000000000E+00  0.00000000000000000E+00  0.00000000000000000E+00
  0.00000000000000000E+00  0.00000000000000000E+00  0.00000000000000000E+00
  0.00000000000000000E+00  0.00000000000000000E+00  0.00000000000000000E+00
  0.00000000000000000E+00  0.00000000000000000E+00  0.00000000000000000E+00
  0.00000000000000000E+00  0.00000000000000000E+00  0.00000000000000000E+00
  0.00000000000000000E+00  0.00000000000000000E+00  0.00000000000000000E+00
  0.00000000000000000E+00  0.00000000000000000E+00  0.00000000000000000E+00
  0.00000000000000000E+00  0.00000000000000000E+00  0.00000000000000000E+00
  0.00000000000000000E+00  0.00000000000000000E+00  0.00000000000000000E+00
  0.00000000000000000E+00  0.00000000000000000E+00  0.00000000000000000E+00
  0.00000000000000000E+00  0.00000000000000000E+00  0.00000000000000000E+00
  0.00000000000000000E+00  0.00000000000000000E+00  0.00000000000000000E+00
  0.00000000000000000E+00  0.00000000000000000E+00  0.00000000000000000E+00
  0.00000000000000000E+00  0.00000000000000000E+00  0.00000000000000000E+00
  0.00000000000000000E+00  0.00000000000000000E+00  0.00000000000000000E+00
  0.00000000000000000E+00  0.00000000000000000E+00  0.00000000000000000E+00
  0.00000000000000000E+00  0.00000000000000000E+00  0.00000000000000000E+00
  0.00000000000000000E+00  0.00000000000000000E+00  0.00000000000000000E+00
  0.00000000000000000E+00  0.00000000000000000E+00  0.00000000000000000E+00
  0.00000000000000000E+00  0.00000000000000000E+00  0.00000000000000000E+00
  0.00000000000000000E+00  0.00000000000000000E+00  0.00000000000000000E+00
  0.00000000000000000E+00  0.00000000000000000E+00  0.00000000000000000E+00
  0.00000000000000000E+00  0.00000000000000000E+00  0.00000000000000000E+00
  0.00000000000000000E+00  0.00000000000000000E+00  0.00000000000000000E+00
  0.00000000000000000E+00  0.00000000000000000E+00  0.00000000000000000E+00
  0.00000000000000000E+00  0.00000000000000000E+00  0.00000000000000000E+00
  0.00000000000000000E+00  0.00000000000000000E+00  0.00000000000000000E+00
  0.00000000000000000E+00  0.00000000000000000E+00  0.00000000000000000E+00
  0.00000000000000000E+00  0.00000000000000000E+00  0.00000000000000000E+00
  0.00000000000000000E+00  0.00000000000000000E+00  0.00000000000000000E+00
  0.00000000000000000E+00  0.00000000000000000E+00  0.00000000000000000E+00
  0.00000000000000000E+00
                       </PP_QIJL.1.2.0>
 <PP_QIJL.1.3.1 type="real" size="   961" columns="3" first_index=" 1" second_index=" 3" composite_index=" 4" angular_momentum="1">
  1.20645094543627969E-12  1.25255184510419100E-12  1.30041435219383808E-12
  1.35010578124149613E-12  1.40169601900619223E-12  1.45525762275945413E-12
  1.51086592233100227E-12  1.56859912605369027E-12  1.62853843075677190E-12
  1.69076813596243503E-12  1.75537576244585755E-12  1.82245217532560848E-12
  1.89209171185777670E-12  1.96439231411329744E-12  2.03945566672501420E-12
  2.11738733989846209E-12  2.19829693788745564E-12  2.28229825314295420E-12
  2.36950942635249133E-12  2.46005311259508577E-12  2.55405665384491745E-12
  2.65165225806706479E-12  2.75297718515679305E-12  2.85817393998366187E-12
  2.96739047281264468E-12  3.08078038738350965E-12  3.19850315694119923E-12
  3.32072434852155733E-12  3.44761585580707955E-12  3.57935614088065889E-12
  3.71613048521745055E-12  3.85813125026717344E-12  4.00555814799422585E-12
  4.15861852175551881E-12  4.31752763791098106E-12  4.48250898857758922E-12
  4.65379460595163755E-12  4.83162538864236091E-12  5.01625144047524162E-12
  5.20793242224147483E-12  5.40693791688897508E-12  5.61354780866734143E-12
  5.82805267676150486E-12  6.05075420396621819E-12  6.28196560097724324E-12
  6.52201204689540816E-12  6.77123114656296063E-12  7.02997340537633847E-12
  7.29860272224140151E-12  7.57749690136681479E-12  7.86704818361257611E-12
  8.16766379814388721E-12  8.47976653516352733E-12  8.80379534053054283E-12
  9.14020593309966245E-12  9.48947144565107651E-12  9.85208309031089334E-12
  1.02285508493992457E-11  1.06194041926763203E-11  1.10251928219966924E-11
  1.14464874444172867E-11  1.18838805748485100E-11  1.23379873693750879E-11
  1.28094464904209473E-11  1.32989210049725310E-11  1.38070993171262830E-11
  1.43346961362691368E-11  1.48824534822568683E-11  1.54511417290003663E-11
  1.60415606879313441E-11  1.66545407328676947E-11  1.72909439678632591E-11
  1.79516654396833390E-11  1.86376343966103473E-11  1.93498155953528540E-11
  2.00892106578916037E-11  2.08568594801757403E-11  2.16538416946466926E-11
  2.24812781886479517E-11  2.33403326808577402E-11  2.42322133579578036E-11
  2.51581745738450206E-11  2.61195186137720266E-11  2.71175975258984127E-11
  2.81538150228313898E-11  2.92296284558255059E-11  3.03465508644216757E-11
  3.15061531044076080E-11  3.27100660570901466E-11  3.39599829229894023E-11
  3.52576616031795825E-11  3.66049271716244569E-11  3.80036744419863626E-11
  3.94558706325184469E-11  4.09635581327870505E-11  4.25288573761151924E-11
  4.41539698217897030E-11  4.58411810512231305E-11  4.75928639824253583E-11
  4.94114822073084088E-11  5.12995934565144766E-11  5.32598531966428274E-11
  5.52950183649326076E-11  5.74079512466566429E-11  5.96016235006778905E-11
  6.18791203388285785E-11  6.42436448649929118E-11  6.66985225799947079E-11
  6.92472060586253106E-11  7.18932798053902416E-11  7.46404652958013934E-11
  7.74926262103093646E-11  8.04537738682333708E-11  8.35280728693321790E-11
  8.67198469509511698E-11  9.00335850689803682E-11  9.34739477111793482E-11
  9.70457734517466871E-11  1.00754085756351076E-10  1.04604100047197240E-10
  1.08601231038059599E-10  1.12751100349603582E-10  1.17059544415701868E-10
  1.21532622691866861E-10  1.26176626177344268E-10  1.30998086262848770E-10
  1.36003783916392237E-10  1.41200759220118467E-10  1.46596321271558592E-10
  1.52198058463233789E-10  1.58013849155058131E-10  1.64051872754557993E-10
  1.70320621220485279E-10  1.76828911006007086E-10  1.83585895458265916E-10
  1.90601077691753634E-10  1.97884323953596132E-10  2.05445877499556412E-10
  2.13296373000262962E-10  2.21446851497927257E-10  2.29908775934589196E-10
  2.38694047273719695E-10  2.47815021237866039E-10  2.57284525685871136E-10
  2.67115878654108595E-10  2.77322907087111511E-10  2.87919966283925576E-10
  2.98921960087551311E-10  3.10344361845858417E-10  3.22203236173456792E-10
  3.34515261545131123E-10  3.47297753752606475E-10  3.60568690257646270E-10
  3.74346735475725568E-10  3.88651267025836248E-10  4.03502402983355343E-10
  4.18921030174280621E-10  4.34928833550653471E-10  4.51548326688465510E-10
  4.68802883450943213E-10  4.86716770861753076E-10  5.05315183234337926E-10
  5.24624277605408321E-10  5.44671210522406179E-10  5.65484176236682457E-10
  5.87092446356115176E-10  6.09526411012905301E-10  6.32817621604487444E-10
  6.56998835167634858E-10  6.82104060448178702E-10  7.08168605731140328E-10
  7.35229128498522437E-10  7.63323686984628266E-10  7.92491793701390704E-10
  8.22774471008994395E-10  8.54214308809957027E-10  8.86855524447788178E-10
  9.20744024894494258E-10  9.55927471314368204E-10  9.92455346094859514E-10
  1.03037902243883005E-09  1.06975183661603005E-09  1.11062916297543908E-09
  1.15306849182393669E-09  1.19712951028084981E-09  1.24287418622212420E-09
  1.29036685543208432E-09  1.33967431208542402E-09  1.39086590268669143E-09
  1.44401362359932822E-09  1.49919222230144604E-09  1.55647930251074790E-09
  1.61595543332648138E-09  1.67770426254181669E-09  1.74181263428609914E-09
  1.80837071116244259E-09  1.87747210105228290E-09  1.94921398876541259E-09
  2.02369727272057386E-09  2.10102670684873154E-09  2.18131104791880790E-09
  2.26466320849286074E-09  2.35120041572590702E-09  2.44104437623382118E-09
  2.53432144726093165E-09  2.63116281438829711E-09  2.73170467603242545E-09
  2.83608843499387517E-09  2.94446089732538579E-09  3.05697447879879741E-09
  3.17378741926157353E-09  3.29506400518401041E-09  3.42097480071033422E-09
  3.55169688753865590E-09  3.68741411396679063E-09  3.82831735345485782E-09
  3.97460477306736217E-09  4.12648211217330176E-09  4.28416297179529876E-09
  4.44786911501548374E-09  4.61783077885996037E-09  4.79428699810095324E-09
  4.97748594143156928E-09  5.16768526048650126E-09  5.36515245219879846E-09
  5.57016523500316601E-09  5.78301193941378395E-09  6.00399191352719335E-09
  6.23341594401913977E-09  6.47160669322887356E-09  6.71889915294410679E-09
  6.97564111552622110E-09  7.24219366303689845E-09  7.51893167505540489E-09
  7.80624435589943379E-09  8.10453578199183110E-09  8.41422547014257749E-09
  8.73574896754492082E-09  9.06955846431646503E-09  9.41612342944481015E-09
  9.77593127103421176E-09  1.01494880217798496E-08  1.05373190506346645E-08
  1.09399698016699413E-08  1.13580065611671296E-08  1.17920172540215722E-08
  1.22426122705767833E-08  1.27104253250519053E-08  1.31961143467712200E-08
  1.37003624054465674E-08  1.42238786718155642E-08  1.47673994149867085E-08
  1.53316890378916993E-08  1.59175411523039850E-08  1.65257796949335943E-08
  1.71572600861669143E-08  1.78128704330834960E-08  1.84935327784393620E-08
  1.92002043973731280E-08  1.99338791436604435E-08  2.06955888474079908E-08
  2.14864047661522140E-08  2.23074390914050361E-08  2.31598465127644318E-08
  2.40448258417877305E-08  2.49636216979126937E-08  2.59175262587980812E-08
  2.69078810775419027E-08  2.79360789693344277E-08  2.90035659702001204E-08
  3.01118433705807242E-08  3.12624698266192609E-08  3.24570635521140953E-08
  3.36973045942266450E-08  3.49849371961406847E-08  3.63217722499942100E-08
  3.77096898435372174E-08  3.91506419040928046E-08  4.06466549435403960E-08
  4.21998329081796139E-08  4.38123601374832588E-08  4.54865044359003762E-08
  4.72246202620263656E-08  4.90291520396243707E-08  5.09026375951548454E-08
  5.28477117266461811E-08  5.48671099089247539E-08  5.69636721404113623E-08
  5.91403469368944906E-08  6.14001954778968093E-08  6.37463959114626911E-08
  6.61822478234206591E-08  6.87111768774014761E-08  7.13367396321377686E-08
  7.40626285428182916E-08  7.68926771535276519E-08  7.98308654880714439E-08
  8.28813256467647129E-08  8.60483476170534622E-08  8.93363853061371826E-08
  9.27500628040746853E-08  9.62941808861783695E-08  9.99737237638351015E-08
  1.03793866093246707E-07  1.07759980251942301E-07  1.11877643893289211E-07
  1.16152647789628066E-07  1.20591003975051742E-07  1.25198954199277101E-07
  1.29982978704493534E-07  1.34949805337522335E-07  1.40106419010100903E-07
  1.45460071520584570E-07  1.51018291750875814E-07  1.56788896252912823E-07
  1.62780000239594075E-07  1.69000028995592931E-07  1.75457729724094484E-07
  1.82162183846111550E-07  1.89122819769662785E-07  1.96349426146758825E-07
  2.03852165636834053E-07  2.11641589195961444E-07  2.19728650911935969E-07
  2.28124723406074412E-07  2.36841613823375049E-07  2.45891580433511781E-07
  2.55287349865990945E-07  2.65042135003686670E-07  2.75169653559907949E-07
  2.85684147365090797E-07  2.96600402390230856E-07  3.07933769535180184E-07
  3.19700186211022136E-07  3.31916198746852874E-07  3.44598985652446582E-07
  3.57766381769490212E-07  3.71436903345327800E-07  3.85629774064423070E-07
  4.00364952074136066E-07  4.15663158042759360E-07  4.31545904289243263E-07
  4.48035525025533332E-07  4.65155207753984520E-07  4.82929025863987801E-07
  5.01381972473559829E-07  5.20539995563458979E-07  5.40430034453166379E-07
  5.61080057669951591E-07  5.82519102264234233E-07  6.04777314626428712E-07
  6.27885992862619901E-07  6.51877630788562280E-07  6.76785963603784706E-07
  7.02646015309948313E-07  7.29494147940021718E-07  7.57368112667415156E-07
  7.86307102866823476E-07  8.16351809201270723E-07  8.47544476812711823E-07
  8.79928964696449937E-07  9.13550807342755257E-07  9.48457278732184951E-07
  9.84697458774436467E-07  1.02232230228401412E-06  1.06138471058946752E-06
  1.10193960587675510E-06  1.14404400837103701E-06  1.18775711646518960E-06
  1.23314038990753161E-06  1.28025763616542480E-06  1.32917510008596538E-06
  1.37996155697954766E-06  1.43268840925686364E-06  1.48742978675493250E-06
  1.54426265089286634E-06  1.60326690280345900E-06  1.66452549559228499E-06
  1.72812455088169007E-06  1.79415347980315603E-06  1.86270510860765897E-06
  1.93387580907015724E-06  2.00776563387104784E-06  2.08447845714432065E-06
  2.16412212038952032E-06  2.24680858395193219E-06  2.33265408428337785E-06
  2.42177929720395623E-06  2.51430950739350999E-06  2.61037478435033371E-06
  2.71011016506359103E-06  2.81365584365537381E-06  2.92115736825806809E-06
  3.03276584540267404E-06  3.14863815220445314E-06  3.26893715664287540E-06
  3.39383194624440677E-06  3.52349806548825127E-06  3.65811776226729101E-06
  3.79788024374933839E-06  3.94298194199661199E-06  4.09362678971522504E-06
  4.25002650652044773E-06  4.41240089611820023E-06  4.58097815481848710E-06
  4.75599519181219946E-06  4.93769796165922529E-06  5.12634180945258991E-06
  5.32219182914129818E-06  5.52552323551263406E-06  5.73662175035373342E-06
  5.95578400333205587E-06  6.18331794815481310E-06  6.41954329458854797E-06
  6.66479195694232771E-06  6.91940851964067991E-06  7.18375072053628589E-06
  7.45818995263697639E-06  7.74311178494725389E-06  8.03891650315104255E-06
  8.34601967088980790E-06  8.66485271241894697E-06  8.99586351745476038E-06
  9.33951706905540875E-06  9.69629609541071584E-06  1.00667017464492289E-05
  1.04512542962049807E-05  1.08504938719222343E-05  1.12649812109134801E-05
  1.16952984462241420E-05  1.21420499221975031E-05  1.26058630410745312E-05
  1.30873891418060320E-05  1.35873044122995573E-05  1.41063108363685702E-05
  1.46451371767004979E-05  1.52045399952089133E-05  1.57853047121870440E-05
  1.63882467057333361E-05  1.70142124529748057E-05  1.76640807146714330E-05
  1.83387637648452117E-05  1.90392086671383560E-05  1.97663985996700995E-05
  2.05213542302268557E-05  2.13051351436912886E-05  2.21188413236855986E-05
  2.29636146904799098E-05  2.38406406972930867E-05  2.47511499871927917E-05
  2.56964201128851802E-05  2.66777773217698538E-05  2.76965984087248351E-05
  2.87543126391789255E-05  2.98524037451243743E-05  3.09924119968213067E-05
  3.21759363530492039E-05  3.34046366928686010E-05  3.46802361319643643E-05
  3.60045234267569305E-05  3.73793554695880459E-05  3.88066598784105206E-05
  4.02884376845380720E-05  4.18267661221456859E-05  4.34238015233462643E-05
  4.50817823228129671E-05  4.68030321760634551E-05  4.85899631956750931E-05
  5.04450793098590026E-05  5.23709797479822829E-05  5.43703626578031913E-05
  5.64460288593591583E-05  5.86008857406237579E-05  6.08379513002438947E-05
  6.31603583428624074E-05  6.55713588327358498E-05  6.80743284115656956E-05
  7.06727710866795507E-05  7.33703240959262138E-05  7.61707629558789191E-05
  7.90780067001864033E-05  8.20961233151581960E-05  8.52293353799279648E-05
  8.84820259188285908E-05  9.18587444738628607E-05  9.53642134054507310E-05
  9.90033344299376552E-05  1.02781195402651895E-04  1.06703077355623194E-04
  1.10774461799398777E-04  1.15001038298740988E-04  1.19388712332340916E-04
  1.23943613447049914E-04  1.28672103717502852E-04  1.33580786522400843E-04
  1.38676515649170266E-04  1.43966404739057465E-04  1.49457837085193536E-04
  1.55158475796611983E-04  1.61076274341658509E-04  1.67219487484715029E-04
  1.73596682630651152E-04  1.80216751591930942E-04  1.87088922793828948E-04
  1.94222773933750770E-04  2.01628245111192954E-04  2.09315652445580185E-04
  2.17295702199677446E-04  2.25579505426927121E-04  2.34178593161741384E-04
  2.43104932172420453E-04  2.52370941297057956E-04  2.61989508383489455E-04
  2.71974007855079890E-04  2.82338318924881112E-04  2.93096844481453150E-04
  3.04264530670414783E-04  3.15856887196853736E-04  3.27890008374216854E-04
  3.40380594946328955E-04  3.53345976710113638E-04  3.66804135967495923E-04
  3.80773731835910660E-04  3.95274125447825830E-04  4.10325406070699214E-04
  4.25948418179817809E-04  4.42164789517409827E-04  4.58996960172861285E-04
  4.76468212719894670E-04  4.94602703447303898E-04  5.13425494721460600E-04
  5.32962588519905332E-04  5.53240961176595220E-04  5.74288599380659418E-04
  5.96134537471825518E-04  6.18808896077040573E-04  6.42342922133991301E-04
  6.66769030348924327E-04  6.92120846138181609E-04  7.18433250102897903E-04
  7.45742424088814281E-04  7.74085898884535801E-04  8.03502603613122477E-04
  8.34032916873474455E-04  8.65718719689655548E-04  8.98603450327915571E-04
  9.32732161042567004E-04  9.68151576814024490E-04  1.00491015614530884E-03
  1.04305815398221449E-03  1.08264768682603371E-03  1.12373280010928472E-03
  1.16636953790669596E-03  1.21061601505547387E-03  1.25653249176085240E-03
  1.30418145076471696E-03  1.35362767715616300E-03  1.40493834090670770E-03
  1.45818308221529864E-03  1.51343409974587532E-03  1.57076624184572674E-03
  1.63025710083396246E-03  1.69198711045124369E-03  1.75603964656373315E-03
  1.82250113121604782E-03  1.89146114012957688E-03  1.96301251374231180E-03
  2.03725147189529662E-03  2.11427773226564473E-03  2.19419463264674489E-03
  2.27710925718167421E-03  2.36313256665579823E-03  2.45237953295584935E-03
  2.54496927780385003E-03  2.64102521587525948E-03  2.74067520240966339E-03
  2.84405168542435898E-03  2.95129186265258260E-03  3.06253784330761183E-03
  3.17793681478634833E-03  3.29764121442488109E-03  3.42180890641721139E-03
  3.55060336400757218E-03  3.68419385706564469E-03  3.82275564515186178E-03
  3.96647017617158572E-03  4.11552529073956706E-03  4.27011543234998795E-03
  4.43044186344156501E-03  4.59671288745669253E-03  4.76914407698461780E-03
  4.94795850807377459E-03  5.13338700079264167E-03  5.32566836611207337E-03
  5.52504965916514323E-03  5.73178643895323921E-03  5.94614303456838730E-03
  6.16839281793885291E-03  6.39881848313627374E-03  6.63771233226234745E-03
  6.88537656791847735E-03  7.14212359224747611E-03  7.40827631252053906E-03
  7.68416845321545292E-03  7.97014487451533880E-03  8.26656189720957960E-03
  8.57378763383014227E-03  8.89220232590167900E-03  9.22219868715602048E-03
  9.56418225252710086E-03  9.91857173271182800E-03  1.02857993740496177E-02
  1.06663113234280061E-02  1.10605679978588514E-02  1.14690444584831779E-02
  1.18922307885155967E-02  1.23306324746621752E-02  1.27847707915262707E-02
  1.32551831884433272E-02  1.37424236781277537E-02  1.42470632264526161E-02
  1.47696901426060869E-02  1.53109104687382987E-02  1.58713483683960918E-02
  1.64516465126811652E-02  1.70524664630103753E-02  1.76744890493708666E-02
  1.83184147428224163E-02  1.89849640208965866E-02  1.96748777244323374E-02
  2.03889174042589869E-02  2.11278656559044618E-02  2.18925264407960757E-02
  2.26837253918864244E-02  2.35023101014452500E-02  2.43491503888305164E-02
  2.52251385458108560E-02  2.61311895568372317E-02  2.70682412914824040E-02
  2.80372546660567490E-02  2.90392137710236489E-02  3.00751259613131865E-02
  3.11460219057984634E-02  3.22529555918327146E-02  3.33970042809138348E-02
  3.45792684111511303E-02  3.58008714419412524E-02  3.70629596359835292E-02
  3.83667017734437635E-02  3.97132887924725939E-02  4.11039333511260194E-02
  4.25398693043274115E-02  4.40223510890298125E-02  4.55526530110310426E-02
  4.71320684263109996E-02  4.87619088093862521E-02  5.04435027007942710E-02
  5.21781945253599333E-02  5.39673432720367621E-02  5.58123210276481249E-02
  5.77145113543794178E-02  5.96753075005653361E-02  6.16961104347502690E-02
  6.37783266922272024E-02  6.59233660228185359E-02  6.81326388282274265E-02
  7.04075533766938266E-02  7.27495127816690929E-02  7.51599117339293160E-02
  7.76401329722793687E-02  8.01915434786119596E-02  8.28154903836192807E-02
  8.55132965686506291E-02  8.82862559488766657E-02  9.11356284226277347E-02
  9.40626344711702617E-02  9.70684493924917485E-02  1.00154197157002009E-01
  1.03320943866381063E-01  1.06569690799659292E-01  1.09901367031237637E-01
  1.13316821605202858E-01  1.16816815250545630E-01  1.20402011622258914E-01
  1.24072968053063143E-01  1.27830125801528416E-01  1.31673799788130125E-01
  1.35604167802420267E-01  1.39621259171143069E-01  1.43724942878227069E-01
  1.47914915128738667E-01  1.52190686350760357E-01  1.56551567631299404E-01
  1.60996656583502873E-01  1.65524822647753811E-01  1.70134691835050783E-01
  1.74824630915002555E-01  1.79592731062038796E-01  1.84436790976525905E-01
  1.89354299502030837E-01  1.94342417765354269E-01  1.99397960871832397E-01
  2.04517379193514204E-01  2.09696739299575635E-01  2.14931704583599587E-01
  2.20217515645930284E-01  2.25548970504545782E-01  2.30920404716155131E-01
  2.36325671499835688E-01  2.41758121967097561E-01  2.47210585574663522E-01
  2.52675350929963960E-01  2.58144147094445497E-01  2.63608125541362259E-01
  2.69057842943140446E-01  2.74483244980855134E-01  2.79873651385709188E-01
  2.85217742441213451E-01  2.90503547194496226E-01  2.95718433646830758E-01
  3.00849101219211656E-01  3.05881575792028293E-01  3.10801207659887058E-01
  3.15592672763039983E-01  3.20239977575691670E-01  3.24726468057152662E-01
  3.29034843095713903E-01  3.33147172898822064E-01  3.37044922813870051E-01
  3.40708983084843653E-01  3.44119705021874611E-01  3.47256944162613324E-01
  3.50100110979311929E-01  3.52628229701952900E-01  3.54820005843694941E-01
  3.56653903023705754E-01  3.58108229687382373E-01  3.59161236351098423E-01
  3.59791223933457360E-01  3.59976663697073151E-01  3.59696329443058294E-01
  3.58929442460993287E-01  3.57655829718759088E-01  3.55856095728597610E-01
  3.53511808462047994E-01  3.50605699613807387E-01  3.47121879479472983E-01
  3.43046066400118144E-01  3.38365830763012243E-01  3.33070853470362138E-01
  3.27153198480263363E-01  3.20607598876770872E-01  3.13431755712040294E-01
  3.05626648622697228E-01  2.97196856976394364E-01  2.88150890051127928E-01
  2.78501524096382402E-01  2.68266144241344595E-01  2.57467088646839926E-01
  2.46131991825263435E-01  2.34294123654213315E-01  2.21992720141331173E-01
  2.09273301504133119E-01  1.96187972651694659E-01  1.82795700535567540E-01
  1.69162562166075059E-01  1.55361956945790941E-01  1.41474776092602755E-01
  1.27589521422148244E-01  1.13802365240435868E-01  1.00217142589547656E-01
  8.69452666224835025E-02  7.41055574179073501E-02  6.18239742597944883E-02
  5.02332413308807790E-02  3.94723564259963633E-02  2.96859723803086541E-02
  2.10236411123468081E-02  1.36389106335355528E-02  7.68826561487835538E-03
  3.32987016927144535E-03  7.21179317192531207E-04 -1.09661316838762257E-05
 -8.10748546089763519E-07 -5.25893898175951280E-08 -2.99077825720770128E-09
 -1.42086964719309775E-10 -4.67928658887617650E-12  1.57290302414332978E-14
  1.92138719195526729E-14  2.16380458700656449E-15  1.79651661703612442E-16
  1.27287570872494558E-17  7.94335121200678783E-19  0.00000000000000000E+00
  0.00000000000000000E+00  0.00000000000000000E+00  0.00000000000000000E+00
  0.00000000000000000E+00  0.00000000000000000E+00  0.00000000000000000E+00
  0.00000000000000000E+00  0.00000000000000000E+00  0.00000000000000000E+00
  0.00000000000000000E+00  0.00000000000000000E+00  0.00000000000000000E+00
  0.00000000000000000E+00  0.00000000000000000E+00  0.00000000000000000E+00
  0.00000000000000000E+00  0.00000000000000000E+00  0.00000000000000000E+00
  0.00000000000000000E+00  0.00000000000000000E+00  0.00000000000000000E+00
  0.00000000000000000E+00  0.00000000000000000E+00  0.00000000000000000E+00
  0.00000000000000000E+00  0.00000000000000000E+00  0.00000000000000000E+00
  0.00000000000000000E+00  0.00000000000000000E+00  0.00000000000000000E+00
  0.00000000000000000E+00  0.00000000000000000E+00  0.00000000000000000E+00
  0.00000000000000000E+00  0.00000000000000000E+00  0.00000000000000000E+00
  0.00000000000000000E+00  0.00000000000000000E+00  0.00000000000000000E+00
  0.00000000000000000E+00  0.00000000000000000E+00  0.00000000000000000E+00
  0.00000000000000000E+00  0.00000000000000000E+00  0.00000000000000000E+00
  0.00000000000000000E+00  0.00000000000000000E+00  0.00000000000000000E+00
  0.00000000000000000E+00  0.00000000000000000E+00  0.00000000000000000E+00
  0.00000000000000000E+00  0.00000000000000000E+00  0.00000000000000000E+00
  0.00000000000000000E+00  0.00000000000000000E+00  0.00000000000000000E+00
  0.00000000000000000E+00  0.00000000000000000E+00  0.00000000000000000E+00
  0.00000000000000000E+00  0.00000000000000000E+00  0.00000000000000000E+00
  0.00000000000000000E+00  0.00000000000000000E+00  0.00000000000000000E+00
  0.00000000000000000E+00  0.00000000000000000E+00  0.00000000000000000E+00
  0.00000000000000000E+00  0.00000000000000000E+00  0.00000000000000000E+00
  0.00000000000000000E+00  0.00000000000000000E+00  0.00000000000000000E+00
  0.00000000000000000E+00  0.00000000000000000E+00  0.00000000000000000E+00
  0.00000000000000000E+00  0.00000000000000000E+00  0.00000000000000000E+00
  0.00000000000000000E+00  0.00000000000000000E+00  0.00000000000000000E+00
  0.00000000000000000E+00  0.00000000000000000E+00  0.00000000000000000E+00
  0.00000000000000000E+00  0.00000000000000000E+00  0.00000000000000000E+00
  0.00000000000000000E+00  0.00000000000000000E+00  0.00000000000000000E+00
  0.00000000000000000E+00  0.00000000000000000E+00  0.00000000000000000E+00
  0.00000000000000000E+00  0.00000000000000000E+00  0.00000000000000000E+00
  0.00000000000000000E+00  0.00000000000000000E+00  0.00000000000000000E+00
  0.00000000000000000E+00  0.00000000000000000E+00  0.00000000000000000E+00
  0.00000000000000000E+00  0.00000000000000000E+00  0.00000000000000000E+00
  0.00000000000000000E+00  0.00000000000000000E+00  0.00000000000000000E+00
  0.00000000000000000E+00  0.00000000000000000E+00  0.00000000000000000E+00
  0.00000000000000000E+00  0.00000000000000000E+00  0.00000000000000000E+00
  0.00000000000000000E+00  0.00000000000000000E+00  0.00000000000000000E+00
  0.00000000000000000E+00  0.00000000000000000E+00  0.00000000000000000E+00
  0.00000000000000000E+00  0.00000000000000000E+00  0.00000000000000000E+00
  0.00000000000000000E+00  0.00000000000000000E+00  0.00000000000000000E+00
  0.00000000000000000E+00  0.00000000000000000E+00  0.00000000000000000E+00
  0.00000000000000000E+00  0.00000000000000000E+00  0.00000000000000000E+00
  0.00000000000000000E+00  0.00000000000000000E+00  0.00000000000000000E+00
  0.00000000000000000E+00  0.00000000000000000E+00  0.00000000000000000E+00
  0.00000000000000000E+00  0.00000000000000000E+00  0.00000000000000000E+00
  0.00000000000000000E+00  0.00000000000000000E+00  0.00000000000000000E+00
  0.00000000000000000E+00  0.00000000000000000E+00  0.00000000000000000E+00
  0.00000000000000000E+00  0.00000000000000000E+00  0.00000000000000000E+00
  0.00000000000000000E+00  0.00000000000000000E+00  0.00000000000000000E+00
  0.00000000000000000E+00  0.00000000000000000E+00  0.00000000000000000E+00
  0.00000000000000000E+00  0.00000000000000000E+00  0.00000000000000000E+00
  0.00000000000000000E+00  0.00000000000000000E+00  0.00000000000000000E+00
  0.00000000000000000E+00
                       </PP_QIJL.1.3.1>
 <PP_QIJL.1.4.1 type="real" size="   961" columns="3" first_index=" 1" second_index=" 4" composite_index=" 7" angular_momentum="1">
 -1.19294964781845965E-12 -1.23853463594498590E-12 -1.28586151748317835E-12
 -1.33499685365763259E-12 -1.38600974913015327E-12 -1.43897194918955080E-12
 -1.49395794065534754E-12 -1.55104505663709681E-12 -1.61031358529672415E-12
 -1.67184688276709630E-12 -1.73573149038528208E-12 -1.80205725640545596E-12
 -1.87091746236289645E-12 -1.94240895426652793E-12 -2.01663227880446633E-12
 -2.09369182475438388E-12 -2.17369596979751137E-12 -2.25675723294244302E-12
 -2.34299243277357206E-12 -2.43252285174657717E-12 -2.52547440676162379E-12
 -2.62197782625485324E-12 -2.72216883405684135E-12 -2.82618834027636382E-12
 -2.93418263947861828E-12 -3.04630361643600497E-12 -3.16270895974092833E-12
 -3.28356238358155977E-12 -3.40903385799171609E-12 -3.53929984789916035E-12
 -3.67454356130863681E-12 -3.81495520696801377E-12 -3.96073226188080676E-12
 -4.11207974904073084E-12 -4.26921052577881725E-12 -4.43234558312934412E-12
 -4.60171435663454900E-12 -4.77755504902628489E-12 -4.96011496523779859E-12
 -5.14965086021679700E-12 -5.34642930002963539E-12 -5.55072703676329108E-12
 -5.76283139775390009E-12 -5.98304068968779045E-12 -6.21166461814446850E-12
 -6.44902472317102796E-12 -6.69545483150048777E-12 -6.95130152605096624E-12
 -7.21692463336429662E-12 -7.49269772967196666E-12 -7.77900866629737013E-12
 -8.07626011513615537E-12 -8.38487013497920593E-12 -8.70527275947699020E-12
 -9.03791860757038839E-12 -9.38327551724786426E-12 -9.74182920351926844E-12
 -1.01140839415327126E-11 -1.05005632757939533E-11 -1.09018107564873489E-11
 -1.13183907039320541E-11 -1.17508890022507222E-11 -1.21999139233647335E-11
 -1.26660969824770744E-11 -1.31500938262437028E-11 -1.36525851548849754E-11
 -1.41742776795313078E-11 -1.47159051161526434E-11 -1.52782292174660381E-11
 -1.58620408442763991E-11 -1.64681610777535500E-11 -1.70974423742126812E-11
 -1.77507697640211607E-11 -1.84290620963169778E-11 -1.91332733312922801E-11
 -1.98643938818550175E-11 -2.06234520065605808E-11 -2.14115152557686810E-11
 -2.22296919730607311E-11 -2.30791328540307684E-11 -2.39610325646384444E-11
 -2.48766314214048521E-11 -2.58272171358108159E-11 -2.68141266253513440E-11
 -2.78387478937962863E-11 -2.89025219832969489E-11 -3.00069450010877900E-11
 -3.11535702236329732E-11 -3.23440102811749329E-11 -3.35799394257599674E-11
 -3.48630958859296675E-11 -3.61952843113886389E-11 -3.75783783110885939E-11
 -3.90143230882979929E-11 -4.05051381763621917E-11 -4.20529202790017183E-11
 -4.36598462191457183E-11 -4.53281760004449462E-11 -4.70602559857705250E-11
 -4.88585221971712036E-11 -5.07255037419267815E-11 -5.26638263695187120E-11
 -5.46762161645183967E-11 -5.67655033805893446E-11 -5.89346264209939655E-11
 -6.11866359712015850E-11 -6.35246992894128500E-11 -6.59521046610334527E-11
 -6.84722660233618810E-11 -7.10887277669957061E-11 -7.38051697207071629E-11
 -7.66254123268028774E-11 -7.95534220142431556E-11 -8.25933167770784870E-11
 -8.57493719660497423E-11 -8.90260263014947658E-11 -9.24278881160212638E-11
 -9.59597418357245835E-11 -9.96265547090643365E-11 -1.03433483792865645E-10
 -1.07385883205267091E-10 -1.11489311655819464E-10 -1.15749540263323119E-10
 -1.20172560672400555E-10 -1.24764593480219833E-10 -1.29532096985215936E-10
 -1.34481776270121259E-10 -1.39620592632074101E-10 -1.44955773373070184E-10
 -1.50494821964526922E-10 -1.56245528600252407E-10 -1.62215981152666919E-10
 -1.68414576547680001E-10 -1.74850032574224892E-10 -1.81531400145056382E-10
 -1.88468076026059728E-10 -1.95669816051965326E-10 -2.03146748847066837E-10
 -2.10909390070230369E-10 -2.18968657204232613E-10 -2.27335884910230906E-10
 -2.36022840968950233E-10 -2.45041742831018833E-10 -2.54405274799720597E-10
 -2.64126605870331699E-10 -2.74219408251136821E-10 -2.84697876592159315E-10
 -2.95576747948665209E-10 -3.06871322507505469E-10 -3.18597485105451704E-10
 -3.30771727569789517E-10 -3.43411171912580953E-10 -3.56533594411229070E-10
 -3.70157450609203793E-10 -3.84301901272087297E-10 -3.98986839335457696E-10
 -4.14232917882486346E-10 -4.30061579190622143E-10 -4.46495084888199130E-10
 -4.63556547263379067E-10 -4.81269961769475878E-10 -4.99660240772352541E-10
 -5.18753248587379718E-10 -5.38575837855213412E-10 -5.59155887307555492E-10
 -5.80522340976023346E-10 -6.02705248899239135E-10 -6.25735809385430758E-10
 -6.49646412889950332E-10 -6.74470687569429777E-10 -7.00243546576650529E-10
 -7.27001237162618002E-10 -7.54781391654929438E-10 -7.83623080384105348E-10
 -8.13566866632324417E-10 -8.44654863681856193E-10 -8.76930794043397484E-10
 -9.10440050947642746E-10 -9.45229762186544435E-10 -9.81348856394047170E-10
 -1.01884813185954151E-09 -1.05778032797077837E-09 -1.09820019938675441E-09
 -1.14016459304484800E-09 -1.18373252811052872E-09 -1.22896527898211849E-09
 -1.27592646146723985E-09 -1.32468212225223305E-09 -1.37530083179036913E-09
 -1.42785378073945053E-09 -1.48241488008444198E-09 -1.53906086508594643E-09
 -1.59787140320076051E-09 -1.65892920612618185E-09 -1.72232014612573618E-09
 -1.78813337679993896E-09 -1.85646145847178910E-09 -1.92740048836351879E-09
 -2.00105023574760351E-09 -2.07751428226200710E-09 -2.15690016758720804E-09
 -2.23931954068966442E-09 -2.32488831684452412E-09 -2.41372684065849748E-09
 -2.50596005532193315E-09 -2.60171767832837178E-09 -2.70113438390855726E-09
 -2.80434999243543179E-09 -2.91150966706674722E-09 -3.02276411790143220E-09
 -3.13826981393726674E-09 -3.25818920312758070E-09 -3.38269094084668313E-09
 -3.51195012708533069E-09 -3.64614855270950105E-09 -3.78547495512943930E-09
 -3.93012528373762058E-09 -4.08030297548994919E-09 -4.23621924101680805E-09
 -4.39809336166712269E-09 -4.56615299790255050E-09 -4.74063450947598276E-09
 -4.92178328784420759E-09 -5.10985410128274429E-09 -5.30511145318750672E-09
 -5.50782995406804611E-09 -5.71829470775444266E-09 -5.93680171236223756E-09
 -6.16365827657793848E-09 -6.39918345185194209E-09 -6.64370848110521903E-09
 -6.89757726458219251E-09 -7.16114684350360146E-09 -7.43478790220083011E-09
 -7.71888528943667461E-09 -8.01383855964652288E-09 -8.32006253486073560E-09
 -8.63798788809818333E-09 -8.96806174905244505E-09 -9.31074833292060945E-09
 -9.66652959326118329E-09 -1.00359058997972641E-08 -1.04193967421191745E-08
 -1.08175414602765047E-08 -1.12309000032854797E-08 -1.16600537166201914E-08
 -1.21056061597938370E-08 -1.25681839551795936E-08 -1.30484376692664296E-08
 -1.35470427275867820E-08 -1.40647003646043288E-08 -1.46021386098978978E-08
 -1.51601133120261236E-08 -1.57394092015155182E-08 -1.63408409944652215E-08
 -1.69652545383193703E-08 -1.76135280014210531E-08 -1.82865731080183429E-08
 -1.89853364204591037E-08 -1.97108006703795536E-08 -2.04639861407568309E-08
 -2.12459521007685766E-08 -2.20577982954789864E-08 -2.29006664924455867E-08
 -2.37757420874198893E-08 -2.46842557714014380E-08 -2.56274852613904707E-08
 -2.66067570972698126E-08 -2.76234485073445211E-08 -2.86789893451636675E-08
 -2.97748641003457730E-08 -3.09126139862355720E-08 -3.20938391073281347E-08
 -3.33202007095092611E-08 -3.45934235162744660E-08 -3.59152981542103056E-08
 -3.72876836711526812E-08 -3.87125101505595504E-08 -4.01917814257753449E-08
 -4.17275778980021712E-08 -4.33220594619416052E-08 -4.49774685432215421E-08
 -4.66961332518764662E-08 -4.84804706563154644E-08 -5.03329901823827586E-08
 -5.22562971422892733E-08 -5.42530963983777934E-08 -5.63261961668702292E-08
 -5.84785119669468425E-08 -6.07130707207110840E-08 -6.30330150098025874E-08
 -6.54416074946444392E-08 -6.79422355025352303E-08 -7.05384157910385928E-08
 -7.32337994933677781E-08 -7.60321772527171062E-08 -7.89374845527588745E-08
 -8.19538072517985780E-08 -8.50853873283702535E-08 -8.83366288463482330E-08
 -9.17121041479633558E-08 -9.52165602834290862E-08 -9.88549256862148352E-08
 -1.02632317103351970E-07 -1.06554046790515280E-07 -1.10625629981992101E-07
 -1.14852792646045346E-07 -1.19241479536567333E-07 -1.23797862552344901E-07
 -1.28528349415686865E-07 -1.33439592682610046E-07 -1.38538499097254156E-07
 -1.43832239303669524E-07 -1.49328257928633644E-07 -1.55034284049666923E-07
 -1.60958342062958636E-07 -1.67108762966484235E-07 -1.73494196074166153E-07
 -1.80123621177549018E-07 -1.87006361172079150E-07 -1.94152095165732588E-07
 -2.01570872088421489E-07 -2.09273124821299501E-07 -2.17269684865826813E-07
 -2.25571797573209756E-07 -2.34191137955615824E-07 -2.43139827101387355E-07
 -2.52430449217321105E-07 -2.62076069321958450E-07 -2.72090251614757780E-07
 -2.82487078546951381E-07 -2.93281170620896484E-07 -3.04487706945732600E-07
 -3.16122446578229563E-07 -3.28201750678816263E-07 -3.40742605513915475E-07
 -3.53762646336903890E-07 -3.67280182181258237E-07 -3.81314221600701767E-07
 -3.95884499392537498E-07 -4.11011504341689202E-07 -4.26716508024438367E-07
 -4.43021594712321586E-07 -4.59949692418179194E-07 -4.77524605127995340E-07
 -4.95771046263769111E-07 -5.14714673424447778E-07 -5.34382124453707348E-07
 -5.54801054885229134E-07 -5.76000176818085463E-07 -5.98009299276807923E-07
 -6.20859370112837871E-07 -6.44582519506194352E-07 -6.69212105128442019E-07
 -6.94782759030394964E-07 -7.21330436320371427E-07 -7.48892465701369988E-07
 -7.77507601938112506E-07 -8.07216080327614522E-07 -8.38059673249770541E-07
 -8.70081748877317983E-07 -9.03327332127628423E-07 -9.37843167941861925E-07
 -9.73677786980307212E-07 -1.01088157382614882E-06 -1.04950683779332999E-06
 -1.08960788643794667E-06 -1.13124110187630554E-06 -1.17446502001672519E-06
 -1.21934041281631590E-06 -1.26593037367809221E-06 -1.31430040610827818E-06
 -1.36451851575817936E-06 -1.41665530597972796E-06 -1.47078407702876853E-06
 -1.52698092905522603E-06 -1.58532486902460355E-06 -1.64589792172079705E-06
 -1.70878524498585201E-06 -1.77407524935831207E-06 -1.84185972227788070E-06
 -1.91223395703056468E-06 -1.98529688661508632E-06 -2.06115122271817313E-06
 -2.13990359999363283E-06 -2.22166472584733459E-06 -2.30654953593811151E-06
 -2.39467735561245462E-06 -2.48617206749921032E-06 -2.58116228549914999E-06
 -2.67978153541311596E-06 -2.78216844246180734E-06 -2.88846692595991252E-06
 -2.99882640141713063E-06 -3.11340199034926719E-06 -3.23235473809304794E-06
 -3.35585183992973113E-06 -3.48406687583406576E-06 -3.61718005417710075E-06
 -3.75537846472412030E-06 -3.89885634128158676E-06 -4.04781533436074409E-06
 -4.20246479423930288E-06 -4.36302206481720297E-06 -4.52971278867749616E-06
 -4.70277122377895649E-06 -4.88244057222333998E-06 -5.06897332155682694E-06
 -5.26263159908289253E-06 -5.46368753968178751E-06 -5.67242366765060567E-06
 -5.88913329309753546E-06 -6.11412092344407674E-06 -6.34770269060992686E-06
 -6.59020679447723435E-06 -6.84197396325333780E-06 -7.10335793137475491E-06
 -7.37472593561938315E-06 -7.65645923011932746E-06 -7.94895362099291440E-06
 -8.25262002134159237E-06 -8.56788502738585290E-06 -8.89519151654342342E-06
 -9.23499926828363659E-06 -9.58778560862312086E-06 -9.95404607916100135E-06
 -1.03342951315855231E-05 -1.07290668486194542E-05 -1.11389156924081318E-05
 -1.15644172813918672E-05 -1.20061691967439414E-05 -1.24647918194962043E-05
 -1.29409291995165010E-05 -1.34352499575467068E-05 -1.39484482215546554E-05
 -1.44812445987018707E-05 -1.50343871842770701E-05 -1.56086526089967674E-05
 -1.62048471261272645E-05 -1.68238077399366278E-05 -1.74664033770423178E-05
 -1.81335361022795099E-05 -1.88261423807757103E-05 -1.95451943879811620E-05
 -2.02917013694693819E-05 -2.10667110523919688E-05 -2.18713111105409423E-05
 -2.27066306850465248E-05 -2.35738419628138639E-05 -2.44741618148808643E-05
 -2.54088534969618684E-05 -2.63792284145261436E-05 -2.73866479548485641E-05
 -2.84325253885609496E-05 -2.95183278433275564E-05 -3.06455783523652012E-05
 -3.18158579806314531E-05 -3.30308080316108672E-05 -3.42921323377362450E-05
 -3.56015996375956336E-05 -3.69610460431946754E-05 -3.83723776006653195E-05
 -3.98375729479372544E-05 -4.13586860730212494E-05 -4.29378491766871712E-05
 -4.45772756434618557E-05 -4.62792631250168534E-05 -4.80461967401674521E-05
 -4.98805523958611462E-05 -5.17849002336936724E-05 -5.37619082066639837E-05
 -5.58143457910528328E-05 -5.79450878384836875E-05 -6.01571185734180318E-05
 -6.24535357415284038E-05 -6.48375549145951936E-05 -6.73125139577791901E-05
 -6.98818776653376000E-05 -7.25492425710766686E-05 -7.53183419400606301E-05
 -7.81930509483409796E-05 -8.11773920577125199E-05 -8.42755405927580060E-05
 -8.74918305277298206E-05 -9.08307604910641071E-05 -9.42969999956169317E-05
 -9.78953959030116650E-05 -1.01630979130787910E-04 -1.05508971611361401E-04
 -1.09534793512126096E-04 -1.13714070726372651E-04 -1.18052642645044751E-04
 -1.22556570219717104E-04 -1.27232144327547896E-04 -1.32085894449346695E-04
 -1.37124597672343932E-04 -1.42355288029586389E-04 -1.47785266188352714E-04
 -1.53422109500425934E-04 -1.59273682427513239E-04 -1.65348147355577803E-04
 -1.71653975812335332E-04 -1.78199960102676079E-04 -1.84995225377293407E-04
 -1.92049242150334686E-04 -1.99371839282425051E-04 -2.06973217446108264E-04
 -2.14863963091204964E-04 -2.23055062928232556E-04 -2.31557918948704314E-04
 -2.40384364001757834E-04 -2.49546677947246585E-04 -2.59057604406114984E-04
 -2.68930368129608247E-04 -2.79178693009596800E-04 -2.89816820753047914E-04
 -3.00859530244440533E-04 -3.12322157620972937E-04 -3.24220617085896497E-04
 -3.36571422486325574E-04 -3.49391709682789642E-04 -3.62699259738687879E-04
 -3.76512522958739534E-04 -3.90850643806502508E-04 -4.05733486732022823E-04
 -4.21181662941704264E-04 -4.37216558143413577E-04 -4.53860361301261582E-04
 -4.71136094435519880E-04 -4.89067643503855059E-04 -5.07679790401668191E-04
 -5.26998246120414940E-04 -5.47049685104021122E-04 -5.67861780844779911E-04
 -5.89463242761406928E-04 -6.11883854403282848E-04 -6.35154513026072657E-04
 -6.59307270585595849E-04 -6.84375376198805376E-04 -7.10393320120772257E-04
 -7.37396879289049095E-04 -7.65423164488137730E-04 -7.94510669188344828E-04
 -8.24699320114846875E-04 -8.56030529604462202E-04 -8.88547249809220133E-04
 -9.22294028807199508E-04 -9.57317068683235270E-04 -9.93664285645052756E-04
 -1.03138537223930221E-03 -1.07053186173560974E-03 -1.11115719474831013E-03
 -1.15331678816730002E-03 -1.19706810647121544E-03 -1.24247073549807355E-03
 -1.28958645875031151E-03 -1.33847933631218888E-03 -1.38921578646135639E-03
 -1.44186467005877339E-03 -1.49649737779881139E-03 -1.55318792040679368E-03
 -1.61201302187229025E-03 -1.67305221580829871E-03 -1.73638794502822260E-03
 -1.80210566443437690E-03 -1.87029394731329907E-03 -1.94104459513294320E-03
 -2.01445275094568272E-03 -2.09061701649594948E-03 -2.16963957313201766E-03
 -2.25162630662674315E-03 -2.33668693601207138E-03 -2.42493514653339612E-03
 -2.51648872683092042E-03 -2.61146971045617690E-03 -2.71000452183082705E-03
 -2.81222412675682367E-03 -2.91826418759836550E-03 -3.02826522323570296E-03
 -3.14237277390315992E-03 -3.26073757102258825E-03 -3.38351571214221426E-03
 -3.51086884109005470E-03 -3.64296433344999575E-03 -3.77997548746651776E-03
 -3.92208172047574938E-03 -4.06946877098289701E-03 -4.22232890648029796E-03
 -4.38086113709455077E-03 -4.54527143516061244E-03 -4.71577296081184417E-03
 -4.89258629367017063E-03 -5.07593967071484371E-03 -5.26606923040193013E-03
 -5.46321926308994486E-03 -5.66764246783959570E-03 -5.87960021565683746E-03
 -6.09936281918618990E-03 -6.32720980889217664E-03 -6.56343021574666910E-03
 -6.80832286042553584E-03 -7.06219664900378276E-03 -7.32537087512273762E-03
 -7.59817552857581287E-03 -7.88095161024294708E-03 -8.17405145335560641E-03
 -8.47783905092736566E-03 -8.79269038922989542E-03 -9.11899378716654434E-03
 -9.45715024136170243E-03 -9.80757377675381577E-03 -1.01706918024475172E-02
 -1.05469454725356203E-02 -1.09367900515394308E-02 -1.13406952842281111E-02
 -1.17591457693335781E-02 -1.21926413366999394E-02 -1.26416974273874695E-02
 -1.31068454761783821E-02 -1.35886332958743902E-02 -1.40876254627143871E-02
 -1.46044037021647016E-02 -1.51395672742054479E-02 -1.56937333574183116E-02
 -1.62675374308232576E-02 -1.68616336523553685E-02 -1.74766952328869671E-02
 -1.81134148045612973E-02 -1.87725047821025552E-02 -1.94546977156581542E-02
 -2.01607466336019975E-02 -2.08914253734970197E-02 -2.16475288997014445E-02
 -2.24298736055744616E-02 -2.32392975980473919E-02 -2.40766609623982025E-02
 -2.49428460048285346E-02 -2.58387574702703404E-02 -2.67653227326717889E-02
 -2.77234919548044051E-02 -2.87142382142526222E-02 -2.97385575927167529E-02
 -3.07974692249356231E-02 -3.18920153031729131E-02 -3.30232610333778404E-02
 -3.41922945387434091E-02 -3.54002267061205508E-02 -3.66481909704728798E-02
 -3.79373430322393485E-02 -3.92688605018754119E-02 -4.06439424666761723E-02
 -4.20638089735916251E-02 -4.35297004212695793E-02 -4.50428768548518862E-02
 -4.66046171564734463E-02 -4.82162181240426840E-02 -4.98789934305044272E-02
 -5.15942724553311097E-02 -5.33633989791377772E-02 -5.51877297338321249E-02
 -5.70686327982639560E-02 -5.90074858290354637E-02 -6.10056741165622765E-02
 -6.30645884557115705E-02 -6.51856228199063914E-02 -6.73701718271553784E-02
 -6.96196279858794231E-02 -7.19353787073976209E-02 -7.43188030746113060E-02
 -7.67712683522041861E-02 -7.92941262242821132E-02 -8.18887087459037044E-02
 -8.45563239941571482E-02 -8.72982514041102248E-02 -9.01157367746701909E-02
 -9.30099869287936143E-02 -9.59821640118007080E-02 -9.90333794158368003E-02
 -1.02164687311921965E-01 -1.05377077773851649E-01 -1.08671469478828303E-01
 -1.12048701969353098E-01 -1.15509527461158418E-01 -1.19054602182326413E-01
 -1.22684477228510891E-01 -1.26399588920191958E-01 -1.30200248653594836E-01
 -1.34086632228642588E-01 -1.38058768643886137E-01 -1.42116528349444576E-01
 -1.46259610950129487E-01 -1.50487532352784226E-01 -1.54799611353987121E-01
 -1.59194955665425519E-01 -1.63672447379486247E-01 -1.68230727883370651E-01
 -1.72868182224040323E-01 -1.77582922937441712E-01 -1.82372773358512236E-01
 -1.87235250432972983E-01 -1.92167547057231214E-01 -1.97166513978528773E-01
 -2.02228641292521771E-01 -2.07350039587101076E-01 -2.12526420786470882E-01
 -2.17753078753042423E-01 -2.23024869719765373E-01 -2.28336192633688068E-01
 -2.33680969502029573E-01 -2.39052625843487965E-01 -2.44444071359771781E-01
 -2.49847680955898988E-01 -2.55255276252738805E-01 -2.60658107746712109E-01
 -2.66046837789780999E-01 -2.71411524580112806E-01 -2.76741607370958154E-01
 -2.82025893123884597E-01 -2.87252544852012293E-01 -2.92409071920318508E-01
 -2.97482322595530979E-01 -3.02458479141312409E-01 -3.07323055795969802E-01
 -3.12060899990102114E-01 -3.16656197180202936E-01 -3.21092479699642108E-01
 -3.25352640052090414E-01 -3.29418949095892588E-01 -3.33273079598280619E-01
 -3.36896135659016716E-01 -3.40268688475174774E-01 -3.43370819019498896E-01
 -3.46182168180026284E-01 -3.48681994924931515E-01 -3.50849243072300254E-01
 -3.52662617253243826E-01 -3.54100668661640416E-01 -3.55141891210623728E-01
 -3.55764828651510268E-01 -3.55948193173320104E-01 -3.55670996117887772E-01
 -3.54912691307707362E-01 -3.53653331465475285E-01 -3.51873738156811056E-01
 -3.49555685624634294E-01 -3.46682098811888162E-01 -3.43237265834601901E-01
 -3.39207064858770391E-01 -3.34579205370481025E-01 -3.29343483752152444E-01
 -3.23492052773500738E-01 -3.17019704460222818E-01 -3.09924165591818956E-01
 -3.02206404841877996E-01 -2.93870950330709757E-01 -2.84926216109649799E-01
 -2.75384835450179777E-01 -2.65263998925873268E-01 -2.54585794712955560E-01
 -2.43377548068167304E-01 -2.31672156548523883E-01 -2.19508417074592177E-01
 -2.06931340450715179E-01 -1.93992448484029995E-01 -1.80750048231572591E-01
 -1.67269477241042130E-01 -1.53623313508072457E-01 -1.39891543003295565E-01
 -1.26161677125492894E-01 -1.12528811923962371E-01 -9.90956204309988292E-02
 -8.59722689837719295E-02 -7.32762479547929557E-02 -6.11321070275995804E-02
 -4.96710850790401948E-02 -3.90306243905580511E-02 -2.93537589988221888E-02
 -2.07883671986068795E-02 -1.34862786576207573E-02 -7.60222683922487288E-03
 -3.29260585417094501E-03 -7.13108656189641093E-04  1.08434105669172044E-05
  8.01675522892774868E-07  5.20008660933999943E-08  2.95730869301844963E-09
  1.40496880675242748E-10  4.62692106078365642E-12 -1.55530079014180740E-14
 -1.89988509904731758E-14 -2.13958962010178534E-15 -1.77641194090841598E-16
 -1.25863105680685681E-17 -7.85445779350364889E-19  0.00000000000000000E+00
  0.00000000000000000E+00  0.00000000000000000E+00  0.00000000000000000E+00
  0.00000000000000000E+00  0.00000000000000000E+00  0.00000000000000000E+00
  0.00000000000000000E+00  0.00000000000000000E+00  0.00000000000000000E+00
  0.00000000000000000E+00  0.00000000000000000E+00  0.00000000000000000E+00
  0.00000000000000000E+00  0.00000000000000000E+00  0.00000000000000000E+00
  0.00000000000000000E+00  0.00000000000000000E+00  0.00000000000000000E+00
  0.00000000000000000E+00  0.00000000000000000E+00  0.00000000000000000E+00
  0.00000000000000000E+00  0.00000000000000000E+00  0.00000000000000000E+00
  0.00000000000000000E+00  0.00000000000000000E+00  0.00000000000000000E+00
  0.00000000000000000E+00  0.00000000000000000E+00  0.00000000000000000E+00
  0.00000000000000000E+00  0.00000000000000000E+00  0.00000000000000000E+00
  0.00000000000000000E+00  0.00000000000000000E+00  0.00000000000000000E+00
  0.00000000000000000E+00  0.00000000000000000E+00  0.00000000000000000E+00
  0.00000000000000000E+00  0.00000000000000000E+00  0.00000000000000000E+00
  0.00000000000000000E+00  0.00000000000000000E+00  0.00000000000000000E+00
  0.00000000000000000E+00  0.00000000000000000E+00  0.00000000000000000E+00
  0.00000000000000000E+00  0.00000000000000000E+00  0.00000000000000000E+00
  0.00000000000000000E+00  0.00000000000000000E+00  0.00000000000000000E+00
  0.00000000000000000E+00  0.00000000000000000E+00  0.00000000000000000E+00
  0.00000000000000000E+00  0.00000000000000000E+00  0.00000000000000000E+00
  0.00000000000000000E+00  0.00000000000000000E+00  0.00000000000000000E+00
  0.00000000000000000E+00  0.00000000000000000E+00  0.00000000000000000E+00
  0.00000000000000000E+00  0.00000000000000000E+00  0.00000000000000000E+00
  0.00000000000000000E+00  0.00000000000000000E+00  0.00000000000000000E+00
  0.00000000000000000E+00  0.00000000000000000E+00  0.00000000000000000E+00
  0.00000000000000000E+00  0.00000000000000000E+00  0.00000000000000000E+00
  0.00000000000000000E+00  0.00000000000000000E+00  0.00000000000000000E+00
  0.00000000000000000E+00  0.00000000000000000E+00  0.00000000000000000E+00
  0.00000000000000000E+00  0.00000000000000000E+00  0.00000000000000000E+00
  0.00000000000000000E+00  0.00000000000000000E+00  0.00000000000000000E+00
  0.00000000000000000E+00  0.00000000000000000E+00  0.00000000000000000E+00
  0.00000000000000000E+00  0.00000000000000000E+00  0.00000000000000000E+00
  0.00000000000000000E+00  0.00000000000000000E+00  0.00000000000000000E+00
  0.00000000000000000E+00  0.00000000000000000E+00  0.00000000000000000E+00
  0.00000000000000000E+00  0.00000000000000000E+00  0.00000000000000000E+00
  0.00000000000000000E+00  0.00000000000000000E+00  0.00000000000000000E+00
  0.00000000000000000E+00  0.00000000000000000E+00  0.00000000000000000E+00
  0.00000000000000000E+00  0.00000000000000000E+00  0.00000000000000000E+00
  0.00000000000000000E+00  0.00000000000000000E+00  0.00000000000000000E+00
  0.00000000000000000E+00  0.00000000000000000E+00  0.00000000000000000E+00
  0.00000000000000000E+00  0.00000000000000000E+00  0.00000000000000000E+00
  0.00000000000000000E+00  0.00000000000000000E+00  0.00000000000000000E+00
  0.00000000000000000E+00  0.00000000000000000E+00  0.00000000000000000E+00
  0.00000000000000000E+00  0.00000000000000000E+00  0.00000000000000000E+00
  0.00000000000000000E+00  0.00000000000000000E+00  0.00000000000000000E+00
  0.00000000000000000E+00  0.00000000000000000E+00  0.00000000000000000E+00
  0.00000000000000000E+00  0.00000000000000000E+00  0.00000000000000000E+00
  0.00000000000000000E+00  0.00000000000000000E+00  0.00000000000000000E+00
  0.00000000000000000E+00  0.00000000000000000E+00  0.00000000000000000E+00
  0.00000000000000000E+00  0.00000000000000000E+00  0.00000000000000000E+00
  0.00000000000000000E+00  0.00000000000000000E+00  0.00000000000000000E+00
  0.00000000000000000E+00  0.00000000000000000E+00  0.00000000000000000E+00
  0.00000000000000000E+00  0.00000000000000000E+00  0.00000000000000000E+00
  0.00000000000000000E+00  0.00000000000000000E+00  0.00000000000000000E+00
  0.00000000000000000E+00  0.00000000000000000E+00  0.00000000000000000E+00
  0.00000000000000000E+00
                       </PP_QIJL.1.4.1>
 <PP_QIJL.2.2.0 type="real" size="   961" columns="3" first_index=" 2" second_index=" 2" composite_index=" 3" angular_momentum="0">
  2.12606611565444053E-09  2.17988773502608261E-09  2.23507185514873153E-09
  2.29165296789156980E-09  2.34966643828952912E-09  2.40914852664755812E-09
  2.47013641120452619E-09  2.53266821137081218E-09  2.59678301155413896E-09
  2.66252088558864833E-09  2.72992292178231593E-09  2.79903124859844956E-09
  2.86988906098737598E-09  2.94254064738467851E-09  3.01703141739289586E-09
  3.09340793016396835E-09  3.17171792350026493E-09  3.25201034369220140E-09
  3.33433537611126510E-09  3.41874447657754831E-09  3.50529040352121039E-09
  3.59402725095824883E-09  3.68501048230102698E-09  3.77829696502463436E-09
  3.87394500621096205E-09  3.97201438899247306E-09  4.07256640991857406E-09
  4.17566391726798345E-09  4.28137135033089178E-09  4.38975477968561001E-09
  4.50088194849483039E-09  4.61482231484724008E-09  4.73164709517109887E-09
  4.85142930874680493E-09  4.97424382334627070E-09  5.10016740202772054E-09
  5.22927875111503241E-09  5.36165856939176284E-09  5.49738959854046013E-09
  5.63655667485888381E-09  5.77924678228542848E-09  5.92554910676683103E-09
  6.07555509200232871E-09  6.22935849659883600E-09  6.38705545267314733E-09
  6.54874452593754932E-09  6.71452677730653790E-09  6.88450582606321759E-09
  7.05878791462453579E-09  7.23748197494638124E-09  7.42069969660934131E-09
  7.60855559662843610E-09  7.80116709102979718E-09  7.99865456823952202E-09
  8.20114146433026028E-09  8.40875434017268371E-09  8.62162296054007843E-09
  8.83988037521552480E-09  9.06366300215215131E-09  9.29311071273886246E-09
  9.52836691922422885E-09  9.76957866435387623E-09  1.00168967132767598E-08
  1.02704756477782728E-08  1.05304739628987339E-08  1.07970541659978539E-08
  1.10703828783269188E-08  1.13506309391724912E-08  1.16379735126362257E-08
  1.19325901971181938E-08  1.22346651375713731E-08  1.25443871405981641E-08
  1.28619497924605268E-08  1.31875515800773778E-08  1.35213960150854463E-08
  1.38636917610401442E-08  1.42146527638371066E-08  1.45744983854350604E-08
  1.49434535409638707E-08  1.53217488393037871E-08  1.57096207272229503E-08
  1.61073116371642918E-08  1.65150701387733535E-08  1.69331510942619642E-08
  1.73618158177053951E-08  1.78013322383715769E-08  1.82519750681853438E-08
  1.87140259734320338E-08  1.91877737508075989E-08  1.96735145079256315E-08
  2.01715518483938209E-08  2.06821970615755625E-08  2.12057693171555529E-08
  2.17425958646307266E-08  2.22930122378514081E-08  2.28573624647401580E-08
  2.34359992823200040E-08  2.40292843571859431E-08  2.46375885115576139E-08
  2.52612919550547948E-08  2.59007845223398361E-08  2.65564659167765109E-08
  2.72287459602566552E-08  2.79180448493514846E-08  2.86247934179474339E-08
  2.93494334065301868E-08  3.00924177382860396E-08  3.08542108021926248E-08
  3.16352887432761336E-08  3.24361397602165383E-08  3.32572644104860854E-08
  3.40991759232131311E-08  3.49624005199656809E-08  3.58474777436556398E-08
  3.67549607957694952E-08  3.76854168821354913E-08  3.86394275674442656E-08
  3.96175891387441647E-08  4.06205129781382555E-08  4.16488259449164701E-08
  4.27031707673608395E-08  4.37842064444697821E-08  4.48926086578517561E-08
  4.60290701940460869E-08  4.71943013775350442E-08  4.83890305147168688E-08
  4.96140043491187158E-08  5.08699885281329118E-08  5.21577680815686525E-08
  5.34781479123184432E-08  5.48319532994450388E-08  5.62200304140048159E-08
  5.76432468479285467E-08  5.91024921562911645E-08  6.05986784133085707E-08
  6.21327407824102372E-08  6.37056381007417695E-08  6.53183534784655388E-08
  6.69718949132316542E-08  6.86672959202042062E-08  7.04056161780373774E-08
  7.21879421912029299E-08  7.40153879690856095E-08  7.58890957222691757E-08
  7.78102365764487246E-08  7.97800113044164189E-08  8.17996510765757315E-08
  8.38704182304562808E-08  8.59936070597079871E-08  8.81705446230686640E-08
  9.04025915738108806E-08  9.26911430101848650E-08  9.50376293473913177E-08
  9.74435172116277975E-08  9.99103103567669013E-08  1.02439550604241533E-07
  1.05032818806720757E-07  1.07691735836182853E-07  1.10417963597000350E-07
  1.13213206064670637E-07  1.16079210350843135E-07  1.19017767795304952E-07
  1.22030715085611858E-07  1.25119935405061320E-07  1.28287359609725888E-07
  1.31534967435284467E-07  1.34864788734400867E-07  1.38278904745429055E-07
  1.41779449393233804E-07  1.45368610622940717E-07  1.49048631767451381E-07
  1.52821812949573455E-07  1.56690512519647950E-07  1.60657148529567872E-07
  1.64724200244110869E-07  1.68894209690531746E-07  1.73169783247379746E-07
  1.77553593273538023E-07  1.82048379778500532E-07  1.86656952134930482E-07
  1.91382190834572445E-07  1.96227049288612520E-07  2.01194555673615097E-07
  2.06287814824187451E-07  2.11510010173554698E-07  2.16864405743263300E-07
  2.22354348183246604E-07  2.27983268863536541E-07  2.33754686018925724E-07
  2.39672206947918366E-07  2.45739530267347492E-07  2.51960448224062844E-07
  2.58338849065141257E-07  2.64878719468093844E-07  2.71584147032592354E-07
  2.78459322835273055E-07  2.85508544049209470E-07  2.92736216629696467E-07
  3.00146858068023663E-07  3.07745100214954250E-07  3.15535692175681855E-07
  3.23523503278063740E-07  3.31713526115996480E-07  3.40110879669830483E-07
  3.48720812505770410E-07  3.57548706056270503E-07  3.66600077983462667E-07
  3.75880585627728076E-07  3.85396029543567186E-07  3.95152357124969668E-07
  4.05155666322562757E-07  4.15412209454844998E-07  4.25928397115903024E-07
  4.36710802182044528E-07  4.47766163919845908E-07  4.59101392198204170E-07
  4.70723571806988729E-07  4.82639966885031873E-07  4.94858025460192585E-07
  5.07385384104350466E-07  5.20229872706233790E-07  5.33399519365054260E-07
  5.46902555408020387E-07  5.60747420534861972E-07  5.74942768092567699E-07
  5.89497470483656937E-07  6.04420624711328259E-07  6.19721558064995201E-07
  6.35409833949715443E-07  6.51495257863200031E-07  6.67987883524097386E-07
  6.84898019155411500E-07  7.02236233926959361E-07  7.20013364560913768E-07
  7.38240522104536478E-07  7.56929098874353253E-07  7.76090775576093222E-07
  7.95737528604851123E-07  8.15881637530039529E-07  8.36535692769781043E-07
  8.57712603459578413E-07  8.79425605520131195E-07  9.01688269929372587E-07
  9.24514511203890588E-07  9.47918596095014726E-07  9.71915152505019334E-07
  9.96519178629012187E-07  1.02174605232819845E-06  1.04761154074041593E-06
  1.07413181013390786E-06  1.10132343601049647E-06  1.12920341346450537E-06
  1.15778916780383505E-06  1.18709856543989154E-06  1.21714992505314275E-06
  1.24796202904125597E-06  1.27955413525702025E-06  1.31194598904333902E-06
  1.34515783557282646E-06  1.37921043249973060E-06  1.41412506293206405E-06
  1.44992354873205072E-06  1.48662826415320107E-06  1.52426214982254838E-06
  1.56284872707673984E-06  1.60241211266096077E-06  1.64297703379990276E-06
  1.68456884365012012E-06  1.72721353714347450E-06  1.77093776723156965E-06
  1.81576886154127762E-06  1.86173483945179929E-06  1.90886442960389265E-06
  1.95718708785223705E-06  2.00673301567212721E-06  2.05753317903194920E-06
  2.10961932774332605E-06  2.16302401530090153E-06  2.21778061922423701E-06
  2.27392336191446978E-06  2.33148733203877106E-06  2.39050850645597982E-06
  2.45102377269707017E-06  2.51307095201448575E-06  2.57668882301476341E-06
  2.64191714588915833E-06  2.70879668725746303E-06  2.77736924564043315E-06
  2.84767767757679903E-06  2.91976592440114764E-06  2.99367903969936473E-06
  3.06946321745882576E-06  3.14716582093082887E-06  3.22683541222335104E-06
  3.30852178264258015E-06  3.39227598380214012E-06  3.47815035951945442E-06
  3.56619857851910708E-06  3.65647566796365921E-06  3.74903804783280753E-06
  3.84394356617234877E-06  3.94125153523497194E-06  4.04102276853536838E-06
  4.14331961884281939E-06  4.24820601713496745E-06  4.35574751253701894E-06
  4.46601131327137999E-06  4.57906632864318998E-06  4.69498321208797499E-06
  4.81383440530829432E-06  4.93569418352680430E-06  5.06063870188412111E-06
  5.18874604301026289E-06  5.32009626579942758E-06  5.45477145541852169E-06
  5.59285577458052264E-06  5.73443551611479772E-06  5.87959915686695634E-06
  6.02843741296203158E-06  6.18104329646531937E-06  6.33751217347619080E-06
  6.49794182369115841E-06  6.66243250147323900E-06  6.83108699846571922E-06
  7.00401070778931715E-06  7.18131168986270699E-06  7.36310073988748311E-06
  7.54949145703956250E-06  7.74060031541008214E-06  7.93654673674009617E-06
  8.13745316499418073E-06  8.34344514281964507E-06  8.55465138993869565E-06
  8.77120388352252847E-06  8.99323794059733157E-06  9.22089230253349726E-06
  9.45430922167057369E-06  9.69363455013208124E-06  9.93901783088508308E-06
  1.01906123911016135E-05  1.04485754378796572E-05  1.07130681563834646E-05
  1.09842558104642372E-05  1.12623078458234991E-05  1.15473979957838005E-05
  1.18397043897319263E-05  1.21394096643024929E-05  1.24467010773708981E-05
  1.27617706249262649E-05  1.30848151608974166E-05  1.34160365200058948E-05
  1.37556416437226847E-05  1.41038427094067327E-05  1.44608572627053693E-05
  1.48269083532990894E-05  1.52022246740747136E-05  1.55870407038134667E-05
  1.59815968534825393E-05  1.63861396162207370E-05  1.68009217211115465E-05
  1.72262022908386320E-05  1.76622470033219280E-05  1.81093282574342915E-05
  1.85677253429013802E-05  1.90377246144904376E-05  1.95196196705953412E-05
  2.00137115363290967E-05  2.05203088512369540E-05  2.10397280617460636E-05
  2.15722936184715666E-05  2.21183381785003608E-05  2.26782028127783636E-05
  2.32522372187293369E-05  2.38407999382365671E-05  2.44442585811225092E-05
  2.50629900542643523E-05  2.56973807964869516E-05  2.63478270193786460E-05
  2.70147349541781194E-05  2.76985211048851692E-05  2.83996125077513908E-05
  2.91184469973108745E-05  2.98554734791152133E-05  3.06111522093404707E-05
  3.13859550814390780E-05  3.21803659200127151E-05  3.29948807820876008E-05
  3.38300082659774137E-05  3.46862698279238251E-05  3.55642001067099230E-05
  3.64643472564455109E-05  3.73872732877292044E-05  3.83335544173971240E-05
  3.93037814270721581E-05  4.02985600307351712E-05  4.13185112515422064E-05
  4.23642718081200547E-05  4.34364945105764717E-05  4.45358486664671250E-05
  4.56630204969690442E-05  4.68187135635141419E-05  4.80036492051445795E-05
  4.92185669868568538E-05  5.04642251592089214E-05  5.17414011294706344E-05
  5.30508919446053687E-05  5.43935147863774517E-05  5.57701074788865590E-05
  5.71815290088391350E-05  5.86286600588729984E-05  6.01124035542594638E-05
  6.16336852233156674E-05  6.31934541718674351E-05  6.47926834721111543E-05
  6.64323707662320374E-05  6.81135388851447085E-05  6.98372364827304815E-05
  7.16045386859554217E-05  7.34165477612618890E-05  7.52743937976367908E-05
  7.71792354067677696E-05  7.91322604407104888E-05  8.11346867274984610E-05
  8.31877628251393201E-05  8.52927687944493487E-05  8.74510169911918873E-05
  8.96638528779938540E-05  9.19326558565276294E-05  9.42588401204564426E-05
  9.66438555296529833E-05  9.90891885062140828E-05  1.01596362952805581E-04
  1.04166941193884147E-04  1.06802524940358528E-04  1.09504756278259866E-04
  1.12275318682011639E-04  1.15115938052897727E-04  1.18028383783343581E-04
  1.21014469847641171E-04  1.24076055919759230E-04  1.27215048518898854E-04
  1.30433402183469040E-04  1.33733120674170745E-04  1.37116258206896680E-04
  1.40584920716166741E-04  1.44141267149839361E-04  1.47787510795853368E-04
  1.51525920641773141E-04  1.55358822767928060E-04  1.59288601774953650E-04
  1.63317702246561962E-04  1.67448630248385707E-04  1.71683954863760844E-04
  1.76026309767331250E-04  1.80478394837379726E-04  1.85042977807806357E-04
  1.89722895960700810E-04  1.94521057860472805E-04  1.99440445130528440E-04
  2.04484114273496186E-04  2.09655198536035022E-04  2.14956909819277324E-04
  2.20392540635978097E-04  2.25965466115472536E-04  2.31679146057559644E-04
  2.37537127036459517E-04  2.43543044556012779E-04  2.49700625257315593E-04
  2.56013689180010671E-04  2.62486152078475607E-04  2.69122027794181564E-04
  2.75925430685520882E-04  2.82900578116419908E-04  2.90051793005090947E-04
  2.97383506434295780E-04  3.04900260324527110E-04  3.12606710171539029E-04
  3.20507627849683958E-04  3.28607904482547690E-04  3.36912553382393324E-04
  3.45426713059965426E-04  3.54155650306221456E-04  3.63104763347594497E-04
  3.72279585076433039E-04  3.81685786358269830E-04  3.91329179417613409E-04
  4.01215721303985467E-04  4.11351517439955100E-04  4.21742825252959788E-04
  4.32396057892717948E-04  4.43317788036082662E-04  4.54514751781208729E-04
  4.65993852632936906E-04  4.77762165581324867E-04  4.89826941275286944E-04
  5.02195610293364007E-04  5.14875787513620863E-04  5.27875276584725741E-04
  5.41202074500297600E-04  5.54864376278629747E-04  5.68870579749928911E-04
  5.83229290453231883E-04  5.97949326645195989E-04  6.13039724422975610E-04
  6.28509742963426861E-04  6.44368869880886271E-04  6.60626826705874317E-04
  6.77293574486996313E-04  6.94379319518364309E-04  7.11894519194903675E-04
  7.29849887997907382E-04  7.48256403613235051E-04  7.67125313184542548E-04
  7.86468139703972260E-04  8.06296688542710010E-04  8.26623054123836235E-04
  8.47459626739890080E-04  8.68819099517682998E-04  8.90714475532729645E-04
  9.13159075075718621E-04  9.36166543073474423E-04  9.59750856666838695E-04
  9.83926332947867395E-04  1.00870763685874539E-03  1.03410978925477857E-03
  1.06014817513381166E-03  1.08683855203431552E-03  1.11419705860452286E-03
  1.14224022334490191E-03  1.17098497352598955E-03  1.20044864428378692E-03
  1.23064898789477248E-03  1.26160418323254518E-03  1.29333284540801953E-03
  1.32585403559500113E-03  1.35918727104290577E-03  1.39335253527817123E-03
  1.42837028849594153E-03  1.46426147814371571E-03  1.50104754969787439E-03
  1.53875045763432906E-03  1.57739267659425951E-03  1.61699721274577565E-03
  1.65758761534208466E-03  1.69918798847663367E-03  1.74182300303538790E-03
  1.78551790884613412E-03  1.83029854702456926E-03  1.87619136251713321E-03
  1.92322341683919809E-03  1.97142240100761559E-03  2.02081664866620055E-03
  2.07143514940240359E-03  2.12330756225294348E-03  2.17646422939589629E-03
  2.23093619002620548E-03  2.28675519441091978E-03  2.34395371812059009E-03
  2.40256497643292653E-03  2.46262293890282249E-03  2.52416234409354135E-03
  2.58721871446289690E-03  2.65182837139768274E-03  2.71802845038881863E-03
  2.78585691633902437E-03  2.85535257899396759E-03  2.92655510848647800E-03
  2.99950505098465310E-03  3.07424384443173845E-03  3.15081383436453030E-03
  3.22925828979712471E-03  3.30962141915536060E-03  3.39194838624620049E-03
  3.47628532624502358E-03  3.56267936168257107E-03  3.65117861841146281E-03
  3.74183224153118443E-03  3.83469041125158051E-03  3.92980435866812326E-03
  4.02722638142371560E-03  4.12700985922980022E-03  4.22920926921752007E-03
  4.33388020108773590E-03  4.44107937202666437E-03  4.55086464135166617E-03
  4.66329502484804422E-03  4.77843070876089650E-03  4.89633306339816183E-03
  5.01706465629818237E-03  5.14068926491513881E-03  5.26727188877191936E-03
  5.39687876102703037E-03  5.52957735939895063E-03  5.66543641638807011E-03
  5.80452592873117144E-03  5.94691716602376453E-03  6.09268267844358634E-03
  6.24189630349456046E-03  6.39463317169459457E-03  6.55096971112477909E-03
  6.71098365075265685E-03  6.87475402243776373E-03  7.04236116152263687E-03
  7.21388670590587203E-03  7.38941359348908432E-03  7.56902605789580227E-03
  7.75280962233360245E-03  7.94085109147673815E-03  8.13323854123991496E-03
  8.33006130630631857E-03  8.53140996526635838E-03  8.73737632321663904E-03
  8.94805339166009246E-03  9.16353536553742715E-03  9.38391759723414265E-03
  9.60929656736969270E-03  9.83976985217804336E-03  1.00754360872846501E-02
  1.03163949276729051E-02  1.05627470036243169E-02  1.08145938724070242E-02
  1.10720379654763498E-02  1.13351825309343148E-02  1.16041315710155597E-02
  1.18789897743218093E-02  1.21598624425206785E-02  1.24468554112261692E-02
  1.27400749647613443E-02  1.30396277444920008E-02  1.33456206504083911E-02
  1.36581607356184749E-02  1.39773550933935641E-02  1.43033107364362345E-02
  1.46361344679860946E-02  1.49759327443639116E-02  1.53228115285636759E-02
  1.56768761344813733E-02  1.60382310613555665E-02  1.64069798179822084E-02
  1.67832247362512607E-02  1.71670667735263349E-02  1.75586053034294393E-02
  1.79579378945288817E-02  1.83651600764083052E-02  1.87803650926157660E-02
  1.92036436399687475E-02  1.96350835936798494E-02  2.00747697177577830E-02
  2.05227833601271878E-02  2.09792021318855812E-02  2.14440995701766328E-02
  2.19175447840823205E-02  2.23996020829293763E-02  2.28903305864391372E-02
  2.33897838161346155E-02  2.38980092674184429E-02  2.44150479617374246E-02
  2.49409339782522936E-02  2.54756939644229762E-02  2.60193466250040716E-02
  2.65719021888700772E-02  2.71333618531209679E-02  2.77037172039725846E-02
  2.82829496139461768E-02  2.88710296149009421E-02  2.94679162464883578E-02
  3.00735563796439426E-02  3.06878840147743540E-02  3.13108195543949433E-02
  3.19422690499557779E-02  3.25821234226951403E-02  3.32302576584444509E-02
  3.38865299763828134E-02  3.45507809718311534E-02  3.52228327332778923E-02
  3.59024879339444117E-02  3.65895288983407382E-02  3.72837166443305695E-02
  3.79847899014287976E-02  3.86924641062165939E-02  3.94064303759213072E-02
  4.01263544614038278E-02  4.08518756810044362E-02  4.15826058369229007E-02
  4.23181281160906822E-02  4.30579959777638438E-02  4.38017320300602489E-02
  4.45488268984015404E-02  4.52987380889391250E-02  4.60508888503864885E-02
  4.68046670380710753E-02  4.75594239844165448E-02  4.83144733804879781E-02
  4.90690901738365520E-02  4.98225094881405706E-02  5.05739255701923435E-02
  5.13224907714021142E-02  5.20673145708396845E-02  5.28074626475229514E-02
  5.35419560103118711E-02  5.42697701944143476E-02  5.49898345341991654E-02
  5.57010315231633510E-02  5.64021962715295921E-02  5.70921160728158558E-02
  5.77695300931420908E-02  5.84331291963623642E-02  5.90815559192757675E-02
  5.97134046120417691E-02  6.03272217597817517E-02  6.09215065023003474E-02
  6.14947113706700160E-02  6.20452432569830181E-02  6.25714646371828553E-02
  6.30716950686454197E-02  6.35442129829316138E-02  6.39872577955854782E-02
  6.43990323556098282E-02  6.47777057579393134E-02  6.51214165432509179E-02
  6.54282763111345145E-02  6.56963737662702579E-02  6.59237792263126926E-02
  6.61085496175562032E-02  6.62487339829431338E-02  6.63423795276640305E-02
  6.63875382272316183E-02  6.63822740223063978E-02  6.63246706250526091E-02
  6.62128399597977646E-02  6.60449312508766678E-02  6.58191407845617332E-02
  6.55337223604200575E-02  6.51869984453368051E-02  6.47773720409982184E-02
  6.43033392719396246E-02  6.37635026970696656E-02  6.31565853458973120E-02
  6.24814454675648931E-02  6.17370919733583462E-02  6.09227005624203982E-02
  6.00376304987907047E-02  5.90814420023344500E-02  5.80539142070788383E-02
  5.69550636301231622E-02  5.57851630833709478E-02  5.45447609520793089E-02
  5.32347007351113080E-02  5.18561407426518239E-02  5.04105738352732952E-02
  4.88998470611903269E-02  4.73261810351603071E-02  4.56921888845440438E-02
  4.40008945691455905E-02  4.22557503625449055E-02  4.04606532626374804E-02
  3.86199600675188534E-02  3.67385008517519818E-02  3.48215905461119468E-02
  3.28750383014371622E-02  3.09051542984075528E-02  2.89187536451464867E-02
  2.69231569857320031E-02  2.49261874231283993E-02  2.29361633438813009E-02
  2.09618867343057021E-02  1.90126265507035742E-02  1.70980967060957098E-02
  1.52284282359680459E-02  1.34141352094493699E-02  1.16660739628770098E-02
  9.99539524974623651E-03  8.41348890938365540E-03  6.93192073299822315E-03
  5.56236124719955947E-03  4.31650613160322345E-03  3.20598810580855886E-03
  2.24228019161228954E-03  1.43659035729239572E-03  7.99747623596643248E-04
  3.42076543811989440E-04  7.31674388930589261E-05 -1.10078593244915014E-06
 -8.13833555912355077E-08 -5.27894996851167204E-09 -3.00215858017612173E-10
 -1.42627625179245688E-11 -4.69709191848057583E-13  1.57888813667035069E-15
  1.92869833471188538E-15  2.17203816132165739E-16  1.80335261006594234E-17
  1.27771917601612128E-18  7.97357675682153733E-20  0.00000000000000000E+00
  0.00000000000000000E+00  0.00000000000000000E+00  0.00000000000000000E+00
  0.00000000000000000E+00  0.00000000000000000E+00  0.00000000000000000E+00
  0.00000000000000000E+00  0.00000000000000000E+00  0.00000000000000000E+00
  0.00000000000000000E+00  0.00000000000000000E+00  0.00000000000000000E+00
  0.00000000000000000E+00  0.00000000000000000E+00  0.00000000000000000E+00
  0.00000000000000000E+00  0.00000000000000000E+00  0.00000000000000000E+00
  0.00000000000000000E+00  0.00000000000000000E+00  0.00000000000000000E+00
  0.00000000000000000E+00  0.00000000000000000E+00  0.00000000000000000E+00
  0.00000000000000000E+00  0.00000000000000000E+00  0.00000000000000000E+00
  0.00000000000000000E+00  0.00000000000000000E+00  0.00000000000000000E+00
  0.00000000000000000E+00  0.00000000000000000E+00  0.00000000000000000E+00
  0.00000000000000000E+00  0.00000000000000000E+00  0.00000000000000000E+00
  0.00000000000000000E+00  0.00000000000000000E+00  0.00000000000000000E+00
  0.00000000000000000E+00  0.00000000000000000E+00  0.00000000000000000E+00
  0.00000000000000000E+00  0.00000000000000000E+00  0.00000000000000000E+00
  0.00000000000000000E+00  0.00000000000000000E+00  0.00000000000000000E+00
  0.00000000000000000E+00  0.00000000000000000E+00  0.00000000000000000E+00
  0.00000000000000000E+00  0.00000000000000000E+00  0.00000000000000000E+00
  0.00000000000000000E+00  0.00000000000000000E+00  0.00000000000000000E+00
  0.00000000000000000E+00  0.00000000000000000E+00  0.00000000000000000E+00
  0.00000000000000000E+00  0.00000000000000000E+00  0.00000000000000000E+00
  0.00000000000000000E+00  0.00000000000000000E+00  0.00000000000000000E+00
  0.00000000000000000E+00  0.00000000000000000E+00  0.00000000000000000E+00
  0.00000000000000000E+00  0.00000000000000000E+00  0.00000000000000000E+00
  0.00000000000000000E+00  0.00000000000000000E+00  0.00000000000000000E+00
  0.00000000000000000E+00  0.00000000000000000E+00  0.00000000000000000E+00
  0.00000000000000000E+00  0.00000000000000000E+00  0.00000000000000000E+00
  0.00000000000000000E+00  0.00000000000000000E+00  0.00000000000000000E+00
  0.00000000000000000E+00  0.00000000000000000E+00  0.00000000000000000E+00
  0.00000000000000000E+00  0.00000000000000000E+00  0.00000000000000000E+00
  0.00000000000000000E+00  0.00000000000000000E+00  0.00000000000000000E+00
  0.00000000000000000E+00  0.00000000000000000E+00  0.00000000000000000E+00
  0.00000000000000000E+00  0.00000000000000000E+00  0.00000000000000000E+00
  0.00000000000000000E+00  0.00000000000000000E+00  0.00000000000000000E+00
  0.00000000000000000E+00  0.00000000000000000E+00  0.00000000000000000E+00
  0.00000000000000000E+00  0.00000000000000000E+00  0.00000000000000000E+00
  0.00000000000000000E+00  0.00000000000000000E+00  0.00000000000000000E+00
  0.00000000000000000E+00  0.00000000000000000E+00  0.00000000000000000E+00
  0.00000000000000000E+00  0.00000000000000000E+00  0.00000000000000000E+00
  0.00000000000000000E+00  0.00000000000000000E+00  0.00000000000000000E+00
  0.00000000000000000E+00  0.00000000000000000E+00  0.00000000000000000E+00
  0.00000000000000000E+00  0.00000000000000000E+00  0.00000000000000000E+00
  0.00000000000000000E+00  0.00000000000000000E+00  0.00000000000000000E+00
  0.00000000000000000E+00  0.00000000000000000E+00  0.00000000000000000E+00
  0.00000000000000000E+00  0.00000000000000000E+00  0.00000000000000000E+00
  0.00000000000000000E+00  0.00000000000000000E+00  0.00000000000000000E+00
  0.00000000000000000E+00  0.00000000000000000E+00  0.00000000000000000E+00
  0.00000000000000000E+00  0.00000000000000000E+00  0.00000000000000000E+00
  0.00000000000000000E+00  0.00000000000000000E+00  0.00000000000000000E+00
  0.00000000000000000E+00  0.00000000000000000E+00  0.00000000000000000E+00
  0.00000000000000000E+00  0.00000000000000000E+00  0.00000000000000000E+00
  0.00000000000000000E+00  0.00000000000000000E+00  0.00000000000000000E+00
  0.00000000000000000E+00  0.00000000000000000E+00  0.00000000000000000E+00
  0.00000000000000000E+00  0.00000000000000000E+00  0.00000000000000000E+00
  0.00000000000000000E+00  0.00000000000000000E+00  0.00000000000000000E+00
  0.00000000000000000E+00
                       </PP_QIJL.2.2.0>
 <PP_QIJL.2.3.1 type="real" size="   961" columns="3" first_index=" 2" second_index=" 3" composite_index=" 5" angular_momentum="1">
 -5.68714324846100866E-13 -5.90446034807961707E-13 -6.13008156797171166E-13
 -6.36432422515042641E-13 -6.60751776194515247E-13 -6.86000420933398707E-13
 -7.12213866798150682E-13 -7.39428980765737277E-13 -7.67684038573852823E-13
 -7.97018778552536733E-13 -8.27474457512729833E-13 -8.59093908770410906E-13
 -8.91921602388045200E-13 -9.26003707717943888E-13 -9.61388158335469496E-13
 -9.98124719453532348E-13 -1.03626505791316189E-12 -1.07586281484843425E-12
 -1.11697368112817558E-12 -1.15965547568047131E-12 -1.20396822680994888E-12
 -1.24997425662251987E-12 -1.29773826867613605E-12 -1.34732743898071793E-12
 -1.39881151047556475E-12 -1.45226289111682801E-12 -1.50775675571304121E-12
 -1.56537115165217623E-12 -1.62518710866855798E-12 -1.68728875280425018E-12
 -1.75176342472523544E-12 -1.81870180255847523E-12 -1.88819802942302969E-12
 -1.96034984583431938E-12 -2.03525872716771083E-12 -2.11303002637509644E-12
 -2.19377312215467887E-12 -2.27760157278284416E-12 -2.36463327582417084E-12
 -2.45499063394418944E-12 -2.54880072705841090E-12 -2.64619549105917036E-12
 -2.74731190337236186E-12 -2.85229217560433642E-12 -2.96128395355043240E-12
 -3.07444052484615761E-12 -3.19192103455302426E-12 -3.31389070898267308E-12
 -3.44052108807325211E-12 -3.57199026664599499E-12 -3.70848314487998886E-12
 -3.85019168835876730E-12 -3.99731519805319350E-12 -4.15006059062143523E-12
 -4.30864268941935916E-12 -4.47328452663129335E-12 -4.64421765694557028E-12
 -4.82168248321650652E-12 -5.00592859457023485E-12 -5.19721511743064506E-12
 -5.39581107995822078E-12 -5.60199579041535460E-12 -5.81605922998920178E-12
 -6.03830246062563018E-12 -6.26903804844674323E-12 -6.50859050334862031E-12
 -6.75729673539626728E-12 -7.01550652865914519E-12 -7.28358303315198538E-12
 -7.56190327557455952E-12 -7.85085868956700074E-12 -8.15085566622773930E-12
 -8.46231612566780054E-12 -8.78567811040481805E-12 -9.12139640143277682E-12
 -9.46994315783172841E-12 -9.83180858081944287E-12 -1.02075016031770909E-11
 -1.05975506050192517E-11 -1.10025041569155744E-11 -1.14229317914074371E-11
 -1.18594248040069202E-11 -1.23125970848029689E-11 -1.27830859818445499E-11
 -1.32715531975164207E-11 -1.37786857191659950E-11 -1.43051967852918933E-11
 -1.48518268886527400E-11 -1.54193448177059851E-11 -1.60085487378426541E-11
 -1.66202673139383123E-11 -1.72553608757983377E-11 -1.79147226281375778E-11
 -1.85992799067958286E-11 -1.93099954829555329E-11 -2.00478689171957945E-11
 -2.08139379652883823E-11 -2.16092800377113949E-11 -2.24350137149334432E-11
 -2.32923003206007435E-11 -2.41823455548379719E-11 -2.51064011899611564E-11
 -2.60657668309865922E-11 -2.70617917434129057E-11 -2.80958767508461490E-11
 -2.91694762051361091E-11 -3.02841000317959755E-11 -3.14413158535815163E-11
 -3.26427511952162739E-11 -3.38900957723637624E-11 -3.51851038680648291E-11
 -3.65295967999844600E-11 -3.79254654819364448E-11 -3.93746730832887690E-11
 -4.08792577899904586E-11 -4.24413356711017051E-11 -4.40631036548603913E-11
 -4.57468426184699641E-11 -4.74949205959536773E-11 -4.93097961085876574E-11
 -5.11940216225953316E-11 -5.31502471389679253E-11 -5.51812239204583633E-11
 -5.72898083609911019E-11 -5.94789660029299855E-11 -6.17517757078521485E-11
 -6.41114339866968285E-11 -6.65612594953765071E-11 -6.91046977021743542E-11
 -7.17453257334921011E-11 -7.44868574047620348E-11 -7.73331484436012727E-11
 -8.02882019125516005E-11 -8.33561738390332879E-11 -8.65413790604294409E-11
 -8.98482972925234905E-11 -9.32815794298206500E-11 -9.68460540866193330E-11
 -1.00546734388027808E-10 -1.04388825020478344E-10 -1.08377729551656463E-10
 -1.12519058030135665E-10 -1.16818634875410997E-10 -1.21282507069424545E-10
 -1.25916952661104163E-10 -1.30728489595878603E-10 -1.35723884882581206E-10
 -1.40910164110641610E-10 -1.46294621330945236E-10 -1.51884829314259420E-10
 -1.57688650201653847E-10 -1.63714246561890508E-10 -1.69970092871339789E-10
 -1.76464987432564945E-10 -1.83208064748335204E-10 -1.90208808368477858E-10
 -1.97477064227624967E-10 -2.05023054492625629E-10 -2.12857391939091146E-10
 -2.20991094877292793E-10 -2.29435602648409556E-10 -2.38202791712908950E-10
 -2.47304992353699950E-10 -2.56755006017539977E-10 -2.66566123319088651E-10
 -2.76752142732933472E-10 -2.87327389999861431E-10 -2.98306738274689045E-10
 -3.09705629043970737E-10 -3.21540093843010346E-10 -3.33826776802722199E-10
 -3.46582958058039614E-10 -3.59826578050808602E-10 -3.73576262761332736E-10
 -3.87851349904057984E-10 -4.02671916124244814E-10 -4.18058805233865521E-10
 -4.34033657526451486E-10 -4.50618940212107487E-10 -4.67837979015494191E-10
 -4.85714990981234801E-10 -5.04275118532860783E-10 -5.23544464833218024E-10
 -5.43550130496041095E-10 -5.64320251700341971E-10 -5.85884039761229718E-10
 -6.08271822212769299E-10 -6.31515085460693519E-10 -6.55646519064958150E-10
 -6.80700061714393129E-10 -7.06710948958118586E-10 -7.33715762760851219E-10
 -7.61752482951821277E-10 -7.90860540639601820E-10 -8.21080873668018451E-10
 -8.52455984191137274E-10 -8.85029998448232842E-10 -9.18848728822887986E-10
 -9.53959738273472604E-10 -9.90412407225563721E-10 -1.02825800302048548E-09
 -1.06754975201753572E-09 -1.10834291445134845E-09 -1.15069486214971153E-09
 -1.19466515922102904E-09 -1.24031564582502152E-09 -1.28771052514440656E-09
 -1.33691645367985283E-09 -1.38800263499532004E-09 -1.44104091704542726E-09
 -1.49610589322193632E-09 -1.55327500726127834E-09 -1.61262866216076892E-09
 -1.67425033325669393E-09 -1.73822668562313865E-09 -1.80464769595697098E-09
 -1.87360677911995741E-09 -1.94520091951645816E-09 -2.01953080749101525E-09
 -2.09670098093802512E-09 -2.17681997232235962E-09 -2.26000046131791258E-09
 -2.34635943327852860E-09 -2.43601834376443949E-09 -2.52910328935524689E-09
 -2.62574518499008615E-09 -2.72607994808385446E-09 -2.83024868967903818E-09
 -2.93839791290130095E-09 -3.05067971899861768E-09 -3.16725202125299799E-09
 -3.28827876706631281E-09 -3.41393016853189312E-09 -3.54438294181679673E-09
 -3.67982055569080863E-09 -3.82043348955209560E-09 -3.96641950131220157E-09
 -4.11798390551697031E-09 -4.27533986209504339E-09 -4.43870867613911896E-09
 -4.60832010914259828E-09 -4.78441270212836803E-09 -4.96723411112463138E-09
 -5.15704145545970829E-09 -5.35410167936489402E-09 -5.55869192739478316E-09
 -5.77109993419239366E-09 -5.99162442914714010E-09 -6.22057555651550261E-09
 -6.45827531159406860E-09 -6.70505799355908515E-09 -6.96127067560945024E-09
 -7.22727369307322465E-09 -7.50344115016544465E-09 -7.79016144610908463E-09
 -8.08783782135858984E-09 -8.39688892469536966E-09 -8.71774940199164104E-09
 -9.05087050747056047E-09 -9.39672073832311732E-09 -9.75578649357341172E-09
 -1.01285727581185738E-08 -1.05156038129061194E-08 -1.09174239722470422E-08
 -1.13345983493007532E-08 -1.17677136508089665E-08 -1.22173790021966025E-08
 -1.26842268041984486E-08 -1.31689136222169869E-08 -1.36721211096625570E-08
 -1.41945569665731915E-08 -1.47369559348622655E-08 -1.53000808315935619E-08
 -1.58847236217373412E-08 -1.64917065319148916E-08 -1.71218832066971175E-08
 -1.77761399090849674E-08 -1.84553967668580951E-08 -1.91606090665448635E-08
 -1.98927685968324514E-08 -2.06529050433066464E-08 -2.14420874364829721E-08
 -2.22614256551638015E-08 -2.31120719872356521E-08 -2.39952227501016289E-08
 -2.49121199730274172E-08 -2.58640531437662366E-08 -2.68523610219175173E-08
 -2.78784335215696054E-08 -2.89437136658740425E-08 -3.00496996162986853E-08
 -3.11979467794133825E-08 -3.23900699941689425E-08 -3.36277458027456078E-08
 -3.49127148081638406E-08 -3.62467841219718685E-08 -3.76318299054508550E-08
 -3.90698000079101901E-08 -4.05627167057824074E-08 -4.21126795463681486E-08
 -4.37218683002298391E-08 -4.53925460263843574E-08 -4.71270622546028861E-08
 -4.89278562892925427E-08 -5.07974606396040704E-08 -5.27385045805867700E-08
 -5.47537178503990902E-08 -5.68459344887697052E-08 -5.90180968221061013E-08
 -6.12732596008525441E-08 -6.36145942949118455E-08 -6.60453935531711084E-08
 -6.85690758333978518E-08 -7.11891902090162629E-08 -7.39094213595195168E-08
 -7.67335947515309622E-08 -7.96656820177993829E-08 -8.27098065416853272E-08
 -8.58702492549907891E-08 -8.91514546572796019E-08 -9.25580370651473977E-08
 -9.60947871002276049E-08 -9.97666784250484974E-08 -1.03578874736209761E-07
 -1.07536737024705983E-07 -1.11645831113599812E-07 -1.15911935483639046E-07
 -1.20341049397814527E-07 -1.24939401336274201E-07 -1.29713457753449897E-07
 -1.34669932169697829E-07 -1.39815794610234411E-07 -1.45158281404624564E-07
 -1.50704905360594417E-07 -1.56463466326464536E-07 -1.62442062157042112E-07
 -1.68649100098379736E-07 -1.75093308607400415E-07 -1.81783749622985478E-07
 -1.88729831305776689E-07 -1.95941321264579735E-07 -2.03428360287956337E-07
 -2.11201476600295260E-07 -2.19271600662380332E-07 -2.27650080537260401E-07
 -2.36348697842988345E-07 -2.45379684314649668E-07 -2.54755738998938603E-07
 -2.64490046105427242E-07 -2.74596293539610052E-07 -2.85088692143739837E-07
 -2.95981995672486845E-07 -3.07291521531468446E-07 -3.19033172307769723E-07
 -3.31223458122695761E-07 -3.43879519838134372E-07 -3.57019153149119146E-07
 -3.70660833596418890E-07 -3.84823742534266821E-07 -3.99527794089694565E-07
 -4.14793663151305413E-07 -4.30642814426793578E-07 -4.47097532609985345E-07
 -4.64180953699747981E-07 -4.81917097514739031E-07 -5.00330901449606008E-07
 -5.19448255520039033E-07 -5.39296038745841725E-07 -5.59902156923071535E-07
 -5.81295581838275164E-07 -6.03506391979814064E-07 -6.26565814803419473E-07
 -6.50506270611272062E-07 -6.75361418106150211E-07 -7.01166201684567324E-07
 -7.27956900535225501E-07 -7.55771179611650842E-07 -7.84648142550513511E-07
 -8.14628386609822592E-07 -8.45754059704059629E-07 -8.78068919616208869E-07
 -9.11618395469714823E-07 -9.46449651546553369E-07 -9.82611653540858009E-07
 -1.02015523734101370E-06 -1.05913318043658135E-06 -1.09960027605016931E-06
 -1.14161341009812045E-06 -1.18523164108785193E-06 -1.23051628306382309E-06
 -1.27753099171830355E-06 -1.32634185378759559E-06 -1.37701747985893915E-06
 -1.42962910071803866E-06 -1.48425066737220873E-06 -1.54095895488912447E-06
 -1.59983367019662904E-06 -1.66095756399449055E-06 -1.72441654693473161E-06
 -1.79029981023321145E-06 -1.85869995088118375E-06 -1.92971310163208596E-06
 -2.00343906594540385E-06 -2.07998145807639037E-06 -2.15944784850759885E-06
 -2.24194991492560000E-06 -2.32760359895404506E-06 -2.41652926886213887E-06
 -2.50885188847605178E-06 -2.60470119252932604E-06 -2.70421186869731198E-06
 -2.80752374657001269E-06 -2.91478199382734349E-06 -3.02613731989077932E-06
 -3.14174618733586325E-06 -3.26177103136071861E-06 -3.38638048761698763E-06
 -3.51574962872117539E-06 -3.65006020977646788E-06 -3.78950092324760124E-06
 -3.93426766354427614E-06 -4.08456380168216064E-06 -4.24060047040442849E-06
 -4.40259686016137083E-06 -4.57078052636052370E-06 -4.74538770831550220E-06
 -4.92666366033782181E-06 -5.11486299543285465E-06 -5.31025004207851788E-06
 -5.51309921458328521E-06 -5.72369539753899594E-06 -5.94233434490334699E-06
 -6.16932309426709286E-06 -6.40498039688221882E-06 -6.64963716404854469E-06
 -6.90363693047945642E-06 -7.16733633529029445E-06 -7.44110562127747757E-06
 -7.72532915318166289E-06 -8.02040595565412544E-06 -8.32675027167275779E-06
 -8.64479214218240546E-06 -8.97497800776311061E-06 -9.31777133316028918E-06
 -9.67365325554179506E-06 -1.00431232573801141E-05 -1.04266998648908483E-05
 -1.08249213729942358E-05 -1.12383465978025756E-05 -1.16675556576737633E-05
 -1.21131507839106911E-05 -1.25757571622262842E-05 -1.30560238061361514E-05
 -1.35546244634842904E-05 -1.40722585573524354E-05 -1.46096521626501215E-05
 -1.51675590197313765E-05 -1.57467615864348785E-05 -1.63480721299954207E-05
 -1.69723338603286578E-05 -1.76204221062479624E-05 -1.82932455362298564E-05
 -1.89917474254044915E-05 -1.97169069705107343E-05 -2.04697406546193447E-05
 -2.12513036634953707E-05 -2.20626913555401620E-05 -2.29050407873253758E-05
 -2.37795322968062731E-05 -2.46873911463776564E-05 -2.56298892280186300E-05
 -2.66083468328546828E-05 -2.76241344875489271E-05 -2.86786748600261202E-05
 -2.97734447371245937E-05 -3.09099770768677090E-05 -3.20898631381445664E-05
 -3.33147546906927447E-05 -3.45863663083831053E-05 -3.59064777489148627E-05
 -3.72769364231454806E-05 -3.86996599573955866E-05 -4.01766388521908576E-05
 -4.17099392410394325E-05 -4.33017057529610204E-05 -4.49541644826245389E-05
 -4.66696260720933956E-05 -4.84504889083214123E-05 -5.02992424406945010E-05
 -5.22184706230665799E-05 -5.42108554849016051E-05 -5.62791808362992849E-05
 -5.84263361118548259E-05 -6.06553203584787461E-05 -6.29692463724881385E-05
 -6.53713449914927383E-05 -6.78649695467605163E-05 -7.04536004819714633E-05
 -7.31408501444792767E-05 -7.59304677554168783E-05 -7.88263445652076722E-05
 -8.18325192012774017E-05 -8.49531832150035099E-05 -8.81926868351867054E-05
 -9.15555449355847072E-05 -9.50464432243031771E-05 -9.86702446631689722E-05
 -1.02431996125428842E-04 -1.06336935300423298E-04 -1.10390497854206881E-04
 -1.14598324855386748E-04 -1.18966270475778614E-04 -1.23500409975805007E-04
 -1.28207047984910642E-04 -1.33092727087615856E-04 -1.38164236726188674E-04
 -1.43428622431279799E-04 -1.48893195392366850E-04 -1.54565542380085162E-04
 -1.60453536033007169E-04 -1.66565345521868090E-04 -1.72909447604664089E-04
 -1.79494638086491237E-04 -1.86330043698462397E-04 -1.93425134410510525E-04
 -2.00789736193376028E-04 -2.08434044245517586E-04 -2.16368636701365634E-04
 -2.24604488837822509E-04 -2.33152987796258722E-04 -2.42025947838019864E-04
 -2.51235626151976883E-04 -2.60794739233244019E-04 -2.70716479852793840E-04
 -2.81014534638315448E-04 -2.91703102287305181E-04 -3.02796912433932642E-04
 -3.14311245192029122E-04 -3.26261951397490574E-04 -3.38665473573404705E-04
 -3.51538867642393351E-04 -3.64899825411307951E-04 -3.78766697854153477E-04
 -3.93158519219855322E-04 -4.08095031992278647E-04 -4.23596712730670260E-04
 -4.39684798819352436E-04 -4.56381316156510700E-04 -4.73709107813330530E-04
 -4.91691863694217754E-04 -5.10354151230577838E-04 -5.29721447141361947E-04
 -5.49820170294441544E-04 -5.70677715703704755E-04 -5.92322489697700628E-04
 -6.14783946296504086E-04 -6.38092624833972149E-04 -6.62280188864388438E-04
 -6.87379466393629669E-04 -7.13424491473865340E-04 -7.40450547203389399E-04
 -7.68494210173684437E-04 -7.97593396406689678E-04 -8.27787408826085582E-04
 -8.59116986307283830E-04 -8.91624354351540447E-04 -9.25353277429521374E-04
 -9.60349113043861263E-04 -9.96658867557834475E-04 -1.03433125383757259E-03
 -1.07341675075779599E-03 -1.11396766462102965E-03 -1.15603819254087134E-03
 -1.19968448784039689E-03 -1.24496472751726615E-03 -1.29193918182658957E-03
 -1.34067028603357158E-03 -1.39122271439332565E-03 -1.44366345640558236E-03
 -1.49806189539783787E-03 -1.55448988948997846E-03 -1.61302185499279495E-03
 -1.67373485229243570E-03 -1.73670867427233025E-03 -1.80202593732310809E-03
 -1.86977217498708560E-03 -1.94003593429454158E-03 -2.01290887483672031E-03
 -2.08848587061772912E-03 -2.16686511473199173E-03 -2.24814822690968738E-03
 -2.33244036397029083E-03 -2.41985033322163505E-03 -2.51049070883888189E-03
 -2.60447795124981547E-03 -2.70193252955886268E-03 -2.80297904704283115E-03
 -2.90774636972168134E-03 -3.01636775802236823E-03 -3.12898100154425070E-03
 -3.24572855692767089E-03 -3.36675768882056326E-03 -3.49222061393046970E-03
 -3.62227464813648847E-03 -3.75708235662782246E-03 -3.89681170706028925E-03
 -4.04163622565215444E-03 -4.19173515616197076E-03 -4.34729362167800282E-03
 -4.50850278913250170E-03 -4.67556003643975534E-03 -4.84866912214130738E-03
 -5.02804035742045706E-03 -5.21389078031844234E-03 -5.40644433203826043E-03
 -5.60593203510558608E-03 -5.81259217316704851E-03 -6.02667047219702760E-03
 -6.24842028284944024E-03 -6.47810276366374109E-03 -6.71598706480491282E-03
 -6.96235051198107382E-03 -7.21747879012085269E-03 -7.48166612647938999E-03
 -7.75521547267115415E-03 -8.03843868510104899E-03 -8.33165670327177914E-03
 -8.63519972537942632E-03 -8.94940738056056867E-03 -9.27462889710264395E-03
 -9.61122326586837106E-03 -9.95955939807538319E-03 -1.03200162767084890E-02
 -1.06929831005900637E-02 -1.10788594200435138E-02 -1.14780552631191142E-02
 -1.18909912512376367E-02 -1.23180987030252036E-02 -1.27598197250282028E-02
 -1.32166072878980752E-02 -1.36889252864542347E-02 -1.41772485822574609E-02
 -1.46820630269327325E-02 -1.52038654643080230E-02 -1.57431637095147951E-02
 -1.63004765030113630E-02 -1.68763334373639821E-02 -1.74712748544900813E-02
 -1.80858517109166693E-02 -1.87206254083226303E-02 -1.93761675870305142E-02
 -2.00530598794492962E-02 -2.07518936202432808E-02 -2.14732695101406482E-02
 -2.22177972300204168E-02 -2.29860950017398945E-02 -2.37787890919845674E-02
 -2.45965132552054440E-02 -2.54399081113034706E-02 -2.63096204544432492E-02
 -2.72063024882117852E-02 -2.81306109821934450E-02 -2.90832063452369123E-02
 -3.00647516103254471E-02 -3.10759113257537758E-02 -3.21173503471095939E-02
 -3.31897325242778429E-02 -3.42937192772044888E-02 -3.54299680554328450E-02
 -3.65991306744128803E-02 -3.78018515218730006E-02 -3.90387656277951592E-02
 -4.03104965911547167E-02 -4.16176543564301463E-02 -4.29608328327488811E-02
 -4.43406073482517510E-02 -4.57575319319309601E-02 -4.72121364172415417E-02
 -4.87049233586383593E-02 -5.02363647535365443E-02 -5.18068985624869707E-02
 -5.34169250201915885E-02 -5.50668027301029067E-02 -5.67568445355260687E-02
 -5.84873131600330623E-02 -6.02584166104812857E-02 -6.20703033386467914E-02
 -6.39230571535442660E-02 -6.58166918796392747E-02 -6.77511457566779829E-02
 -6.97262755774034071E-02 -7.17418505603125561E-02 -7.37975459556184238E-02
 -7.58929363831331444E-02 -7.80274889032857438E-02 -8.02005558252353867E-02
 -8.24113672531791575E-02 -8.46590233772660794E-02 -8.69424865169840105E-02
 -8.92605729270337378E-02 -9.16119443782390380E-02 -9.39950995288127977E-02
 -9.64083651037070805E-02 -9.88498869053153206E-02 -1.01317620681279030E-01
 -1.03809322876837737E-01 -1.06322541306343388E-01 -1.08854605782455149E-01
 -1.11402618746531623E-01 -1.13963445949192138E-01 -1.16533707235865050E-01
 -1.19109767498603872E-01 -1.21687727862569872E-01 -1.24263417181034619E-01
 -1.26832383921438252E-01 -1.29389888533266273E-01 -1.31930896396685093E-01
 -1.34450071459744275E-01 -1.36941770681252545E-01 -1.39400039406646969E-01
 -1.41818607816306758E-01 -1.44190888587282962E-01 -1.46509975929212888E-01
 -1.48768646164808643E-01 -1.50959360034178147E-01 -1.53074266914349638E-01
 -1.55105211156639611E-01 -1.57043740755680561E-01 -1.58881118578409891E-01
 -1.60608336391189377E-01 -1.62216131909932920E-01 -1.63695009146139769E-01
 -1.65035262309934067E-01 -1.66227003538963164E-01 -1.67260194729520750E-01
 -1.68124683750406567E-01 -1.68810245322360442E-01 -1.69306626858699794E-01
 -1.69603599532075378E-01 -1.69691014814365410E-01 -1.69558866792428514E-01
 -1.69197360496720267E-01 -1.68596986471108157E-01 -1.67748601789585033E-01
 -1.66643517695545085E-01 -1.65273594005064001E-01 -1.63631340399081920E-01
 -1.61710024582311651E-01 -1.59503787303832967E-01 -1.57007764197832606E-01
 -1.54218214257905994E-01 -1.51132654688911683E-01 -1.47750001779509338E-01
 -1.44070717325003705E-01 -1.40096960014061606E-01 -1.35832741073421109E-01
 -1.31284083156657183E-01 -1.26459181517829061E-01 -1.21368566242805787E-01
 -1.16025264088388813E-01 -1.10444958291470302E-01 -1.04646144489755108E-01
 -9.86502806628399426E-02 -9.24819287776229154E-02 -8.61688855299969081E-02
 -7.97422992583639717E-02 -7.32367700364665725E-02 -6.66904295384858764E-02
 -6.01449970324273026E-02 -5.36458076131717809E-02 -4.72418085471426955E-02
 -4.09855193804740947E-02 -3.49329512432257211E-02 -2.91434806474846209E-02
 -2.36796730413205113E-02 -1.86070512189596658E-02 -1.39938037294686877E-02
 -9.91042852280357191E-03 -6.42930728508194979E-03 -3.62420602755785404E-03
 -1.56968244113527651E-03 -3.39959954461144535E-04  5.16937402250848743E-06
  3.82182395192752463E-07  2.47903484491584612E-08  1.40983638310896657E-09
  6.69790118822878522E-11  2.20578990237499102E-12 -7.41457814598986603E-15
 -9.05731330208070963E-15 -1.02000555385476368E-15 -8.46868029568355358E-17
 -6.00026592078909985E-18 -3.74445197182739376E-19  0.00000000000000000E+00
  0.00000000000000000E+00  0.00000000000000000E+00  0.00000000000000000E+00
  0.00000000000000000E+00  0.00000000000000000E+00  0.00000000000000000E+00
  0.00000000000000000E+00  0.00000000000000000E+00  0.00000000000000000E+00
  0.00000000000000000E+00  0.00000000000000000E+00  0.00000000000000000E+00
  0.00000000000000000E+00  0.00000000000000000E+00  0.00000000000000000E+00
  0.00000000000000000E+00  0.00000000000000000E+00  0.00000000000000000E+00
  0.00000000000000000E+00  0.00000000000000000E+00  0.00000000000000000E+00
  0.00000000000000000E+00  0.00000000000000000E+00  0.00000000000000000E+00
  0.00000000000000000E+00  0.00000000000000000E+00  0.00000000000000000E+00
  0.00000000000000000E+00  0.00000000000000000E+00  0.00000000000000000E+00
  0.00000000000000000E+00  0.00000000000000000E+00  0.00000000000000000E+00
  0.00000000000000000E+00  0.00000000000000000E+00  0.00000000000000000E+00
  0.00000000000000000E+00  0.00000000000000000E+00  0.00000000000000000E+00
  0.00000000000000000E+00  0.00000000000000000E+00  0.00000000000000000E+00
  0.00000000000000000E+00  0.00000000000000000E+00  0.00000000000000000E+00
  0.00000000000000000E+00  0.00000000000000000E+00  0.00000000000000000E+00
  0.00000000000000000E+00  0.00000000000000000E+00  0.00000000000000000E+00
  0.00000000000000000E+00  0.00000000000000000E+00  0.00000000000000000E+00
  0.00000000000000000E+00  0.00000000000000000E+00  0.00000000000000000E+00
  0.00000000000000000E+00  0.00000000000000000E+00  0.00000000000000000E+00
  0.00000000000000000E+00  0.00000000000000000E+00  0.00000000000000000E+00
  0.00000000000000000E+00  0.00000000000000000E+00  0.00000000000000000E+00
  0.00000000000000000E+00  0.00000000000000000E+00  0.00000000000000000E+00
  0.00000000000000000E+00  0.00000000000000000E+00  0.00000000000000000E+00
  0.00000000000000000E+00  0.00000000000000000E+00  0.00000000000000000E+00
  0.00000000000000000E+00  0.00000000000000000E+00  0.00000000000000000E+00
  0.00000000000000000E+00  0.00000000000000000E+00  0.00000000000000000E+00
  0.00000000000000000E+00  0.00000000000000000E+00  0.00000000000000000E+00
  0.00000000000000000E+00  0.00000000000000000E+00  0.00000000000000000E+00
  0.00000000000000000E+00  0.00000000000000000E+00  0.00000000000000000E+00
  0.00000000000000000E+00  0.00000000000000000E+00  0.00000000000000000E+00
  0.00000000000000000E+00  0.00000000000000000E+00  0.00000000000000000E+00
  0.00000000000000000E+00  0.00000000000000000E+00  0.00000000000000000E+00
  0.00000000000000000E+00  0.00000000000000000E+00  0.00000000000000000E+00
  0.00000000000000000E+00  0.00000000000000000E+00  0.00000000000000000E+00
  0.00000000000000000E+00  0.00000000000000000E+00  0.00000000000000000E+00
  0.00000000000000000E+00  0.00000000000000000E+00  0.00000000000000000E+00
  0.00000000000000000E+00  0.00000000000000000E+00  0.00000000000000000E+00
  0.00000000000000000E+00  0.00000000000000000E+00  0.00000000000000000E+00
  0.00000000000000000E+00  0.00000000000000000E+00  0.00000000000000000E+00
  0.00000000000000000E+00  0.00000000000000000E+00  0.00000000000000000E+00
  0.00000000000000000E+00  0.00000000000000000E+00  0.00000000000000000E+00
  0.00000000000000000E+00  0.00000000000000000E+00  0.00000000000000000E+00
  0.00000000000000000E+00  0.00000000000000000E+00  0.00000000000000000E+00
  0.00000000000000000E+00  0.00000000000000000E+00  0.00000000000000000E+00
  0.00000000000000000E+00  0.00000000000000000E+00  0.00000000000000000E+00
  0.00000000000000000E+00  0.00000000000000000E+00  0.00000000000000000E+00
  0.00000000000000000E+00  0.00000000000000000E+00  0.00000000000000000E+00
  0.00000000000000000E+00  0.00000000000000000E+00  0.00000000000000000E+00
  0.00000000000000000E+00  0.00000000000000000E+00  0.00000000000000000E+00
  0.00000000000000000E+00  0.00000000000000000E+00  0.00000000000000000E+00
  0.00000000000000000E+00  0.00000000000000000E+00  0.00000000000000000E+00
  0.00000000000000000E+00  0.00000000000000000E+00  0.00000000000000000E+00
  0.00000000000000000E+00  0.00000000000000000E+00  0.00000000000000000E+00
  0.00000000000000000E+00  0.00000000000000000E+00  0.00000000000000000E+00
  0.00000000000000000E+00
                       </PP_QIJL.2.3.1>
 <PP_QIJL.2.4.1 type="real" size="   961" columns="3" first_index=" 2" second_index=" 4" composite_index=" 8" angular_momentum="1">
  4.95895916135716782E-13  5.14845089296862234E-13  5.34518348198565603E-13
  5.54943361602463575E-13  5.76148855548785474E-13  5.98164653757072322E-13
  6.21021719570726439E-13  6.44752199504296581E-13  6.69389468454774912E-13
  6.94968176640592255E-13  7.21524298334181028E-13  7.49095182456678753E-13
  7.77719605106037301E-13  8.07437824092305489E-13  8.38291635556761387E-13
  8.70324432754629321E-13  9.03581267084030982E-13  9.38108911446866508E-13
  9.73955926030932093E-13  1.01117272660572819E-12  1.04981165542784436E-12
  1.08992705485592390E-12  1.13157534377858322E-12  1.17481509696267118E-12
  1.21970712743375642E-12  1.26631457200443963E-12  1.31470298007082268E-12
  1.36494040580222960E-12  1.41709750385352333E-12  1.47124762873482816E-12
  1.52746693797846078E-12  1.58583449924788370E-12  1.64643240153968852E-12
  1.70934587063476518E-12  1.77466338896099379E-12  1.84247682003633696E-12
  1.91288153766690661E-12  1.98597656008214301E-12  2.06186468919548937E-12
  2.14065265518642010E-12  2.22245126660743966E-12  2.30737556622666966E-12
  2.39554499282582556E-12  2.48708354918052934E-12  2.58211997645966631E-12
  2.68078793528882904E-12  2.78322619373245601E-12  2.88957882245942423E-12
  2.99999539736586587E-12  3.11463120994115628E-12  3.23364748567179455E-12
  3.35721161079152520E-12  3.48549736769550783E-12  3.61868517935056960E-12
  3.75696236304451257E-12  3.90052339383193548E-12  4.04957017804663280E-12
  4.20431233726568657E-12  4.36496750312408982E-12  4.53176162339519145E-12
  4.70492927976663415E-12  4.88471401775962751E-12  5.07136868925460243E-12
  5.26515580810594607E-12  5.46634791934497090E-12  5.67522798249139018E-12
  5.89208976951127017E-12  6.11723827798247655E-12  6.35099016004718762E-12
  6.59367416775634192E-12  6.84563161543085268E-12  7.10721685969101893E-12
  7.37879779782876597E-12  7.66075638522327271E-12  7.95348917252888294E-12
  8.25740786338894454E-12  8.57293989346202579E-12  8.90052903157325100E-12
  9.24063600383684234E-12  9.59373914162818033E-12  9.96033505431515722E-12
  1.03409393276969337E-11  1.07360872491309205E-11  1.11463345603679905E-11
  1.15722582391559546E-11  1.20144573107085947E-11  1.24735536901830330E-11
  1.29501930573500954E-11  1.34450457646868785E-11  1.39588077801697806E-11
  1.44922016660935785E-11  1.50459775952926511E-11  1.56209144061943303E-11
  1.62178206981880694E-11  1.68375359688505619E-11  1.74809317946261813E-11
  1.81489130566242734E-11  1.88424192132561125E-11  1.95624256215014996E-11
  2.03099449086643609E-11  2.10860283965450926E-11  2.18917675800337187E-11
  2.27282956622025316E-11  2.35967891480581975E-11  2.44984694991942207E-11
  2.54346048516701684E-11  2.64065117995350164E-11  2.74155572465024057E-11
  2.84631603283819076E-11  2.95507944089703574E-11  3.06799891522092115E-11
  3.18523326735240725E-11  3.30694737733707315E-11  3.43331242561292450E-11
  3.56450613376077697E-11  3.70071301445410629E-11  3.84212463096002327E-11
  3.98893986655629938E-11  4.14136520424329022E-11  4.29961501714424885E-11
  4.46391187000231277E-11  4.63448683219834371E-11  4.81157980272974662E-11
  4.99543984760736736E-11  5.18632555014502652E-11  5.38450537463415381E-11
  5.59025804391526610E-11  5.80387293137710521E-11  6.02565046793483332E-11
  6.25590256455967881E-11  6.49495305095412340E-11  6.74313813098987017E-11
  7.00080685554884829E-11  7.26832161343243183E-11  7.54605864102918648E-11
  7.83440855145810817E-11  8.13377688393119832E-11  8.44458467410846650E-11
  8.76726904624714408E-11  9.10228382797804098E-11  9.45010018857380588E-11
  9.81120730160636654E-11  1.01861130329259880E-10  1.05753446549292008E-10
  1.09794495881202234E-10  1.13989961710090039E-10  1.18345744594281975E-10
  1.22867970563938385E-10  1.27562999736763622E-10  1.32437435262939193E-10
  1.37498132611860198E-10  1.42752209213732666E-10  1.48207054469596576E-10
  1.53870340143849988E-10  1.59750031153888723E-10  1.65854396772042206E-10
  1.72192022255549947E-10  1.78771820920945500E-10  1.85603046679823115E-10
  1.92695307053617566E-10  2.00058576685706268E-10  2.07703211369827298E-10
  2.15639962614553896E-10  2.23879992764301110E-10  2.32434890698132925E-10
  2.41316688128453809E-10  2.50537876522493529E-10  2.60111424670400821E-10
  2.70050796924640307E-10  2.80369972136349241E-10  2.91083463315289022E-10
  3.02206338041032322E-10  3.13754239654104443E-10  3.25743409256870704E-10
  3.38190708555116016E-10  3.51113643572443783E-10  3.64530389270837976E-10
  3.78459815112025284E-10  3.92921511595578492E-10  4.07935817811080626E-10
  4.23523850043113934E-10  4.39707531469285232E-10  4.56509622993070609E-10
  4.73953755254826305E-10  4.92064461865995043E-10  5.10867213913262536E-10
  5.30388455781150503E-10  5.50655642343458670E-10  5.71697277575863341E-10
  5.93542954643957094E-10  6.16223397523113552E-10  6.39770504208714404E-10
  6.64217391577525000E-10  6.89598441963268884E-10  7.15949351511940156E-10
  7.43307180384866295E-10  7.71710404880066835E-10  8.01198971545280966E-10
  8.31814353358740910E-10  8.63599608056661383E-10  8.96599438689560283E-10
  9.30860256492487178E-10  9.66430246157619722E-10  1.00335943360106098E-09
  1.04169975631904627E-09  1.08150513643261050E-09  1.12283155652337959E-09
  1.16573713836712316E-09  1.21028222467590295E-09  1.25652946396360638E-09
  1.30454389865439958E-09  1.35439305655784866E-09  1.40614704583946354E-09
  1.45987865362021852E-09  1.51566344834358817E-09  1.57357988605433006E-09
  1.63370942073809599E-09  1.69613661887747717E-09  1.76094927838518825E-09
  1.82823855208198283E-09  1.89809907589269539E-09  1.97062910194088498E-09
  2.04593063672908895E-09  2.12410958459922162E-09  2.20527589667459993E-09
  2.28954372549340071E-09  2.37703158555057218E-09  2.46786251997450655E-09
  2.56216427357229566E-09  2.66006947248753209E-09  2.76171581072268868E-09
  2.86724624378899034E-09  2.97680918975553059E-09  3.09055873798093887E-09
  3.20865486582062990E-09  3.33126366361474795E-09  3.45855756827306260E-09
  3.59071560578517674E-09  3.72792364299755382E-09  3.87037464901066177E-09
  4.01826896656475633E-09  4.17181459379512850E-09  4.33122747675347170E-09
  4.49673181310687967E-09  4.66856036744093112E-09  4.84695479861104461E-09
  5.03216599960192261E-09  5.22445445037295450E-09  5.42409058418646999E-09
  5.63135516793300931E-09  5.84653969698911785E-09  6.06994680516304500E-09
  6.30189069030390121E-09  6.54269755617399896E-09  6.79270607120507505E-09
  7.05226784478315326E-09  7.32174792173289180E-09  7.60152529569588321E-09
  7.89199344212478482E-09  8.19356087164361939E-09  8.50665170455167662E-09
  8.83170626727868376E-09  9.16918171163078238E-09  9.51955265769775342E-09
  9.88331186132495214E-09  1.02609709070891553E-08  1.06530609277532271E-08
  1.10601333512099417E-08  1.14827606759660927E-08  1.19215372762578126E-08
  1.23770802379283401E-08  1.28500302262437663E-08  1.33410523868671416E-08
  1.38508372812584453E-08  1.43801018578148275E-08  1.49295904601162680E-08
  1.55000758736960164E-08  1.60923604128062698E-08  1.67072770487077538E-08
  1.73456905810690280E-08  1.80084988541233027E-08  1.86966340192930128E-08
  1.94110638460565411E-08  2.01527930829003772E-08  2.09228648702707679E-08
  2.17223622075114258E-08  2.25524094758499712E-08  2.34141740195733958E-08
  2.43088677876164779E-08  2.52377490378715877E-08  2.62021241066154201E-08
  2.72033492455409954E-08  2.82428325289765618E-08  2.93220358339737149E-08
  3.04424768960487935E-08  3.16057314434674832E-08  3.28134354130731137E-08
  3.40672872507735459E-08  3.53690502999212707E-08  3.67205552809441813E-08
  3.81237028657135331E-08  3.95804663502681389E-08  4.10928944296513368E-08
  4.26631140787621853E-08  4.42933335432709200E-08  4.59858454448021064E-08
  4.77430300047529359E-08  4.95673583912762537E-08  5.14613961941342081E-08
  5.34278070323072478E-08  5.54693562994284228E-08  5.75889150523096742E-08
  5.97894640480241303E-08  6.20740979352209471E-08  6.44460296055630904E-08
  6.69085947114035734E-08  6.94652563560518173E-08  7.21196099632202691E-08
  7.48753883324976401E-08  7.77364668879530279E-08  8.07068691272470041E-08
  8.37907722789105911E-08  8.69925131757406460E-08  9.03165943525671513E-08
  9.37676903769620970E-08  9.73506544217859571E-08  1.01070525088809647E-07
  1.04932533493000761E-07  1.08942110617427818E-07  1.13104894949121201E-07
  1.17426740406616307E-07  1.21913724570324138E-07  1.26572157227289503E-07
  1.31408589242344359E-07  1.36429821768123117E-07  1.41642915806877500E-07
  1.47055202137526394E-07  1.52674291621891277E-07  1.58508085904589097E-07
  1.64564788521625140E-07  1.70852916433282513E-07  1.77381311997515823E-07
  1.84159155400668880E-07  1.91195977562972464E-07  1.98501673536961970E-07
  2.06086516417621338E-07  2.13961171783803054E-07  2.22136712691203700E-07
  2.30624635237949622E-07  2.39436874724662966E-07  2.48585822431693322E-07
  2.58084343037085561E-07  2.67945792699739896E-07  2.78184037833155848E-07
  2.88813474596129777E-07  2.99849049127764669E-07  3.11306278555212995E-07
  3.23201272803643569E-07  3.35550757239052130E-07  3.48372096175712189E-07
  3.61683317281254016E-07  3.75503136913647947E-07  3.89850986425645111E-07
  4.04747039473601241E-07  4.20212240369024199E-07  4.36268333512616733E-07
  4.52937893952146147E-07  4.70244359107012810E-07  4.88212061704030030E-07
  5.06866263970654000E-07  5.26233193133613687E-07  5.46340078272768722E-07
  5.67215188581893405E-07  5.88887873090053725E-07  6.11388601899312805E-07
  6.34749008996599104E-07  6.59001936699784733E-07  6.84181481800322788E-07
  7.10323043467134380E-07  7.37463372978940373E-07  7.65640625354760278E-07
  7.94894412954975183E-07  8.25265861128108014E-07  8.56797665981309265E-07
  8.89534154355563499E-07  9.23521346089643574E-07  9.58807018660107258E-07
  9.95440774287907267E-07  1.03347410960564458E-06  1.07296048798309975E-06
  1.11395541461234626E-06  1.15651651445764347E-06  1.20070361317930870E-06
  1.24657882114486931E-06  1.29420662064520312E-06  1.34365395643773561E-06
  1.39499032974351636E-06  1.44828789582975008E-06  1.50362156531435010E-06
  1.56106910933436651E-06  1.62071126872540516E-06  1.68263186736485740E-06
  1.74691792983749735E-06  1.81365980358806033E-06  1.88295128573165966E-06
  1.95488975469938919E-06  2.02957630690322028E-06  2.10711589861121811E-06
  2.18761749323146939E-06  2.27119421421055115E-06  2.35796350376020654E-06
  2.44804728763403107E-06  2.54157214618437357E-06  2.63866949193834628E-06
  2.73947575394098988E-06  2.84413256912295053E-06  2.95278698095985701E-06
  3.06559164570065168E-06  3.18270504645270472E-06  3.30429171542239794E-06
  3.43052246462117646E-06  3.56157462535884644E-06  3.69763229685803614E-06
  3.83888660433646425E-06  3.98553596691663409E-06  4.13778637573633742E-06
  4.29585168264733867E-06  4.45995389990437647E-06  4.63032351126175330E-06
  4.80719979491056910E-06  4.99083115870603530E-06  5.18147548815128632E-06
  5.37940050762164420E-06  5.58488415533180642E-06  5.79821497256694321E-06
  6.01969250771888551E-06  6.24962773568856979E-06  6.48834349323727204E-06
  6.73617493089113487E-06  6.99346998202612567E-06  7.26058984978422833E-06
  7.53790951249639525E-06  7.82581824831295476E-06  8.12472017976868742E-06
  8.43503483903680822E-06  8.75719775465504943E-06  9.09166106053579610E-06
  9.43889412810327136E-06  9.79938422243213364E-06  1.01736371832946364E-05
  1.05621781320577390E-05  1.09655522054066307E-05  1.13843253169078401E-05
  1.18190849474630108E-05  1.22704409657438742E-05  1.27390264797393009E-05
  1.32254987205881215E-05  1.37305399599156493E-05  1.42548584619363463E-05
  1.47991894716323687E-05  1.53642962403671137E-05  1.59509710903433933E-05
  1.65600365193679205E-05  1.71923463474390377E-05  1.78487869067301922E-05
  1.85302782766007274E-05  1.92377755653259222E-05  1.99722702403010379E-05
  2.07347915085393323E-05  2.15264077493504822E-05  2.23482280011578912E-05
  2.32014035044853959E-05  2.40871293032161834E-05  2.50066459063071798E-05
  2.59612410122216421E-05  2.69522512984269313E-05  2.79810642783900840E-05
  2.90491202285934715E-05  3.01579141881864954E-05  3.13089980339835674E-05
  3.25039826336200179E-05  3.37445400797784602E-05  3.50324060085043158E-05
  3.63693820047482450E-05  3.77573380983759540E-05  3.91982153540081313E-05
  4.06940285581778972E-05  4.22468690074180627E-05  4.38589074010234801E-05
  4.55323968423672327E-05  4.72696759527922790E-05  4.90731721022441745E-05
  5.09454047609615108E-05  5.28889889766936627E-05  5.49066389820772441E-05
  5.70011719369873851E-05  5.91755118108206417E-05  6.14326934098617059E-05
  6.37758665550701101E-05  6.62083004158113141E-05  6.87333880052543711E-05
  7.13546508433606050E-05  7.40757437935992872E-05  7.69004600797424775E-05
  7.98327364893134143E-05  8.28766587704852625E-05  8.60364672295153458E-05
  8.93165625359893444E-05  9.27215117434181308E-05  9.62560545330091928E-05
  9.99251096886980689E-05  1.03733781811809022E-04  1.07687368283999936E-04
  1.11791366487449831E-04  1.16051481291550739E-04  1.20473632815678002E-04
  1.25063964477931079E-04  1.29828851340174319E-04  1.34774908759908654E-04
  1.39909001359927407E-04  1.45238252327090653E-04  1.50770053051923743E-04
  1.56512073121134373E-04  1.62472270675547852E-04  1.68658903146374470E-04
  1.75080538383146669E-04  1.81746066187051002E-04  1.88664710263971479E-04
  1.95846040611983701E-04  2.03299986358340809E-04  2.11036849061659309E-04
  2.19067316495464231E-04  2.27402476929769497E-04  2.36053833927896909E-04
  2.45033321676273858E-04  2.54353320865513056E-04  2.64026675141557077E-04
  2.74066708146375308E-04  2.84487241168521014E-04  2.95302611423875613E-04
  3.06527690987933987E-04  3.18177906401550495E-04  3.30269258972707975E-04
  3.42818345797516919E-04  3.55842381524343516E-04  3.69359220885631548E-04
  3.83387382022554223E-04  3.97946070628519188E-04  4.13055204938777274E-04
  4.28735441592937043E-04  4.45008202398699789E-04  4.61895702025773161E-04
  4.79420976659661877E-04  4.97607913645762624E-04  5.16481282155001028E-04
  5.36066764902987927E-04  5.56390990955107283E-04  5.77481569651538745E-04
  5.99367125687208968E-04  6.22077335380689543E-04  6.45642964168313205E-04
  6.70095905360218436E-04  6.95469220195790629E-04  7.21797179236705164E-04
  7.49115305136537090E-04  7.77460416826540514E-04  8.06870675157122705E-04
  8.37385630038212092E-04  8.69046269119603718E-04  9.01895068052643921E-04
  9.35976042376825070E-04  9.71334801074859354E-04  1.00801860184032937E-03
  1.04607640810245477E-03  1.08555894785293864E-03  1.12651877431941823E-03
  1.16901032853086837E-03  1.21309000382501409E-03  1.25881621233935406E-03
  1.30624945353249151E-03  1.35545238478201662E-03  1.40648989410464202E-03
  1.45942917504397469E-03  1.51433980377086298E-03  1.57129381844036938E-03
  1.63036580084597715E-03  1.69163296042093526E-03  1.75517522062590978E-03
  1.82107530775972755E-03  1.88941884223388606E-03  1.96029443234782986E-03
  2.03379377059997781E-03  2.11001173256712173E-03  2.18904647838219068E-03
  2.27099955683340111E-03  2.35597601211305760E-03  2.44408449324476883E-03
  2.53543736619196193E-03  2.63015082866343858E-03  2.72834502762336548E-03
  2.83014417950710508E-03  2.93567669313840422E-03  3.04507529533693368E-03
  3.15847715919396251E-03  3.27602403498710717E-03  3.39786238372662142E-03
  3.52414351326465689E-03  3.65502371691751784E-03  3.79066441453949866E-03
  3.93123229597269145E-03  4.07689946678460851E-03  4.22784359619196581E-03
  4.38424806705036991E-03  4.54630212776379987E-03  4.71420104601440789E-03
  4.88814626411165042E-03  5.06834555576911924E-03  5.25501318410954293E-03
  5.44837006066818761E-03  5.64864390514107587E-03  5.85606940559884725E-03
  6.07088837885547562E-03  6.29334993062751879E-03  6.52371061519515984E-03
  6.76223459412746402E-03  7.00919379361101842E-03  7.26486805992675178E-03
  7.52954531256217439E-03  7.80352169440392401E-03  8.08710171841039299E-03
  8.38059841011122575E-03  8.68433344518478728E-03  8.99863728148354164E-03
  9.32384928465759821E-03  9.66031784644779193E-03  1.00084004947494920E-02
  1.03684639944491962E-02  1.07408844379643167E-02  1.11260473243429189E-02
  1.15243476256937875E-02  1.19361898395588546E-02  1.23619880260354871E-02
  1.28021658281130598E-02  1.32571564735378834E-02  1.37274027565896881E-02
  1.42133569979918592E-02  1.47154809810675028E-02  1.52342458621396743E-02
  1.57701320530421879E-02  1.63236290733593178E-02  1.68952353703589915E-02
  1.74854581040048383E-02  1.80948128942351738E-02  1.87238235278176443E-02
  1.93730216218486427E-02  2.00429462408125876E-02  2.07341434639590691E-02
  2.14471658995667169E-02  2.21825721423091725E-02  2.29409261705685319E-02
  2.37227966795247013E-02  2.45287563457228346E-02  2.53593810189995418E-02
  2.62152488373307777E-02  2.70969392599828759E-02  2.80050320141692309E-02
  2.89401059501710467E-02  2.99027377994609475E-02  3.08935008314807878E-02
  3.19129634029706663E-02  3.29616873939975463E-02  3.40402265250515160E-02
  3.51491245492467144E-02  3.62889133135275987E-02  3.74601106826603428E-02
  3.86632183195414134E-02  3.98987193150701774E-02  4.11670756626149881E-02
  4.24687255693581220E-02  4.38040805979776349E-02  4.51735226323810163E-02
  4.65774006610595176E-02  4.80160273717367622E-02  4.94896755511364528E-02
  5.09985742835997596E-02  5.25429049427032016E-02  5.41227969723982946E-02
  5.57383234507600883E-02  5.73894964321640735E-02  5.90762620641639147E-02
  6.07984954758168869E-02  6.25559954349755309E-02  6.43484787729449725E-02
  6.61755745753860591E-02  6.80368181405227868E-02  6.99316447081075598E-02
  7.18593829601028439E-02  7.38192482986693571E-02  7.58103359083211747E-02
  7.78316136109787199E-02  7.98819145248625961E-02  8.19599295405862432E-02
  8.40641996299053978E-02  8.61931080074136990E-02  8.83448721676390186E-02
  9.05175358214661413E-02  9.27089607620742995E-02  9.49168186939734759E-02
  9.71385830630849961E-02  9.93715209305674890E-02  1.01612684938187217E-01
  1.03858905418667241E-01  1.06106782710656392E-01  1.08352679742714966E-01
  1.10592714958285418E-01  1.12822755660789226E-01  1.15038411865121912E-01
  1.17235030749550453E-01  1.19407691810125768E-01  1.21551202828627247E-01
  1.23660096775636066E-01  1.25728629771657829E-01  1.27750780246478901E-01
  1.29720249445328978E-01  1.31630463438156042E-01  1.33474576798881001E-01
  1.35245478131326785E-01  1.36935797628260053E-01  1.38537916862616184E-01
  1.40043981018580621E-01  1.41445913758611347E-01  1.42735434964358227E-01
  1.43904081579147497E-01  1.44943231786461180E-01  1.45844132765390377E-01
  1.46597932267657965E-01  1.47195714262833705E-01  1.47628538909518020E-01
  1.47887487083490476E-01  1.47963709678212707E-01  1.47848481941648013E-01
  1.47533263056054492E-01  1.47009761159851038E-01  1.46270003990918690E-01
  1.45306415304508801E-01  1.44111897189089483E-01  1.42679918389037180E-01
  1.41004608614835214E-01  1.39080858836385352E-01  1.36904427523210831E-01
  1.34472052668857367E-01  1.31781569376262592E-01  1.28832032692917847E-01
  1.25623845285673080E-01  1.22158889443838278E-01  1.18440662795082002E-01
  1.14474416850016303E-01  1.10267297539105927E-01  1.05828486671830396E-01
  1.01169343053860883E-01  9.63035418341901539E-02  9.12472104617033652E-02
  8.60190594277414344E-02  8.06405057751761745E-02  7.51357870998850957E-02
  6.95320634946127031E-02  6.38595048258760178E-02  5.81513603731036097E-02
  5.24440076526058868E-02  4.67769770356552261E-02  4.11929485611831972E-02
  3.57377171517147610E-02  3.04601222499038225E-02  2.54119377755761544E-02
  2.06477182719066107E-02  1.62245969684466119E-02  1.22020315252761875E-02
  8.64149330675490629E-03  5.60609621907541111E-03  3.16016124402481845E-03
  1.36869967606243793E-03  2.96431346463070684E-04 -4.50748531335784518E-06
 -3.33247609063371304E-07 -2.16161823580684231E-08 -1.22932037098323056E-09
 -5.84029925186434671E-11 -1.92335968456071933E-12  6.46521260645315783E-15
  7.89761129874645024E-15  8.89403636402521476E-16  7.38434709698042229E-17
  5.23198948198258958E-18  3.26501084968805235E-19  0.00000000000000000E+00
  0.00000000000000000E+00  0.00000000000000000E+00  0.00000000000000000E+00
  0.00000000000000000E+00  0.00000000000000000E+00  0.00000000000000000E+00
  0.00000000000000000E+00  0.00000000000000000E+00  0.00000000000000000E+00
  0.00000000000000000E+00  0.00000000000000000E+00  0.00000000000000000E+00
  0.00000000000000000E+00  0.00000000000000000E+00  0.00000000000000000E+00
  0.00000000000000000E+00  0.00000000000000000E+00  0.00000000000000000E+00
  0.00000000000000000E+00  0.00000000000000000E+00  0.00000000000000000E+00
  0.00000000000000000E+00  0.00000000000000000E+00  0.00000000000000000E+00
  0.00000000000000000E+00  0.00000000000000000E+00  0.00000000000000000E+00
  0.00000000000000000E+00  0.00000000000000000E+00  0.00000000000000000E+00
  0.00000000000000000E+00  0.00000000000000000E+00  0.00000000000000000E+00
  0.00000000000000000E+00  0.00000000000000000E+00  0.00000000000000000E+00
  0.00000000000000000E+00  0.00000000000000000E+00  0.00000000000000000E+00
  0.00000000000000000E+00  0.00000000000000000E+00  0.00000000000000000E+00
  0.00000000000000000E+00  0.00000000000000000E+00  0.00000000000000000E+00
  0.00000000000000000E+00  0.00000000000000000E+00  0.00000000000000000E+00
  0.00000000000000000E+00  0.00000000000000000E+00  0.00000000000000000E+00
  0.00000000000000000E+00  0.00000000000000000E+00  0.00000000000000000E+00
  0.00000000000000000E+00  0.00000000000000000E+00  0.00000000000000000E+00
  0.00000000000000000E+00  0.00000000000000000E+00  0.00000000000000000E+00
  0.00000000000000000E+00  0.00000000000000000E+00  0.00000000000000000E+00
  0.00000000000000000E+00  0.00000000000000000E+00  0.00000000000000000E+00
  0.00000000000000000E+00  0.00000000000000000E+00  0.00000000000000000E+00
  0.00000000000000000E+00  0.00000000000000000E+00  0.00000000000000000E+00
  0.00000000000000000E+00  0.00000000000000000E+00  0.00000000000000000E+00
  0.00000000000000000E+00  0.00000000000000000E+00  0.00000000000000000E+00
  0.00000000000000000E+00  0.00000000000000000E+00  0.00000000000000000E+00
  0.00000000000000000E+00  0.00000000000000000E+00  0.00000000000000000E+00
  0.00000000000000000E+00  0.00000000000000000E+00  0.00000000000000000E+00
  0.00000000000000000E+00  0.00000000000000000E+00  0.00000000000000000E+00
  0.00000000000000000E+00  0.00000000000000000E+00  0.00000000000000000E+00
  0.00000000000000000E+00  0.00000000000000000E+00  0.00000000000000000E+00
  0.00000000000000000E+00  0.00000000000000000E+00  0.00000000000000000E+00
  0.00000000000000000E+00  0.00000000000000000E+00  0.00000000000000000E+00
  0.00000000000000000E+00  0.00000000000000000E+00  0.00000000000000000E+00
  0.00000000000000000E+00  0.00000000000000000E+00  0.00000000000000000E+00
  0.00000000000000000E+00  0.00000000000000000E+00  0.00000000000000000E+00
  0.00000000000000000E+00  0.00000000000000000E+00  0.00000000000000000E+00
  0.00000000000000000E+00  0.00000000000000000E+00  0.00000000000000000E+00
  0.00000000000000000E+00  0.00000000000000000E+00  0.00000000000000000E+00
  0.00000000000000000E+00  0.00000000000000000E+00  0.00000000000000000E+00
  0.00000000000000000E+00  0.00000000000000000E+00  0.00000000000000000E+00
  0.00000000000000000E+00  0.00000000000000000E+00  0.00000000000000000E+00
  0.00000000000000000E+00  0.00000000000000000E+00  0.00000000000000000E+00
  0.00000000000000000E+00  0.00000000000000000E+00  0.00000000000000000E+00
  0.00000000000000000E+00  0.00000000000000000E+00  0.00000000000000000E+00
  0.00000000000000000E+00  0.00000000000000000E+00  0.00000000000000000E+00
  0.00000000000000000E+00  0.00000000000000000E+00  0.00000000000000000E+00
  0.00000000000000000E+00  0.00000000000000000E+00  0.00000000000000000E+00
  0.00000000000000000E+00  0.00000000000000000E+00  0.00000000000000000E+00
  0.00000000000000000E+00  0.00000000000000000E+00  0.00000000000000000E+00
  0.00000000000000000E+00  0.00000000000000000E+00  0.00000000000000000E+00
  0.00000000000000000E+00  0.00000000000000000E+00  0.00000000000000000E+00
  0.00000000000000000E+00  0.00000000000000000E+00  0.00000000000000000E+00
  0.00000000000000000E+00  0.00000000000000000E+00  0.00000000000000000E+00
  0.00000000000000000E+00
                       </PP_QIJL.2.4.1>
 <PP_QIJL.3.3.0 type="real" size="   961" columns="3" first_index=" 3" second_index=" 3" composite_index=" 6" angular_momentum="0">
  2.08440598526977020E-08  2.13717297343120334E-08  2.19127576422804019E-08
  2.24674817366347920E-08  2.30362487379683976E-08  2.36194141441470124E-08
  2.42173424525070506E-08  2.48304073876780716E-08  2.54589921351724598E-08
  2.61034895808893016E-08  2.67643025566805293E-08  2.74418440921336150E-08
  2.81365376727287608E-08  2.88488175045310130E-08  2.95791287855830040E-08
  3.03279279841679108E-08  3.10956831241173897E-08  3.18828740773411106E-08
  3.26899928637623122E-08  3.35175439588466690E-08  3.43660446089149316E-08
  3.52360251544390177E-08  3.61280293615221755E-08  3.70426147617697031E-08
  3.79803530007648807E-08  3.89418301953655330E-08  3.99276473000458394E-08
  4.09384204825127160E-08  4.19747815088301185E-08  4.30373781382933404E-08
  4.41268745282996454E-08  4.52439516494675670E-08  4.63893077112658623E-08
  4.75636585984169503E-08  4.87677383183476184E-08  5.00022994599676491E-08
  5.12681136640617133E-08  5.25659721055900155E-08  5.38966859881979610E-08
  5.52610870512445129E-08  5.66600280896661813E-08  5.80943834870007959E-08
  5.95650497619059542E-08  6.10729461285113984E-08  6.26190150709578968E-08
  6.42042229324796276E-08  6.58295605193996304E-08  6.74960437204162866E-08
  6.92047141415649984E-08  7.09566397572571482E-08  7.27529155777962846E-08
  7.45946643337963345E-08  7.64830371779229226E-08  7.84192144044014457E-08
  8.04044061867384190E-08  8.24398533341184576E-08  8.45268280669495482E-08
  8.66666348120420826E-08  8.88606110179161721E-08  9.11101279907510762E-08
  9.34165917514936070E-08  9.57814439146674509E-08  9.82061625894270981E-08
  1.00692263303423865E-07  1.03241299950058561E-07  1.05854865759714455E-07
  1.08534594295576126E-07  1.11282160474659636E-07  1.14099281614687133E-07
  1.16987718507467032E-07  1.19949276519442591E-07  1.22985806720104105E-07
  1.26099207038966248E-07  1.29291423451832536E-07  1.32564451197094445E-07
  1.35920336022815061E-07  1.39361175465388514E-07  1.42889120160565672E-07
  1.46506375187668447E-07  1.50215201447835862E-07  1.54017917077155424E-07
  1.57916898895573386E-07  1.61914583892481109E-07  1.66013470749908447E-07
  1.70216121404281291E-07  1.74525162647709116E-07  1.78943287769813240E-07
  1.83473258241117458E-07  1.88117905439052372E-07  1.92880132417655263E-07
  1.97762915722069017E-07  2.02769307248974756E-07  2.07902436154122645E-07
  2.13165510808151078E-07  2.18561820801918653E-07  2.24094739002598249E-07
  2.29767723661824744E-07  2.35584320577208640E-07  2.41548165308568177E-07
  2.47662985450267796E-07  2.53932602961076789E-07  2.60360936553012820E-07
  2.66952004140655017E-07  2.73709925352464517E-07  2.80638924105679660E-07
  2.87743331246389623E-07  2.95027587256447163E-07  3.02496245028903675E-07
  3.10153972713705743E-07  3.18005556635432046E-07  3.26055904284886734E-07
  3.34310047386431828E-07  3.42773145042965605E-07  3.51450486960516466E-07
  3.60347496754469918E-07  3.69469735339486706E-07  3.78822904405241790E-07
  3.88412849980150614E-07  3.98245566085309418E-07  4.08327198480938165E-07
  4.18664048507658753E-07  4.29262577025020610E-07  4.40129408449726725E-07
  4.51271334896088237E-07  4.62695320421297245E-07  4.74408505378160295E-07
  4.86418210878029485E-07  4.98731943366708330E-07  5.11357399316196694E-07
  5.24302470035209429E-07  5.37575246601466383E-07  5.51184024918850835E-07
  5.65137310902583194E-07  5.79443825795661204E-07  5.94112511619881072E-07
  6.09152536764857953E-07  6.24573301718519041E-07  6.40384444942676355E-07
  6.56595848897332374E-07  6.73217646217488547E-07  6.90260226046328058E-07
  7.07734240528707934E-07  7.25650611469044901E-07  7.44020537157738661E-07
  7.62855499370404829E-07  7.82167270544299738E-07  8.01967921136400048E-07
  8.22269827167765435E-07  8.43085677958877457E-07  8.64428484060797827E-07
  8.86311585387108648E-07  9.08748659551696792E-07  9.31753730417620165E-07
  9.55341176862383151E-07  9.79525741765096267E-07  1.00432254122115860E-06
  1.02974707399018600E-06  1.05581523118312683E-06  1.08254330619460114E-06
  1.10994800488666755E-06  1.13804645603040288E-06  1.16685622201178627E-06
  1.19639530980861547E-06  1.22668218224529587E-06  1.25773576953253246E-06
  1.28957548109916723E-06  1.32222121772349829E-06  1.35569338397173359E-06
  1.39001290095129956E-06  1.42520121938699623E-06  1.46128033302818313E-06
  1.49827279239533494E-06  1.53620171887461159E-06  1.57509081916921221E-06
  1.61496440011655536E-06  1.65584738388056500E-06  1.69776532352851379E-06
  1.74074441900220821E-06  1.78481153349347023E-06  1.82999421023414364E-06
  1.87632068971114845E-06  1.92381992731730074E-06  1.97252161144897183E-06
  2.02245618206186706E-06  2.07365484969652086E-06  2.12614961498545004E-06
  2.17997328865406187E-06  2.23515951202789818E-06  2.29174277805901487E-06
  2.34975845288460562E-06  2.40924279793138205E-06  2.47023299257948310E-06
  2.53276715740013402E-06  2.59688437798152234E-06  2.66262472935780657E-06
  2.73002930105654877E-06  2.79914022278015125E-06  2.87000069073742287E-06
  2.94265499464171450E-06  3.01714854539244445E-06  3.09352790345740521E-06
  3.17184080797347228E-06  3.25213620658401016E-06  3.33446428603157723E-06
  3.41887650352500922E-06  3.50542561890058015E-06  3.59416572759722187E-06
  3.68515229446649476E-06  3.77844218843843468E-06  3.87409371806486851E-06
  3.97216666796252012E-06  4.07272233617853815E-06  4.17582357250195454E-06
  4.28153481774490956E-06  4.38992214401816797E-06  4.50105329602628086E-06
  4.61499773340787093E-06  4.73182667414787432E-06  4.85161313908855790E-06
  4.97443199756731227E-06  5.10036001420969943E-06  5.22947589690690154E-06
  5.36186034600766841E-06  5.49759610475550166E-06  5.63676801100244631E-06
  5.77946305023206152E-06  5.92577040992433974E-06  6.07578153529698496E-06
  6.22959018645743359E-06  6.38729249700175168E-06  6.54898703409664358E-06
  6.71477486008240819E-06  6.88475959563510594E-06  7.05904748452764432E-06
  7.23774746002999340E-06  7.42097121299022804E-06  7.60883326163877990E-06
  7.80145102315958913E-06  7.99894488707296137E-06  8.20143829047569511E-06
  8.40905779518592118E-06  8.62193316684038947E-06  8.84019745599393160E-06
  9.06398708127174849E-06  9.29344191462628180E-06  9.52870536875212198E-06
  9.76992448671355277E-06  1.00172500338404923E-05  1.02708365919506863E-05
  1.05308426559565809E-05  1.07974307329173530E-05  1.10707674435983107E-05
  1.13510236266004508E-05  1.16383744451258773E-05  1.19329994964454781E-05
  1.22350829241370384E-05  1.25448135331644426E-05  1.28623849078693288E-05
  1.31879955329491403E-05  1.35218489174971975E-05  1.38641537221821458E-05
  1.42151238896461906E-05  1.45749787782036870E-05  1.49439432989236788E-05
  1.53222480561816778E-05  1.57101294917686469E-05  1.61078300326475472E-05
  1.65155982424490046E-05  1.69336889768012686E-05  1.73623635425914442E-05
  1.78018898612571509E-05  1.82525426362108445E-05  1.87146035245012123E-05
  1.91883613128190531E-05  1.96741120979574238E-05  2.01721594718383659E-05
  2.06828147112227096E-05  2.12063969722203035E-05  2.17432334897230208E-05
  2.22936597818844966E-05  2.28580198597744055E-05  2.34366664423385206E-05
  2.40299611767983430E-05  2.46382748646279288E-05  2.52619876932493494E-05
  2.59014894735909532E-05  2.65571798836574386E-05  2.72294687182627871E-05
  2.79187761450827733E-05  2.86255329671867018E-05  2.93501808922119034E-05
  3.00931728083496761E-05  3.08549730673140214E-05  3.16360577744705172E-05
  3.24369150863062423E-05  3.32580455154262117E-05  3.40999622432669051E-05
  3.49631914407216911E-05  3.58482725968786497E-05  3.67557588560756234E-05
  3.76862173634827407E-05  3.86402296194287119E-05  3.96183918426908958E-05
  4.06213153429765876E-05  4.16496269028277999E-05  4.27039691691871723E-05
  4.37850010548703178E-05  4.48933981501940804E-05  4.60298531450179589E-05
  4.71950762614619667E-05  4.83897956975700078E-05  4.96147580821968529E-05
  5.08707289414009664E-05  5.21584931766349107E-05  5.34788555550314549E-05
  5.48326412120902869E-05  5.62206961670800044E-05  5.76438878514750692E-05
  5.91031056507587509E-05  6.05992614599289709E-05  6.21332902530528848E-05
  6.37061506672262026E-05  6.53188256013004465E-05  6.69723228297513026E-05
  6.86676756320709453E-05  7.04059434380757508E-05  7.21882124895323519E-05
  7.40155965185136503E-05  7.58892374429068396E-05  7.78103060795082443E-05
  7.97800028751466253E-05  8.17995586562930813E-05  8.38702353976220169E-05
  8.59933270100025064E-05  8.81701601484112334E-05  9.04020950402687656E-05
  9.26905263347150649E-05  9.50368839733544519E-05  9.74426340830082742E-05
  9.99092798910349044E-05  1.02438362663783333E-04  1.05031462668765555E-04
  1.07690200161147023E-04  1.10416236395165495E-04  1.13211274661112306E-04
  1.16077061348515237E-04  1.19015387036188009E-04  1.22028087609822925E-04
  1.25117045407819216E-04  1.28284190396062869E-04  1.31531501372383983E-04
  1.34861007201442630E-04  1.38274788080809755E-04  1.41774976839027257E-04
  1.45363760266457127E-04  1.49043380479741642E-04  1.52816136320724981E-04
  1.56684384790702861E-04  1.60650542520889488E-04  1.64717087280016427E-04
  1.68886559519995205E-04  1.73161563960605718E-04  1.77544771214190430E-04
  1.82038919451361789E-04  1.86646816108757642E-04  1.91371339639898042E-04
  1.96215441310233600E-04  2.01182147037494077E-04  2.06274559278474739E-04
  2.11495858963435177E-04  2.16849307479299695E-04  2.22338248702892520E-04
  2.27966111085463221E-04  2.33736409789790629E-04  2.39652748881188292E-04
  2.45718823573765034E-04  2.51938422533327445E-04  2.58315430238349947E-04
  2.64853829400466391E-04  2.71557703445980843E-04  2.78431239059927118E-04
  2.85478728794247641E-04  2.92704573741700764E-04  3.00113286277141984E-04
  3.07709492867873553E-04  3.15497936954789340E-04  3.23483481906092294E-04
  3.31671114045403129E-04  3.40065945756119487E-04  3.48673218663942503E-04
  3.57498306899520918E-04  3.66546720443221231E-04  3.75824108554082090E-04
  3.85336263285048723E-04  3.95089123086660437E-04  4.05088776501384901E-04
  4.15341465950879937E-04  4.25853591618497427E-04  4.36631715429403966E-04
  4.47682565130766484E-04  4.59013038474488818E-04  4.70630207505065578E-04
  4.82541322955171083E-04  4.94753818751669881E-04  5.07275316634800367E-04
  5.20113630893350365E-04  5.33276773218715788E-04  5.46772957680793882E-04
  5.60610605828749920E-04  5.74798351919759021E-04  5.89345048278901293E-04
  6.04259770793472996E-04  6.19551824545049186E-04  6.35230749582715208E-04
  6.51306326840971647E-04  6.67788584205896438E-04  6.84687802733241978E-04
  7.02014523022223232E-04  7.19779551748854864E-04  7.37993968362787574E-04
  7.56669131951674158E-04  7.75816688277215739E-04  7.95448576987118922E-04
  8.15577039007311542E-04  8.36214624118853550E-04  8.57374198724100809E-04
  8.79068953806775959E-04  9.01312413090722036E-04  9.24118441402221880E-04
  9.47501253240882048E-04  9.71475421564206034E-04  9.96055886791093279E-04
  1.02125796602962676E-03  1.04709736253465907E-03  1.07359017540078821E-03
  1.10075290949650543E-03  1.12860248564539026E-03  1.15715625106037616E-03
  1.18643199003727346E-03  1.21644793491383781E-03  1.24722277730085398E-03
  1.27877567959185372E-03  1.31112628675821084E-03  1.34429473843655453E-03
  1.37830168131555211E-03  1.41316828182932877E-03  1.44891623916490789E-03
  1.48556779859126140E-03  1.52314576511772249E-03  1.56167351748966719E-03
  1.60117502252959129E-03  1.64167484983185493E-03  1.68319818681957056E-03
  1.72577085417230532E-03  1.76941932163345332E-03  1.81417072420631746E-03
  1.86005287874817259E-03  1.90709430097176858E-03  1.95532422286395563E-03
  2.00477261053127066E-03  2.05547018248261344E-03  2.10744842835932202E-03
  2.16073962812316552E-03  2.21537687171304747E-03  2.27139407918138707E-03
  2.32882602132142118E-03  2.38770834079689038E-03  2.44807757378580132E-03
  2.50997117215024258E-03  2.57342752614440722E-03  2.63848598767332495E-03
  2.70518689411500474E-03  2.77357159271893108E-03  2.84368246559415193E-03
  2.91556295530043339E-03  2.98925759105626984E-03  3.06481201557776920E-03
  3.14227301256270793E-03  3.22168853483438848E-03  3.30310773316008994E-03
  3.38658098575934409E-03  3.47215992851738564E-03  3.55989748591950756E-03
  3.64984790272245528E-03  3.74206677637906136E-03  3.83661109023271298E-03
  3.93353924749855963E-03  4.03291110604862228E-03  4.13478801401834586E-03
  4.23923284625230424E-03  4.34631004160717770E-03  4.45608564113036173E-03
  4.56862732713288026E-03  4.68400446317550432E-03  4.80228813498733212E-03
  4.92355119233663097E-03  5.04786829187353278E-03  5.17531594096472432E-03
  5.30597254254057838E-03  5.43991844097540481E-03  5.57723596902177671E-03
  5.71800949582016230E-03  5.86232547600534608E-03  6.01027249993137894E-03
  6.16194134503700221E-03  6.31742502837358451E-03  6.47681886031860506E-03
  6.64022049949697466E-03  6.80773000893296950E-03  6.97944991345595626E-03
  7.15548525838306717E-03  7.33594366950232959E-03  7.52093541437965588E-03
  7.71057346501348266E-03  7.90497356186069082E-03  8.10425427925756843E-03
  8.30853709225956062E-03  8.51794644492465287E-03  8.73260982006360958E-03
  8.95265781048082410E-03  9.17822419172980436E-03  9.40944599640710332E-03
  9.64646359000819777E-03  9.88942074836883164E-03  1.01384647367150152E-02
  1.03937463903446530E-02  1.06554201969628025E-02  1.09236443806939310E-02
  1.11985809877935619E-02  1.14803959740791637E-02  1.17692592941018616E-02
  1.20653449920791554E-02  1.23688312946083085E-02  1.26799007051793134E-02
  1.29987401005053366E-02  1.33255408286879224E-02  1.36604988092321415E-02
  1.40038146349272044E-02  1.43556936756090818E-02  1.47163461838141149E-02
  1.50859874023358178E-02  1.54648376736943403E-02  1.58531225515267590E-02
  1.62510729139039543E-02  1.66589250785786069E-02  1.70769209201659528E-02
  1.75053079892561469E-02  1.79443396334559718E-02  1.83942751203593768E-02
  1.88553797624333545E-02  1.93279250438092680E-02  1.98121887489657728E-02
  2.03084550932861423E-02  2.08170148554681772E-02  2.13381655117621215E-02
  2.18722113720069035E-02  2.24194637174283604E-02  2.29802409401645980E-02
  2.35548686844801666E-02  2.41436799896113073E-02  2.47470154341912600E-02
  2.53652232821951554E-02  2.59986596303382576E-02  2.66476885568539337E-02
  2.73126822715708227E-02  2.79940212672006132E-02  2.86920944717342884E-02
  2.94072994018569622E-02  3.01400423172624513E-02  3.08907383757377023E-02
  3.16598117888878677E-02  3.24476959783583999E-02  3.32548337323996523E-02
  3.40816773626071434E-02  3.49286888606583218E-02  3.57963400548491698E-02
  3.66851127662235418E-02  3.75954989640996592E-02  3.85280009207316643E-02
  3.94831313648586896E-02  4.04614136338746419E-02  4.14633818243317423E-02
  4.24895809404720326E-02  4.35405670404611159E-02  4.46169073799761312E-02
  4.57191805527644990E-02  4.68479766278207255E-02  4.80038972827513816E-02
  4.91875559328705109E-02  5.03995778555683324E-02  5.16406003094585231E-02
  5.29112726477808312E-02  5.42122564255040421E-02  5.55442254995422505E-02
  5.69078661214472425E-02  5.83038770219421604E-02  5.97329694866431810E-02
  6.11958674221775648E-02  6.26933074119471884E-02  6.42260387607290206E-02
  6.57948235272567405E-02  6.74004365438830577E-02  6.90436654223740287E-02
  7.07253105448212988E-02  7.24461850386119294E-02  7.42071147344561810E-02
  7.60089381062117042E-02  7.78525061913002553E-02  7.97386824904494224E-02
  8.16683428454166721E-02  8.36423752932888703E-02  8.56616798958817482E-02
  8.77271685426797843E-02  8.98397647256512777E-02  9.20004032844119329E-02
  9.42100301198401935E-02  9.64696018742747102E-02  9.87800855763819596E-02
  1.01142458248665176E-01  1.03557706475499819E-01  1.06026825929485063E-01
  1.08550820853795638E-01  1.11130703498051778E-01  1.13767493505428113E-01
  1.16462217248276947E-01  1.19215907109479616E-01  1.22029600706754809E-01
  1.24904340056987626E-01  1.27841170677528232E-01  1.30841140621294011E-01
  1.33905299442376058E-01  1.37034697088629087E-01  1.40230382718007834E-01
  1.43493403434881484E-01  1.46824802942409266E-01  1.50225620107149821E-01
  1.53696887431872015E-01  1.57239629432402134E-01  1.60854860914216913E-01
  1.64543585144347193E-01  1.68306791913897830E-01  1.72145455486890891E-01
  1.76060532430510536E-01  1.80052959321631956E-01  1.84123650324721749E-01
  1.88273494635971067E-01  1.92503353788413795E-01  1.96814058812683490E-01
  2.01206407247952385E-01  2.05681159997350427E-01  2.10239038022757757E-01
  2.14880718873113497E-01  2.19606833040313254E-01  2.24417960137098554E-01
  2.29314624891191227E-01  2.34297292949923491E-01  2.39366366489637078E-01
  2.44522179624149377E-01  2.49764993606506835E-01  2.55094991819070693E-01
  2.60512274546244371E-01  2.66016853524456753E-01  2.71608646264541953E-01
  2.77287470141754921E-01  2.83053036248951173E-01  2.88904943008799708E-01
  2.94842669541262203E-01  3.00865568782983539E-01  3.06972860356193755E-01
  3.13163623184552098E-01  3.19436787854355531E-01  3.25791128720365031E-01
  3.32225255756233351E-01  3.38737606150415427E-01  3.45326435649442931E-01
  3.51989809651586549E-01  3.58725594055320340E-01  3.65531445867679106E-01
  3.72404803579597210E-01  3.79342877316907412E-01  3.86342638777265990E-01
  3.93400810965188419E-01  4.00513857739419277E-01  4.07677973189068454E-01
  4.14889070857706377E-01  4.22142772837268643E-01  4.29434398753569591E-01
  4.36758954672450683E-01  4.44111121956750621E-01  4.51485246107652172E-01
  4.58875325627789377E-01  4.66275000947398099E-01  4.73677543458928429E-01
  4.81075844711458700E-01  4.88462405818801015E-01  4.95829327135707265E-01
  5.03168298272482217E-01  5.10470588516834023E-01  5.17727037738544227E-01
  5.24928047858904012E-01  5.32063574973216880E-01  5.39123122221421003E-01
  5.46095733513174975E-01  5.52969988210117447E-01  5.59733996876492057E-01
  5.66375398233095795E-01  5.72881357442864836E-01  5.79238565867841393E-01
  5.85433242445812962E-01  5.91451136843309522E-01  5.97277534550978983E-01
  6.02897264105098252E-01  6.08294706595072121E-01  6.13453807652133309E-01
  6.18358092131704562E-01  6.22990681689636339E-01  6.27334315466773984E-01
  6.31371374103741001E-01  6.35083907314567653E-01  6.38453665257795011E-01
  6.41462133960181258E-01  6.44090574985631381E-01  6.46320069630719529E-01
  6.48131567902446859E-01  6.49505942519032042E-01  6.50424048181282521E-01
  6.50866786358484939E-01  6.50815175826841341E-01  6.50250429203377611E-01
  6.49154035698596421E-01  6.47507850214160907E-01  6.45294189049353539E-01
  6.42495932366710099E-01  6.39096633546629711E-01  6.35080635536779292E-01
  6.30433194265953123E-01  6.25140609150931392E-01  6.19190360708359644E-01
  6.12571255155016092E-01  6.05273575806963393E-01  5.97289241176857999E-01
  5.88611969456900419E-01  5.79237449020380435E-01  5.69163514486117128E-01
  5.58390327788588103E-01  5.46920563589509801E-01  5.34759598285710513E-01
  5.21915701582755243E-01  5.08400229612348098E-01  4.94227818455133416E-01
  4.79416576665333549E-01  4.63988275262472605E-01  4.47968533479513209E-01
  4.31386998371494634E-01  4.14277516203403084E-01  3.96678293339933097E-01
  3.78632044050222827E-01  3.60186122629861605E-01  3.41392636929293614E-01
  3.22308540157488943E-01  3.02995697645353834E-01  2.83520925058017681E-01
  2.63955994360707213E-01  2.44377603651012715E-01  2.24867306811834811E-01
  2.05511398962700237E-01  1.86400753420533499E-01  1.67630605880461109E-01
  1.49300281527379258E-01  1.31512860827413619E-01  1.14374779851733430E-01
  9.79953611522324242E-02  8.24862712904009809E-02  6.79609018688935446E-02
  5.45336713215359356E-02  4.23192446834979030E-02  3.14316697267621806E-02
  2.19834285379682040E-02  1.40844046056364854E-02  7.84076619751303966E-03
  3.35373575681406112E-03  7.17337275791194101E-04 -1.07921610207850363E-05
 -7.97886539118714948E-07 -5.17550927945546029E-08 -2.94333147364133730E-09
 -1.39832845930532569E-10 -4.60505270092664383E-12  1.54794992400039689E-14
  1.89090561344833927E-14  2.12947721162452547E-15  1.76801603030875006E-16
  1.25268234998522307E-17  7.81733502714271682E-19  0.00000000000000000E+00
  0.00000000000000000E+00  0.00000000000000000E+00  0.00000000000000000E+00
  0.00000000000000000E+00  0.00000000000000000E+00  0.00000000000000000E+00
  0.00000000000000000E+00  0.00000000000000000E+00  0.00000000000000000E+00
  0.00000000000000000E+00  0.00000000000000000E+00  0.00000000000000000E+00
  0.00000000000000000E+00  0.00000000000000000E+00  0.00000000000000000E+00
  0.00000000000000000E+00  0.00000000000000000E+00  0.00000000000000000E+00
  0.00000000000000000E+00  0.00000000000000000E+00  0.00000000000000000E+00
  0.00000000000000000E+00  0.00000000000000000E+00  0.00000000000000000E+00
  0.00000000000000000E+00  0.00000000000000000E+00  0.00000000000000000E+00
  0.00000000000000000E+00  0.00000000000000000E+00  0.00000000000000000E+00
  0.00000000000000000E+00  0.00000000000000000E+00  0.00000000000000000E+00
  0.00000000000000000E+00  0.00000000000000000E+00  0.00000000000000000E+00
  0.00000000000000000E+00  0.00000000000000000E+00  0.00000000000000000E+00
  0.00000000000000000E+00  0.00000000000000000E+00  0.00000000000000000E+00
  0.00000000000000000E+00  0.00000000000000000E+00  0.00000000000000000E+00
  0.00000000000000000E+00  0.00000000000000000E+00  0.00000000000000000E+00
  0.00000000000000000E+00  0.00000000000000000E+00  0.00000000000000000E+00
  0.00000000000000000E+00  0.00000000000000000E+00  0.00000000000000000E+00
  0.00000000000000000E+00  0.00000000000000000E+00  0.00000000000000000E+00
  0.00000000000000000E+00  0.00000000000000000E+00  0.00000000000000000E+00
  0.00000000000000000E+00  0.00000000000000000E+00  0.00000000000000000E+00
  0.00000000000000000E+00  0.00000000000000000E+00  0.00000000000000000E+00
  0.00000000000000000E+00  0.00000000000000000E+00  0.00000000000000000E+00
  0.00000000000000000E+00  0.00000000000000000E+00  0.00000000000000000E+00
  0.00000000000000000E+00  0.00000000000000000E+00  0.00000000000000000E+00
  0.00000000000000000E+00  0.00000000000000000E+00  0.00000000000000000E+00
  0.00000000000000000E+00  0.00000000000000000E+00  0.00000000000000000E+00
  0.00000000000000000E+00  0.00000000000000000E+00  0.00000000000000000E+00
  0.00000000000000000E+00  0.00000000000000000E+00  0.00000000000000000E+00
  0.00000000000000000E+00  0.00000000000000000E+00  0.00000000000000000E+00
  0.00000000000000000E+00  0.00000000000000000E+00  0.00000000000000000E+00
  0.00000000000000000E+00  0.00000000000000000E+00  0.00000000000000000E+00
  0.00000000000000000E+00  0.00000000000000000E+00  0.00000000000000000E+00
  0.00000000000000000E+00  0.00000000000000000E+00  0.00000000000000000E+00
  0.00000000000000000E+00  0.00000000000000000E+00  0.00000000000000000E+00
  0.00000000000000000E+00  0.00000000000000000E+00  0.00000000000000000E+00
  0.00000000000000000E+00  0.00000000000000000E+00  0.00000000000000000E+00
  0.00000000000000000E+00  0.00000000000000000E+00  0.00000000000000000E+00
  0.00000000000000000E+00  0.00000000000000000E+00  0.00000000000000000E+00
  0.00000000000000000E+00  0.00000000000000000E+00  0.00000000000000000E+00
  0.00000000000000000E+00  0.00000000000000000E+00  0.00000000000000000E+00
  0.00000000000000000E+00  0.00000000000000000E+00  0.00000000000000000E+00
  0.00000000000000000E+00  0.00000000000000000E+00  0.00000000000000000E+00
  0.00000000000000000E+00  0.00000000000000000E+00  0.00000000000000000E+00
  0.00000000000000000E+00  0.00000000000000000E+00  0.00000000000000000E+00
  0.00000000000000000E+00  0.00000000000000000E+00  0.00000000000000000E+00
  0.00000000000000000E+00  0.00000000000000000E+00  0.00000000000000000E+00
  0.00000000000000000E+00  0.00000000000000000E+00  0.00000000000000000E+00
  0.00000000000000000E+00  0.00000000000000000E+00  0.00000000000000000E+00
  0.00000000000000000E+00  0.00000000000000000E+00  0.00000000000000000E+00
  0.00000000000000000E+00  0.00000000000000000E+00  0.00000000000000000E+00
  0.00000000000000000E+00  0.00000000000000000E+00  0.00000000000000000E+00
  0.00000000000000000E+00  0.00000000000000000E+00  0.00000000000000000E+00
  0.00000000000000000E+00  0.00000000000000000E+00  0.00000000000000000E+00
  0.00000000000000000E+00  0.00000000000000000E+00  0.00000000000000000E+00
  0.00000000000000000E+00
                       </PP_QIJL.3.3.0>
 <PP_QIJL.3.3.2 type="real" size="   961" columns="3" first_index=" 3" second_index=" 3" composite_index=" 6" angular_momentum="2">
  1.05265299571557936E-16  1.10662361259640264E-16  1.16336161649996713E-16
  1.22300842480589246E-16  1.28571323084381128E-16  1.35163327728682571E-16
  1.42093314141956908E-16  1.49378573076321498E-16  1.57037377997083579E-16
  1.65088878568782248E-16  1.73553148965902064E-16  1.82451402791751263E-16
  1.91805910055447062E-16  2.01639996878604882E-16  2.11978289542337324E-16
  2.22846673180098059E-16  2.34272255637555310E-16  2.46283638938938020E-16
  2.58910896728095893E-16  2.72185528388507998E-16  2.86140769854447679E-16
  3.00811547843008721E-16  3.16234464547527083E-16  3.32448151861462157E-16
  3.49493156820028532E-16  3.67412026458319103E-16  3.86249657963217622E-16
  4.06053109503886997E-16  4.26871874423892100E-16  4.48758092179502940E-16
  4.71766393379818472E-16  4.95954372114633761E-16  5.21382518978424579E-16
  5.48114342224424709E-16  5.76216793088925991E-16  6.05760044059098775E-16
  6.36818023922825149E-16  6.69468402388128481E-16  7.03792752008857016E-16
  7.39877012021966315E-16  7.77811287651130639E-16  8.17690543210995089E-16
  8.59614428324477355E-16  9.03687795045187038E-16  9.50020879631338322E-16
  9.98729463262115817E-16  1.04993545345742696E-15  1.10376675722632047E-15
  1.16035812606361951E-15  1.21985092348589679E-15  1.28239404845818455E-15
  1.34814376901079442E-15  1.41726460096331950E-15  1.48992928983365474E-15
  1.56631961494223591E-15  1.64662652189377433E-15  1.73105088358746984E-15
  1.81980374309724445E-15  1.91310709293899653E-15  2.01119416906483566E-15
  2.11431032261326640E-15  2.22271329986610031E-15  2.33667428130458048E-15
  2.45647809136939033E-15  2.58242445922387471E-15  2.71482814282103515E-15
  2.85402039957824785E-15  3.00034911206463368E-15  3.15418032232864783E-15
  3.31589859160226244E-15  3.48590833416578884E-15  3.66463470267718929E-15
  3.85252449250215291E-15  4.05004769150975043E-15  4.25769802855025914E-15
  4.47599488405787318E-15  4.70548405610065991E-15  4.94673933574861373E-15
  5.20036412897427494E-15  5.46699244913538130E-15  5.74729113921827764E-15
  6.04196108375114234E-15  6.35173898681578774E-15  6.67739962975774561E-15
  7.01975722441507069E-15  7.37966781272955090E-15  7.75803150294561539E-15
  8.15579425943724237E-15  8.57395071229882458E-15  9.01354659344908578E-15
  9.47568098443349690E-15  9.96150946558352961E-15  1.04722469908901170E-14
  1.10091705695963285E-14  1.15736227266252396E-14  1.21670150323485694E-14
  1.27908312516608932E-14  1.34466311120791718E-14  1.41360545570189899E-14
  1.48608255724992286E-14  1.56227563742971602E-14  1.64237521123642784E-14
  1.72658158142183068E-14  1.81510531089465062E-14  1.90816774664892551E-14
  2.00600158652358170E-14  2.10885147631814704E-14  2.21697459858147822E-14
  2.33064131331813508E-14  2.45013583720778877E-14  2.57575697184634956E-14
  2.70781884288816818E-14  2.84665167524501530E-14  2.99260261979404427E-14
  3.14603662294137923E-14  3.30733734940191404E-14  3.47690814097762722E-14
  3.65517301564502620E-14  3.84257772816282119E-14  4.03959088543379965E-14
  4.24670511894690811E-14  4.46443831940009772E-14  4.69333493617966069E-14
  4.93396733255823994E-14  5.18693721586752345E-14  5.45287714249300644E-14
  5.73245209995138115E-14  6.02636117000679966E-14  6.33533927698592886E-14
  6.66015902566538184E-14  7.00163263337787051E-14  7.36061396190483173E-14
  7.73800065206722857E-14  8.13473636728172226E-14  8.55181315328519641E-14
  8.99027391885596612E-14  9.45121504369600365E-14  9.93578911999962450E-14
  1.04452078345671241E-13  1.09807449986738194E-13  1.15437397332741700E-13
  1.21355998175077215E-13  1.27578052088824925E-13  1.34119117439386855E-13
  1.40995550286460927E-13  1.48224545282618173E-13  1.55824178668706564E-13
  1.63813453473542865E-13  1.72212347030823149E-13  1.81041860931954212E-13
  1.90324073539561758E-13  2.00082195192784233E-13  2.10340626242157418E-13
  2.21125018067805979E-13  2.32462337246207960E-13  2.44380932969564097E-13
  2.56910607927725906E-13  2.70082692827337316E-13  2.83930124729533098E-13
  2.98487529401406137E-13  3.13791307886384754E-13  3.29879727509048266E-13
  3.46793017551132772E-13  3.64573469994651068E-13  3.83265545289837700E-13
  4.02915983399427929E-13  4.23573920638220161E-13  4.45291012497845961E-13
  4.68121562759722315E-13  4.92122659476679145E-13  5.17354318047227857E-13
  5.43879630869182676E-13  5.71764924963604351E-13  6.01079927721944895E-13
  6.31897941496178388E-13  6.64296027643980879E-13  6.98355198434241229E-13
  7.34160619278772407E-13  7.71801821620721372E-13  8.11372928106947812E-13
  8.52972887551883975E-13  8.96705721256752141E-13  9.42680783028693403E-13
  9.91013034626243661E-13  1.04182333237469018E-12  1.09523872775862610E-12
  1.15139278591836099E-12  1.21042592213778140E-12  1.27248574992408955E-12
  1.33772744939424564E-12  1.40631415922528331E-12  1.47841738243201078E-12
  1.55421741257486099E-12  1.63390378925177780E-12  1.71767577074213222E-12
  1.80574282811452721E-12  1.89832517513881578E-12  1.99565431653581133E-12
  2.09797362263787173E-12  2.20553894630739841E-12  2.31861925617574140E-12
  2.43749730883763656E-12  2.56247036363174574E-12  2.69385091480431152E-12
  2.83196748188642911E-12  2.97716542859707578E-12  3.12980782084590616E-12
  3.29027634695644013E-12  3.45897225673053301E-12  3.63631737869628332E-12
  3.82275516588441735E-12  4.01875180666551290E-12  4.22479739603887887E-12
  4.44140714864446274E-12  4.66912270500629270E-12  4.90851346430245163E-12
  5.16017803156735201E-12  5.42474569079601244E-12  5.70287800137713302E-12
  5.99527043072334546E-12  6.30265411350079601E-12  6.62579766071956660E-12
  6.96550910016576667E-12  7.32263787822238585E-12  7.69807700350000447E-12
  8.09276525835991029E-12  8.50768957048530459E-12  8.94388745305069250E-12
  9.40244963058691596E-12  9.88452273086214977E-12  1.03913121904717281E-11
  1.09240852296112732E-11  1.14841740579583914E-11  1.20729791748375560E-11
  1.26919728914935639E-11  1.33427030069482547E-11  1.40267966663509063E-11
  1.47459644589497639E-11  1.55020046530623198E-11  1.62968077389886058E-11
  1.71323611184459331E-11  1.80107540903506733E-11  1.89341830868453118E-11
  1.99049571279172414E-11  2.09255036452785723E-11  2.19983745113020727E-11
  2.31262524299373047E-11  2.43119576717159423E-11  2.55584550763394099E-11
  2.68688615093835388E-11  2.82464536463289070E-11  2.96946761332582484E-11
  3.12171502534628861E-11  3.28176829490916826E-11  3.45002763240708055E-11
  3.62691377048061562E-11  3.81286901179260492E-11  4.00835833395572594E-11
  4.21387055757900505E-11  4.42991956436632383E-11  4.65704558051167634E-11
  4.89581653293573465E-11  5.14682946643020114E-11  5.41071203367723040E-11
  5.68812406909605546E-11  5.97975923901374311E-11  6.28634677161065362E-11
  6.60865328193313692E-11  6.94748469345042721E-11  7.30368824823799615E-11
  7.67815462413364249E-11  8.07182016601730622E-11  8.48566922784603187E-11
  8.92073662936562643E-11  9.37811024362024914E-11  9.85893372211686998E-11
  1.03644093529450723E-10  1.08958010634037189E-10  1.14544375804802247E-10
  1.20417157580277866E-10  1.26591040684564004E-10  1.33081462707811728E-10
  1.39904652704504713E-10  1.47077671804040807E-10  1.54618455894779025E-10
  1.62545860423087902E-10  1.70879707533044830E-10  1.79640835632979553E-10
  1.88851151547474398E-10  1.98533685275970471E-10  2.08712647544701230E-10
  2.19413490340960986E-10  2.30662970555842111E-10  2.42489216932246374E-10
  2.54921800381424188E-10  2.67991807890041828E-10  2.81731920247199659E-10
  2.96176493756977603E-10  3.11361646163379730E-10  3.27325346987800822E-10
  3.44107512422602258E-10  3.61750105127101284E-10  3.80297239147079780E-10
  3.99795290213279021E-10  4.20293011712471306E-10  4.41841656619695664E-10
  4.64495105606961879E-10  4.88310001751876867E-10  5.13345892161248078E-10
  5.39665376855280121E-10  5.67334265284723548E-10  5.96421740893297253E-10
  6.27000534117240203E-10  6.59147104194331120E-10  6.92941830325994849E-10
  7.28469212644610016E-10  7.65818083483605882E-10  8.05081829478449347E-10
  8.46358625053916085E-10  8.89751677898894440E-10  9.35369487026506400E-10
  9.83326114012485850E-10  1.03374146816635454E-09  1.08674160632634454E-09
  1.14245904802320285E-09  1.20103310680068556E-09  1.26261023852097695E-09
  1.32734440752567933E-09  1.39539747156830617E-09  1.46693958649861657E-09
  1.54214963167564944E-09  1.62121565716391678E-09  1.70433535387522402E-09
  1.79171654781264229E-09  1.88357771965080116E-09  1.98014855095115843E-09
  2.08167049837752458E-09  2.18839739734711763E-09  2.30059609662580754E-09
  2.41854712545383016E-09  2.54254539486920944E-09  2.67290093498190322E-09
  2.80993967004915717E-09  2.95400423328084311E-09  3.10545482339004530E-09
  3.26467010506323921E-09  3.43204815559042839E-09  3.60800746001907157E-09
  3.79298795731874922E-09  3.98745214017120151E-09  4.19188621113396077E-09
  4.40680129806704240E-09  4.63273473185991578E-09  4.87025138965167259E-09
  5.11994510690112771E-09  5.38244016183521782E-09  5.65839283598522159E-09
  5.94849305471015143E-09  6.25346611180649810E-09  6.57407448251374059E-09
  6.91111972944540130E-09  7.26544450620810245E-09  7.63793466371450250E-09
  8.02952146445273815E-09  8.44118391024483703E-09  8.87395118930929269E-09
  9.32890524874183258E-09  9.80718349884096478E-09  1.03099816560340354E-08
  1.08385567315065217E-08  1.13942301730000720E-08  1.19783911676271853E-08
  1.25925001139533294E-08  1.32380922720196733E-08  1.39167816004236684E-08
  1.46302647900413685E-08  1.53803255044665129E-08  1.61688388377578260E-08
  1.69977760006274917E-08  1.78692092467750585E-08  1.87853170516694408E-08
  1.97483895567124947E-08  2.07608342923795637E-08  2.18251821946282597E-08
  2.29440939295998032E-08  2.41203665424047024E-08  2.53569404465950881E-08
  2.66569067717746835E-08  2.80235150876918893E-08  2.94601815241009299E-08
  3.09704973066595121E-08  3.25582377301748580E-08  3.42273715915982392E-08
  3.59820711063131603E-08  3.78267223324718693E-08  3.97659361293964849E-08
  4.18045596773981928E-08  4.39476885877640408E-08  4.62006796331330321E-08
  4.85691641300322851E-08  5.10590620069660658E-08  5.36765965931626891E-08
  5.64283101648785369E-08  5.93210802880473689E-08  6.23621369980474767E-08
  6.55590808594451272E-08  6.89199019507662095E-08  7.24529998216504172E-08
  7.61672044721682282E-08  8.00717984066243196E-08  8.41765398168472426E-08
  8.84916869527811148E-08  9.30280237411486490E-08  9.77968867160633586E-08
  1.02810193328736919E-07  1.08080471706857822E-07  1.13620891937829119E-07
  1.19445298953842681E-07  1.25568247100756130E-07  1.32005036476928328E-07
  1.38771751132569805E-07  1.45885299224912379E-07  1.53363455229280468E-07
  1.61224904310651463E-07  1.69489288966819449E-07  1.78177258059253188E-07
  1.87310518353718736E-07  1.96911888699026911E-07  2.07005356978822367E-07
  2.17616139978217766E-07  2.28770746314322051E-07  2.40497042587321138E-07
  2.52824322916764794E-07  2.65783382036130324E-07  2.79406592127546867E-07
  2.93727983587874495E-07  3.08783329927066598E-07  3.24610237010009182E-07
  3.41248236863806551E-07  3.58738886283827007E-07  3.77125870484761551E-07
  3.96455112052893867E-07  4.16774885469130764E-07  4.38135937490163312E-07
  4.60591613685974925E-07  4.84197991448041968E-07  5.09014019798641476E-07
  5.35101666348548634E-07  5.62526071768088031E-07  5.91355712155088482E-07
  6.21662569702843241E-07  6.53522312091692919E-07  6.87014481049419566E-07
  7.22222690548310455E-07  7.59234835130559560E-07  7.98143308880365925E-07
  8.39045235587157851E-07  8.82042710659440467E-07  9.27243055399281380E-07
  9.74759084266215243E-07  1.02470938579164564E-06  1.07721861783955695E-06
  1.13241781794465126E-06  1.19044472949625671E-06  1.25144414457528682E-06
  1.31556826429259930E-06  1.38297707752011963E-06  1.45383875895135558E-06
  1.52833008747573756E-06  1.60663688590986995E-06  1.68895448315847923E-06
  1.77548819993738071E-06  1.86645385928034277E-06  1.96207832308210466E-06
  2.06260005600094883E-06  2.16826971811198380E-06  2.27935078777266561E-06
  2.39612021623603323E-06  2.51886911562490832E-06  2.64790348196172620E-06
  2.78354495503450752E-06  2.92613161697480718E-06  3.07601883153164794E-06
  3.23358012603769716E-06  3.39920811828330331E-06  3.57331549058281099E-06
  3.75633601341505972E-06  3.94872562115121875E-06  4.15096354250984166E-06
  4.36355348851180343E-06  4.58702490084755852E-06  4.82193426371560460E-06
  5.06886648234489577E-06  5.32843633159639109E-06  5.60128997820255598E-06
  5.88810658023297911E-06  6.18959996782316312E-06  6.50652040925341712E-06
  6.83965646667526078E-06  7.18983694601166549E-06  7.55793294578412514E-06
  7.94486000985734222E-06  8.35158038934195198E-06  8.77910541915755301E-06
  9.22849801505051104E-06  9.70087529721781221E-06  1.01974113466385013E-05
  1.07193401009582774E-05  1.12679583969991971E-05  1.18446291672115639E-05
  1.24507847978012094E-05  1.30879306566503264E-05  1.37576487995522272E-05
  1.44616018637038059E-05  1.52015371578416891E-05  1.59792909589299067E-05
  1.67967930258455289E-05  1.76560713403946496E-05  1.85592570874730850E-05
  1.95085898863045403E-05  2.05064232852269341E-05  2.15552305331782738E-05
  2.26576106416791625E-05  2.38162947517868346E-05  2.50341528212052020E-05
  2.63142006474892402E-05  2.76596072443359551E-05  2.90737025880058924E-05
  3.05599857520479036E-05  3.21221334502578244E-05  3.37640090078328544E-05
  3.54896717818965074E-05  3.73033870536150210E-05  3.92096364152019609E-05
  4.12131286762336426E-05  4.33188113148797745E-05  4.55318825012275056E-05
  4.78578037206416954E-05  5.03023130254547123E-05  5.28714389473544189E-05
  5.55715151024738926E-05  5.84091955230054495E-05  6.13914707508699350E-05
  6.45256847306568010E-05  6.78195525408213201E-05  7.12811790039672046E-05
  7.49190782195272828E-05  7.87421940633882290E-05  8.27599216992395802E-05
  8.69821301532424333E-05  9.14191860027916331E-05  9.60819782329688354E-05
  1.00981944316952136E-04  1.06131097579245957E-04  1.11542055903325531E-04
  1.17228071848143127E-04  1.23203064242097840E-04  1.29481651323371514E-04
  1.36079185498296407E-04  1.43011789798477070E-04  1.50296396115984861E-04
  1.57950785300633133E-04  1.65993629207266769E-04  1.74444534784924026E-04
  1.83324090303825922E-04  1.92653913820654740E-04  2.02456703989135136E-04
  2.12756293319140333E-04  2.23577704000506848E-04  2.34947206413361337E-04
  2.46892380447388349E-04  2.59442179759423791E-04  2.72626999104320044E-04
  2.86478744879754561E-04  3.01030909031579214E-04  3.16318646474330343E-04
  3.32378856186275125E-04  3.49250266134869139E-04  3.66973522215525364E-04
  3.85591281381182747E-04  4.05148309148463642E-04  4.25691581674536947E-04
  4.47270392606475317E-04  4.69936464912785361E-04  4.93744067915518974E-04
  5.18750139754600042E-04  5.45014415504956528E-04  5.72599561195333935E-04
  6.01571313987797640E-04  6.31998628775659512E-04  6.63953831470756291E-04
  6.97512779260656070E-04  7.32755028126075010E-04  7.69764007918783181E-04
  8.08627205316372107E-04  8.49436354966659436E-04  8.92287639140500796E-04
  9.37281896254539755E-04  9.84524838608665442E-04  1.03412727969905268E-03
  1.08620537147888067E-03  1.14088085194916501E-03  1.19828130347234343E-03
  1.25854042221596601E-03  1.32179829914157144E-03  1.38820171293100713E-03
  1.45790443531221585E-03  1.53106754922003978E-03  1.60785978023764002E-03
  1.68845784177501794E-03  1.77304679444824581E-03  1.86182042012938867E-03
  1.95498161114558006E-03  2.05274277511641092E-03  2.15532625587389146E-03
  2.26296477098037819E-03  2.37590186633258654E-03  2.49439238832959440E-03
  2.61870297408607925E-03  2.74911256016713941E-03  2.88591291031354722E-03
  3.02940916261825290E-03  3.17992039661040005E-03  3.33778022064168877E-03
  3.50333738000991419E-03  3.67695638621693376E-03  3.85901816771395826E-03
  4.04992074246400546E-03  4.25007991261527104E-03  4.45992998153749154E-03
  4.67992449342632347E-03  4.91053699562702187E-03  5.15226182375364862E-03
  5.40561490964174603E-03  5.67113461208303398E-03  5.94938257019851386E-03
  6.24094457921757755E-03  6.54643148832613660E-03  6.86648012013196286E-03
  7.20175421116600253E-03  7.55294537267166017E-03  7.92077407085709992E-03
  8.30599062557743281E-03  8.70937622618877388E-03  9.13174396316290479E-03
  9.57393987382165225E-03  1.00368440003124546E-02  1.05213714576889873E-02
  1.10284735096723222E-02  1.15591386492726843E-02  1.21143936814338323E-02
  1.26953048042677975E-02  1.33029786849817849E-02  1.39385635263624200E-02
  1.46032501191884767E-02  1.52982728754685222E-02  1.60249108368912610E-02
  1.67844886523017163E-02  1.75783775172105687E-02  1.84079960685776985E-02
  1.92748112266318827E-02  2.01803389747468101E-02  2.11261450680269025E-02
  2.21138456603194103E-02  2.31451078385189572E-02  2.42216500521319662E-02
  2.53452424250166855E-02  2.65177069347897441E-02  2.77409174463377518E-02
  2.90167995824592156E-02  3.03473304139678032E-02  3.17345379509611017E-02
  3.31805004154066899E-02  3.46873452738520743E-02  3.62572480076667619E-02
  3.78924305964641189E-02  3.95951596883203152E-02  4.13677444328583790E-02
  4.32125339461447711E-02  4.51319143768933867E-02  4.71283055423431796E-02
  4.92041571000393155E-02  5.13619442200031265E-02  5.36041627200174800E-02
  5.59333236241056700E-02  5.83519471027491923E-02  6.08625557579191775E-02
  6.34676672034286959E-02  6.61697858954432838E-02  6.89713941662542102E-02
  7.18749424124332098E-02  7.48828383871556896E-02  7.79974355452885126E-02
  8.12210203865868091E-02  8.45557987453336296E-02  8.80038809800489097E-02
  9.15672660002555677E-02  9.52478240790864822E-02  9.90472783993035094E-02
  1.02967185280902401E-01  1.07008913040140013E-01  1.11173619431964951E-01
  1.15462227626235980E-01  1.19875400684290437E-01  1.24413514504044087E-01
  1.29076629190790326E-01  1.33864458834105526E-01  1.38776339675172250E-01
  1.43811196657775114E-01  1.48967508366982221E-01  1.54243270371226732E-01
  1.59635956991282385E-01  1.65142481560425797E-01  1.70759155234611437E-01
  1.76481644427642387E-01  1.82304926984413668E-01  1.88223247225217799E-01
  1.94230070021987750E-01  2.00318034098315501E-01  2.06478904777529337E-01
  2.12703526437474061E-01  2.18981774998408069E-01  2.25302510773917830E-01
  2.31653532080150104E-01  2.38021530056070796E-01  2.44392045199422592E-01
  2.50749426183101254E-01  2.57076791580801045E-01  2.63355995198915671E-01
  2.69567595788870573E-01  2.75690831985280327E-01  2.81703603386239787E-01
  2.87582458788337658E-01  2.93302592671867646E-01  2.98837851119762299E-01
  3.04160748444508966E-01  3.09242495889448021E-01  3.14053043880992977E-01
  3.18561139371513036E-01  3.22734399868771560E-01  3.26539405922099180E-01
  3.29941813858956379E-01  3.32906490646337261E-01  3.35397672815725023E-01
  3.37379151440406089E-01  3.38814485194160742E-01  3.39667243606079805E-01
  3.39901282400132843E-01  3.39481052922614435E-01  3.38371947700537745E-01
  3.36540683922592621E-01  3.33955726536928732E-01  3.30587752473909924E-01
  3.26410157261646239E-01  3.21399605039643599E-01  3.15536622701902414E-01
  3.08806237880853263E-01  3.01198660719628641E-01  2.92710008518988318E-01
  2.83343071528728785E-01  2.73108117417515228E-01  2.62023731043643127E-01
  2.50117685123172839E-01  2.37427836374192958E-01  2.24003040267237719E-01
  2.09904075591213879E-01  1.95204569759474117E-01  1.79991913303076984E-01
  1.64368150320486683E-01  1.48450829805589740E-01  1.32373800775016176E-01
  1.16287932030569946E-01  1.00361735362647045E-01  8.47818682475628693E-02
  6.97534903219578090E-02  5.55004461269291566E-02  4.22652438698062072E-02
  3.03087981893083690E-02  1.99099032618702404E-02  1.13644005347623908E-02
  4.98395405681280410E-03  1.09297752019064964E-03 -1.67969974588944687E-05
 -1.24183637959548052E-06 -8.05520007050214338E-08 -4.58102239099480759E-09
 -2.17636852641610839E-10 -7.16733732628401746E-12  2.40924045609163889E-14
  2.94301917131613182E-14  3.31433373200624849E-15  2.75175293541168132E-16
  1.94968386859494450E-17  1.21669567692098346E-18  0.00000000000000000E+00
  0.00000000000000000E+00  0.00000000000000000E+00  0.00000000000000000E+00
  0.00000000000000000E+00  0.00000000000000000E+00  0.00000000000000000E+00
  0.00000000000000000E+00  0.00000000000000000E+00  0.00000000000000000E+00
  0.00000000000000000E+00  0.00000000000000000E+00  0.00000000000000000E+00
  0.00000000000000000E+00  0.00000000000000000E+00  0.00000000000000000E+00
  0.00000000000000000E+00  0.00000000000000000E+00  0.00000000000000000E+00
  0.00000000000000000E+00  0.00000000000000000E+00  0.00000000000000000E+00
  0.00000000000000000E+00  0.00000000000000000E+00  0.00000000000000000E+00
  0.00000000000000000E+00  0.00000000000000000E+00  0.00000000000000000E+00
  0.00000000000000000E+00  0.00000000000000000E+00  0.00000000000000000E+00
  0.00000000000000000E+00  0.00000000000000000E+00  0.00000000000000000E+00
  0.00000000000000000E+00  0.00000000000000000E+00  0.00000000000000000E+00
  0.00000000000000000E+00  0.00000000000000000E+00  0.00000000000000000E+00
  0.00000000000000000E+00  0.00000000000000000E+00  0.00000000000000000E+00
  0.00000000000000000E+00  0.00000000000000000E+00  0.00000000000000000E+00
  0.00000000000000000E+00  0.00000000000000000E+00  0.00000000000000000E+00
  0.00000000000000000E+00  0.00000000000000000E+00  0.00000000000000000E+00
  0.00000000000000000E+00  0.00000000000000000E+00  0.00000000000000000E+00
  0.00000000000000000E+00  0.00000000000000000E+00  0.00000000000000000E+00
  0.00000000000000000E+00  0.00000000000000000E+00  0.00000000000000000E+00
  0.00000000000000000E+00  0.00000000000000000E+00  0.00000000000000000E+00
  0.00000000000000000E+00  0.00000000000000000E+00  0.00000000000000000E+00
  0.00000000000000000E+00  0.00000000000000000E+00  0.00000000000000000E+00
  0.00000000000000000E+00  0.00000000000000000E+00  0.00000000000000000E+00
  0.00000000000000000E+00  0.00000000000000000E+00  0.00000000000000000E+00
  0.00000000000000000E+00  0.00000000000000000E+00  0.00000000000000000E+00
  0.00000000000000000E+00  0.00000000000000000E+00  0.00000000000000000E+00
  0.00000000000000000E+00  0.00000000000000000E+00  0.00000000000000000E+00
  0.00000000000000000E+00  0.00000000000000000E+00  0.00000000000000000E+00
  0.00000000000000000E+00  0.00000000000000000E+00  0.00000000000000000E+00
  0.00000000000000000E+00  0.00000000000000000E+00  0.00000000000000000E+00
  0.00000000000000000E+00  0.00000000000000000E+00  0.00000000000000000E+00
  0.00000000000000000E+00  0.00000000000000000E+00  0.00000000000000000E+00
  0.00000000000000000E+00  0.00000000000000000E+00  0.00000000000000000E+00
  0.00000000000000000E+00  0.00000000000000000E+00  0.00000000000000000E+00
  0.00000000000000000E+00  0.00000000000000000E+00  0.00000000000000000E+00
  0.00000000000000000E+00  0.00000000000000000E+00  0.00000000000000000E+00
  0.00000000000000000E+00  0.00000000000000000E+00  0.00000000000000000E+00
  0.00000000000000000E+00  0.00000000000000000E+00  0.00000000000000000E+00
  0.00000000000000000E+00  0.00000000000000000E+00  0.00000000000000000E+00
  0.00000000000000000E+00  0.00000000000000000E+00  0.00000000000000000E+00
  0.00000000000000000E+00  0.00000000000000000E+00  0.00000000000000000E+00
  0.00000000000000000E+00  0.00000000000000000E+00  0.00000000000000000E+00
  0.00000000000000000E+00  0.00000000000000000E+00  0.00000000000000000E+00
  0.00000000000000000E+00  0.00000000000000000E+00  0.00000000000000000E+00
  0.00000000000000000E+00  0.00000000000000000E+00  0.00000000000000000E+00
  0.00000000000000000E+00  0.00000000000000000E+00  0.00000000000000000E+00
  0.00000000000000000E+00  0.00000000000000000E+00  0.00000000000000000E+00
  0.00000000000000000E+00  0.00000000000000000E+00  0.00000000000000000E+00
  0.00000000000000000E+00  0.00000000000000000E+00  0.00000000000000000E+00
  0.00000000000000000E+00  0.00000000000000000E+00  0.00000000000000000E+00
  0.00000000000000000E+00  0.00000000000000000E+00  0.00000000000000000E+00
  0.00000000000000000E+00  0.00000000000000000E+00  0.00000000000000000E+00
  0.00000000000000000E+00  0.00000000000000000E+00  0.00000000000000000E+00
  0.00000000000000000E+00  0.00000000000000000E+00  0.00000000000000000E+00
  0.00000000000000000E+00
                       </PP_QIJL.3.3.2>
 <PP_QIJL.3.4.0 type="real" size="   961" columns="3" first_index=" 3" second_index=" 4" composite_index=" 9" angular_momentum="0">
 -1.57194920990416646E-08 -1.61174329317564219E-08 -1.65254476843896058E-08
 -1.69437913794266971E-08 -1.73727254952775560E-08 -1.78125181297087400E-08
 -1.82634441674135528E-08 -1.87257854518238045E-08 -1.91998309612708170E-08
 -1.96858769896066664E-08 -2.01842273313972071E-08 -2.06951934718033368E-08
 -2.12190947812695473E-08 -2.17562587151407680E-08 -2.23070210183324822E-08
 -2.28717259351820080E-08 -2.34507264246126944E-08 -2.40443843807442977E-08
 -2.46530708590885835E-08 -2.52771663084714085E-08 -2.59170608088248749E-08
 -2.65731543150002557E-08 -2.72458569067528315E-08 -2.79355890450545369E-08
 -2.86427818348961034E-08 -2.93678772947413524E-08 -3.01113286328028593E-08
 -3.08736005303120624E-08 -3.16551694319597300E-08 -3.24565238436893385E-08
 -3.32781646380292165E-08 -3.41206053671536256E-08 -3.49843725838696873E-08
 -3.58700061707299178E-08 -3.67780596774759590E-08 -3.77091006670252334E-08
 -3.86637110702157608E-08 -3.96424875495319127E-08 -4.06460418720375405E-08
 -4.16750012917500345E-08 -4.27300089416944199E-08 -4.38117242358817420E-08
 -4.49208232814645838E-08 -4.60579993013252320E-08 -4.72239630673626754E-08
 -4.84194433447475419E-08 -4.96451873474235688E-08 -5.09019612051409563E-08
 -5.21905504423109530E-08 -5.35117604689851486E-08 -5.48664170842610843E-08
 -5.62553669924343523E-08 -5.76794783322149743E-08 -5.91396412193424774E-08
 -6.06367683029364973E-08 -6.21717953359315265E-08 -6.37456817599523236E-08
 -6.53594113049960553E-08 -6.70139926042941275E-08 -6.87104598247411926E-08
 -7.04498733132812250E-08 -7.22333202596591727E-08 -7.40619153759483749E-08
 -7.59368015932817217E-08 -7.78591507762196006E-08 -7.98301644552027786E-08
 -8.18510745775464504E-08 -8.39231442774474247E-08 -8.60476686654818549E-08
 -8.82259756380919692E-08 -9.04594267075619180E-08 -9.27494178530067624E-08
 -9.50973803929038392E-08 -9.75047818797110664E-08 -9.99731270171354389E-08
 -1.02503958600618036E-07 -1.05098858481631571E-07 -1.07759448556386882E-07
 -1.10487391779568604E-07 -1.13284393203735703E-07 -1.16152201045030834E-07
 -1.19092607775871972E-07 -1.22107451245303618E-07 -1.25198615827708911E-07
 -1.28368033600604820E-07 -1.31617685552249047E-07 -1.34949602819820333E-07
 -1.38365867958943076E-07 -1.41868616245348752E-07 -1.45460037009490457E-07
 -1.49142375004942474E-07 -1.52917931811440445E-07 -1.56789067273440731E-07
 -1.60758200975096203E-07 -1.64827813752572000E-07 -1.69000449244643396E-07
 -1.73278715482549718E-07 -1.77665286520094219E-07 -1.82162904105009358E-07
 -1.86774379392635135E-07 -1.91502594702975460E-07 -1.96350505322238240E-07
 -2.01321141349978385E-07 -2.06417609593003399E-07 -2.11643095507223563E-07
 -2.17000865188656960E-07 -2.22494267414839702E-07 -2.28126735737913564E-07
 -2.33901790630700181E-07 -2.39823041687104451E-07 -2.45894189878216719E-07
 -2.52119029865533452E-07 -2.58501452372734378E-07 -2.65045446617501000E-07
 -2.71755102804898948E-07 -2.78634614683876147E-07 -2.85688282168481286E-07
 -2.92920514025439275E-07 -3.00335830629759959E-07 -3.07938866790108421E-07
 -3.15734374645694559E-07 -3.23727226636501688E-07 -3.31922418548703821E-07
 -3.40325072637178571E-07 -3.48940440827068335E-07 -3.57773907996382370E-07
 -3.66830995341704810E-07 -3.76117363829101338E-07 -3.85638817732386615E-07
 -3.95401308260963744E-07 -4.05410937279497777E-07 -4.15673961121757953E-07
 -4.26196794501002950E-07 -4.36986014519360148E-07 -4.48048364778698286E-07
 -4.59390759595572357E-07 -4.71020288322860138E-07 -4.82944219780809331E-07
 -4.95170006800251399E-07 -5.07705290880826120E-07 -5.20557906967133138E-07
 -5.33735888345782910E-07 -5.47247471666422618E-07 -5.61101102089865950E-07
 -5.75305438566544819E-07 -5.89869359248592396E-07 -6.04801967038917939E-07
 -6.20112595280768501E-07 -6.35810813591313447E-07 -6.51906433842907258E-07
 -6.68409516295769855E-07 -6.85330375885904236E-07 -7.02679588672201672E-07
 -7.20467998446751205E-07 -7.38706723512480397E-07 -7.57407163632385676E-07
 -7.76581007154660311E-07 -7.96240238318207995E-07 -8.16397144743089876E-07
 -8.37064325110584464E-07 -8.58254697037677710E-07 -8.79981505150876449E-07
 -9.02258329364421375E-07 -9.25099093368054805E-07 -9.48518073329650000E-07
 -9.72529906818158511E-07 -9.97149601952412727E-07 -1.02239254678155286E-06
 -1.04827451890289994E-06 -1.07481169532330383E-06 -1.10202066257013617E-06
 -1.12991842705821912E-06 -1.15852242571920713E-06 -1.18785053690003818E-06
 -1.21792109153726895E-06 -1.24875288461429877E-06 -1.28036518690860248E-06
 -1.31277775703635767E-06 -1.34601085380197206E-06 -1.38008524886021912E-06
 -1.41502223969892764E-06 -1.45084366295029975E-06 -1.48757190803921160E-06
 -1.52522993117700497E-06 -1.56384126970951424E-06 -1.60343005682833337E-06
 -1.64402103665444595E-06 -1.68563957970371191E-06 -1.72831169874385133E-06
 -1.77206406505282704E-06 -1.81692402508880117E-06 -1.86291961758206293E-06
 -1.91007959105964627E-06 -1.95843342181355287E-06 -2.00801133232382123E-06
 -2.05884431014798226E-06 -2.11096412728864616E-06 -2.16440336005138260E-06
 -2.21919540940529345E-06 -2.27537452185895966E-06 -2.33297581086488466E-06
 -2.39203527876571185E-06 -2.45258983929602967E-06 -2.51467734065377539E-06
 -2.57833658915563850E-06 -2.64360737349131378E-06 -2.71053048959167421E-06
 -2.77914776612647308E-06 -2.84950209064749756E-06 -2.92163743639346413E-06
 -2.99559888977349381E-06 -3.07143267854622073E-06 -3.14918620071227824E-06
 -3.22890805413813234E-06 -3.31064806692974846E-06 -3.39445732857523539E-06
 -3.48038822187565134E-06 -3.56849445568423588E-06 -3.65883109847426726E-06
 -3.75145461275669402E-06 -3.84642289036897428E-06 -3.94379528865715029E-06
 -4.04363266757381881E-06 -4.14599742771519976E-06 -4.25095354932095645E-06
 -4.35856663226132592E-06 -4.46890393703627576E-06 -4.58203442681264560E-06
 -4.69802881052518400E-06 -4.81695958706875519E-06 -4.93890109060902578E-06
 -5.06392953704016695E-06 -5.19212307161843671E-06 -5.32356181780157696E-06
 -5.45832792732436035E-06 -5.59650563154172787E-06 -5.73818129407147654E-06
 -5.88344346476945445E-06 -6.03238293507104624E-06 -6.18509279473331220E-06
 -6.34166849001356400E-06 -6.50220788332037675E-06 -6.66681131437452369E-06
 -6.83558166291806175E-06 -7.00862441301056298E-06 -7.18604771895284344E-06
 -7.36796247287933268E-06 -7.55448237406115076E-06 -7.74572399996352850E-06
 -7.94180687910161684E-06 -8.14285356574031316E-06 -8.34898971648501825E-06
 -8.56034416881065472E-06 -8.77704902157852842E-06 -8.99923971759108006E-06
 -9.22705512823596728E-06 -9.46063764027272328E-06 -9.70013324481586339E-06
 -9.94569162857015401E-06 -1.01974662673750932E-05 -1.04556145221169670E-05
 -1.07202977370683160E-05 -1.09916813407163805E-05 -1.12699349491435296E-05
 -1.15552324720240057E-05 -1.18477522213033264E-05 -1.21476770226285048E-05
 -1.24551943295980847E-05 -1.27704963409038322E-05 -1.30937801204371501E-05
 -1.34252477204350557E-05 -1.37651063077427952E-05 -1.41135682932718060E-05
 -1.44708514647341014E-05 -1.48371791227357975E-05 -1.52127802203145246E-05
 -1.55978895060085703E-05 -1.59927476705462656E-05 -1.63976014972478251E-05
 -1.68127040162332171E-05 -1.72383146625323753E-05 -1.76746994381967397E-05
 -1.81221310785130648E-05 -1.85808892224232322E-05 -1.90512605872567707E-05
 -1.95335391478847717E-05 -2.00280263204076169E-05 -2.05350311504904198E-05
 -2.10548705064643047E-05 -2.15878692773140560E-05 -2.21343605756753140E-05
 -2.26946859459686659E-05 -2.32691955777997205E-05 -2.38582485247590787E-05
 -2.44622129287584338E-05 -2.50814662500428426E-05 -2.57163955030227905E-05
 -2.63673974980730246E-05 -2.70348790894492544E-05 -2.77192574294773525E-05
 -2.84209602291735172E-05 -2.91404260254584333E-05 -2.98781044551315671E-05
 -3.06344565357769206E-05 -3.14099549537754768E-05 -3.22050843596036269E-05
 -3.30203416706024202E-05 -3.38562363814059745E-05 -3.47132908822228204E-05
 -3.55920407851689915E-05 -3.64930352588555253E-05 -3.74168373714402631E-05
 -3.83640244423567967E-05 -3.93351884029404336E-05 -4.03309361661762113E-05
 -4.13518900057986780E-05 -4.23986879449809868E-05 -4.34719841548541529E-05
 -4.45724493631063763E-05 -4.57007712729162198E-05 -4.68576549924807129E-05
 -4.80438234754066999E-05 -4.92600179722394119E-05 -5.05069984934096384E-05
 -5.17855442838882908E-05 -5.30964543098434694E-05 -5.44405477576039644E-05
 -5.58186645452396715E-05 -5.72316658470771426E-05 -5.86804346314780389E-05
 -6.01658762122139545E-05 -6.16889188137826223E-05 -6.32505141510161610E-05
 -6.48516380233426609E-05 -6.64932909240715646E-05 -6.81764986650812389E-05
 -6.99023130172978820E-05 -7.16718123673654601E-05 -7.34861023909127184E-05
 -7.53463167428394831E-05 -7.72536177650487519E-05 -7.92091972120664676E-05
 -8.12142769950007740E-05 -8.32701099443006328E-05 -8.53779805917927485E-05
 -8.75392059724778193E-05 -8.97551364465886710E-05 -9.20271565424196164E-05
 -9.43566858204499394E-05 -9.67451797593009329E-05 -9.91941306640741236E-05
 -1.01705068597637353E-04 -1.04279562335436011E-04 -1.06919220344421919E-04
 -1.09625691786709278E-04 -1.12400667548579126E-04 -1.15245881295471874E-04
 -1.18163110553623209E-04 -1.21154177819012606E-04 -1.24220951694315124E-04
 -1.27365348054558615E-04 -1.30589331242212308E-04 -1.33894915292445666E-04
 -1.37284165189317082E-04 -1.40759198153673088E-04 -1.44322184963552482E-04
 -1.47975351307916953E-04 -1.51720979174545419E-04 -1.55561408272948649E-04
 -1.59499037493191073E-04 -1.63536326401516073E-04 -1.67675796773704818E-04
 -1.71920034167115691E-04 -1.76271689532375350E-04 -1.80733480865719645E-04
 -1.85308194903005216E-04 -1.89998688856437013E-04 -1.94807892195087741E-04
 -1.99738808470305003E-04 -2.04794517187136194E-04 -2.09978175722924101E-04
 -2.15293021294257970E-04 -2.20742372973493759E-04 -2.26329633756083875E-04
 -2.32058292679994952E-04 -2.37931926998515394E-04 -2.43954204407793889E-04
 -2.50128885330478811E-04 -2.56459825256863231E-04 -2.62950977144978180E-04
 -2.69606393881107235E-04 -2.76430230802236136E-04 -2.83426748281989302E-04
 -2.90600314381634674E-04 -2.97955407567795027E-04 -3.05496619498520398E-04
 -3.13228657879441005E-04 -3.21156349391747752E-04 -3.29284642693789410E-04
 -3.37618611498133575E-04 -3.46163457725966368E-04 -3.54924514740766184E-04
 -3.63907250663224888E-04 -3.73117271769444093E-04 -3.82560325974479936E-04
 -3.92242306403363134E-04 -4.02169255051774532E-04 -4.12347366538601257E-04
 -4.22782991952666673E-04 -4.33482642795972111E-04 -4.44452995025847381E-04
 -4.55700893198470662E-04 -4.67233354716273881E-04 -4.79057574181809484E-04
 -4.91180927860722849E-04 -5.03610978256532676E-04 -5.16355478799991217E-04
 -5.29422378655860343E-04 -5.42819827650010750E-04 -5.56556181319821939E-04
 -5.70640006090926671E-04 -5.85080084583425850E-04 -5.99885421050767040E-04
 -6.15065246954564254E-04 -6.30629026678704557E-04 -6.46586463386180656E-04
 -6.62947505022156358E-04 -6.79722350466869076E-04 -6.96921455842050715E-04
 -7.14555540974637121E-04 -7.32635596021629872E-04 -7.51172888260061788E-04
 -7.70178969046107624E-04 -7.89665680947498200E-04 -8.09645165053451054E-04
 -8.30129868466482844E-04 -8.51132551980529422E-04 -8.72666297949919859E-04
 -8.94744518353867910E-04 -9.17380963061224493E-04 -9.40589728300369804E-04
 -9.64385265339235613E-04 -9.88782389380545284E-04 -1.01379628867750418E-03
 -1.03944253387525934E-03 -1.06573708758360593E-03 -1.09269631418651664E-03
 -1.12033698989420804E-03 -1.14867631304359469E-03 -1.17773191465309741E-03
 -1.20752186923792776E-03 -1.23806470589208771E-03 -1.26937941964348593E-03
 -1.30148548308869471E-03 -1.33440285831403957E-03 -1.36815200910982973E-03
 -1.40275391348472782E-03 -1.43823007648738758E-03 -1.47460254334266317E-03
 -1.51189391290981160E-03 -1.55012735147032235E-03 -1.58932660685315611E-03
 -1.62951602290531579E-03 -1.67072055431589906E-03 -1.71296578180189590E-03
 -1.75627792766421182E-03 -1.80068387172256628E-03 -1.84621116763807741E-03
 -1.89288805963256875E-03 -1.94074349961376657E-03 -1.98980716471580579E-03
 -2.04010947526464060E-03 -2.09168161317810223E-03 -2.14455554081059794E-03
 -2.19876402025261531E-03 -2.25434063309541905E-03 -2.31131980067152999E-03
 -2.36973680478174634E-03 -2.42962780891976165E-03 -2.49102988000552122E-03
 -2.55398101063881089E-03 -2.61852014188464904E-03 -2.68468718660234973E-03
 -2.75252305333041625E-03 -2.82206967073949646E-03 -2.89337001266590146E-03
 -2.96646812373843995E-03 -3.04140914561151950E-03 -3.11823934381772914E-03
 -3.19700613525327393E-03 -3.27775811630991133E-03 -3.36054509166725402E-03
 -3.44541810375949492E-03 -3.53242946293084005E-03 -3.62163277829413840E-03
 -3.71308298930767260E-03 -3.80683639808485942E-03 -3.90295070245206405E-03
 -4.00148502976994773E-03 -4.10249997153393307E-03 -4.20605761876960416E-03
 -4.31222159823903793E-03 -4.42105710947428461E-03 -4.53263096265437999E-03
 -4.64701161734243709E-03 -4.76426922209945841E-03 -4.88447565499220641E-03
 -5.00770456501197815E-03 -5.13403141442143537E-03 -5.26353352204697676E-03
 -5.39629010753412026E-03 -5.53238233658362184E-03 -5.67189336718597857E-03
 -5.81490839687225612E-03 -5.96151471099906540E-03 -6.11180173208561005E-03
 -6.26586107022070009E-03 -6.42378657455849010E-03 -6.58567438592042725E-03
 -6.75162299052135383E-03 -6.92173327483786537E-03 -7.09610858163686829E-03
 -7.27485476718210244E-03 -7.45808025963631306E-03 -7.64589611867660512E-03
 -7.83841609634026645E-03 -8.03575669911769409E-03 -8.23803725131001113E-03
 -8.44537995966826785E-03 -8.65790997932922718E-03 -8.87575548106396030E-03
 -9.09904771985452221E-03 -9.32792110481349586E-03 -9.56251327046070757E-03
 -9.80296514937056482E-03 -1.00494210462030772E-02 -1.03020287131300337E-02
 -1.05609394266679736E-02 -1.08263080659305039E-02 -1.10982931923066814E-02
 -1.13770571305746877E-02 -1.16627660514579349E-02 -1.19555900556297563E-02
 -1.22557032591710281E-02 -1.25632838804841298E-02 -1.28785143286645094E-02
 -1.32015812933289484E-02 -1.35326758358988389E-02 -1.38719934823381061E-02
 -1.42197343173355254E-02 -1.45761030799241020E-02 -1.49413092605269245E-02
 -1.53155671994166295E-02 -1.56990961865719966E-02 -1.60921205629130960E-02
 -1.64948698228926625E-02 -1.69075787184162565E-02 -1.73304873640649539E-02
 -1.77638413435916298E-02 -1.82078918176473079E-02 -1.86628956326991523E-02
 -1.91291154310943741E-02 -1.96068197622202844E-02 -2.00962831947047310E-02
 -2.05977864295964486E-02 -2.11116164144583146E-02 -2.16380664582965648E-02
 -2.21774363472581892E-02 -2.27300324610068549E-02 -2.32961678896794096E-02
 -2.38761625513255367E-02 -2.44703433097222221E-02 -2.50790440924465452E-02
 -2.57026060090809090E-02 -2.63413774694156722E-02 -2.69957143015008075E-02
 -2.76659798693904106E-02 -2.83525451904326105E-02 -2.90557890519071542E-02
 -2.97760981268240452E-02 -3.05138670886819438E-02 -3.12694987249700629E-02
 -3.20434040491827596E-02 -3.28360024111013435E-02 -3.36477216050805467E-02
 -3.44789979760505641E-02 -3.53302765229685303E-02 -3.62020109993953856E-02
 -3.70946640108528389E-02 -3.80087071086156678E-02 -3.89446208795663495E-02
 -3.99028950317173448E-02 -4.08840284749824520E-02 -4.18885293967547409E-02
 -4.29169153318101626E-02 -4.39697132260584780E-02 -4.50474594936484812E-02
 -4.61507000668308145E-02 -4.72799904380118430E-02 -4.84358956933890125E-02
 -4.96189905375221604E-02 -5.08298593081618344E-02 -5.20690959806190470E-02
 -5.33373041609117443E-02 -5.46350970668883981E-02 -5.59630974965748054E-02
 -5.73219377827925425E-02 -5.87122597331415988E-02 -6.01347145543907058E-02
 -6.15899627602634128E-02 -6.30786740615583430E-02 -6.46015272374912963E-02
 -6.61592099870828843E-02 -6.77524187593359639E-02 -6.93818585610513211E-02
 -7.10482427408515721E-02 -7.27522927480028503E-02 -7.44947378645926805E-02
 -7.62763149095339460E-02 -7.80977679127998897E-02 -7.99598477582234707E-02
 -8.18633117931142767E-02 -8.38089234028214086E-02 -8.57974515485233069E-02
 -8.78296702661897771E-02 -8.99063581246150184E-02 -9.20282976404319109E-02
 -9.41962746478928747E-02 -9.64110776211167669E-02 -9.86734969464136691E-02
 -1.00984324142199822E-01 -1.03344351023847231E-01 -1.05754368811026955E-01
 -1.08215167174703975E-01 -1.10727533220829913E-01 -1.13292250407846892E-01
 -1.15910097394962011E-01 -1.18581846818050951E-01 -1.21308263989955159E-01
 -1.24090105521827920E-01 -1.26928117861988959E-01 -1.29823035749049909E-01
 -1.32775580575599350E-01 -1.35786458658587655E-01 -1.38856359412707242E-01
 -1.41985953422892053E-01 -1.45175890411979952E-01 -1.48426797099504987E-01
 -1.51739274947504998E-01 -1.55113897789044358E-01 -1.58551209335600546E-01
 -1.62051720558897411E-01 -1.65615906942715080E-01 -1.69244205600455416E-01
 -1.72937012254129135E-01 -1.76694678070428907E-01 -1.80517506349569368E-01
 -1.84405749062593993E-01 -1.88359603232790468E-01 -1.92379207157476945E-01
 -1.96464636465868647E-01 -2.00615900008962039E-01 -2.04832935577772823E-01
 -2.09115605446337088E-01 -2.13463691736102940E-01 -2.17876891598598160E-01
 -2.22354812213532232E-01 -2.26896965599803047E-01 -2.31502763237598469E-01
 -2.36171510499654763E-01 -2.40902400890482371E-01 -2.45694510092995783E-01
 -2.50546789822535754E-01 -2.55458061488947064E-01 -2.60427009668132536E-01
 -2.65452175385362033E-01 -2.70531949213666301E-01 -2.75664564191154760E-01
 -2.80848088562603015E-01 -2.86080418351854660E-01 -2.91359269772780871E-01
 -2.96682171487984037E-01 -3.02046456725975465E-01 -3.07449255269216348E-01
 -3.12887485327498438E-01 -3.18357845313140819E-01 -3.23856805534444681E-01
 -3.29380599829294463E-01 -3.34925217161672173E-01 -3.40486393206388238E-01
 -3.46059601950223727E-01 -3.51640047340616713E-01 -3.57222655016144031E-01
 -3.62802064157517645E-01 -3.68372619499735598E-01 -3.73928363546420506E-01
 -3.79463029039366573E-01 -3.84970031735203777E-01 -3.90442463546178786E-01
 -3.95873086106853456E-01 -4.01254324833311249E-01 -4.06578263546555352E-01
 -4.11836639740300048E-01 -4.17020840570610118E-01 -4.22121899651246191E-01
 -4.27130494756493173E-01 -4.32036946528239318E-01 -4.36831218292693446E-01
 -4.41502917098573533E-01 -4.46041296094931705E-01 -4.50435258373817149E-01
 -4.54673362416360305E-01 -4.58743829262827085E-01 -4.62634551553865458E-01
 -4.66333104603169679E-01 -4.69826759652552273E-01 -4.73102499471156235E-01
 -4.76147036466138984E-01 -4.78946833477250811E-01 -4.81488127435269697E-01
 -4.83756956076694555E-01 -4.85739187859962729E-01 -4.87420555295384916E-01
 -4.88786691881591295E-01 -4.89823172830082643E-01 -4.90515559764577280E-01
 -4.90849449579117247E-01 -4.90810527634441773E-01 -4.90384625475829949E-01
 -4.89557783240792965E-01 -4.88316316851854726E-01 -4.86646890193322079E-01
 -4.84536592385469034E-01 -4.81973020254024664E-01 -4.78944366074765038E-01
 -4.75439510645746577E-01 -4.71448121708705092E-01 -4.66960757728686782E-01
 -4.61968976943954446E-01 -4.56465451543253409E-01 -4.50444086894475459E-01
 -4.43900145589036454E-01 -4.36830376025161948E-01 -4.29233145186414311E-01
 -4.21108575195247803E-01 -4.12458683140656146E-01 -4.03287523617956389E-01
 -3.93601333203526027E-01 -3.83408676093776934E-01 -3.72720590049859135E-01
 -3.61550731589602325E-01 -3.49915519269267450E-01 -3.37834273765008075E-01
 -3.25329353324245396E-01 -3.12426283017373241E-01 -2.99153876072342118E-01
 -2.85544345341205652E-01 -2.71633402939580215E-01 -2.57460345863787132E-01
 -2.43068125224346593E-01 -2.28503396595424874E-01 -2.13816548832528819E-01
 -1.99061708571653978E-01 -1.84296717478368427E-01 -1.69583079195770509E-01
 -1.54985872957904586E-01 -1.40573630634161867E-01 -1.26418173969810255E-01
 -1.12594408787911257E-01 -9.91800729468417797E-02 -8.62554349255652275E-02
 -7.39029400347784859E-02 -6.22068013137589415E-02 -5.12525327369732081E-02
 -4.11264226608748784E-02 -3.19149454156628307E-02 -2.37041098241511025E-02
 -1.65787439517313465E-02 -1.06217161379602611E-02 -5.91309289856445288E-03
 -2.52921086890321375E-03 -5.40977991755687117E-04  8.13887942640212193E-06
  6.01724003684678787E-07  3.90309650815877481E-08  2.21970557423713787E-09
  1.05454567503893964E-10  3.47288820217612673E-12 -1.16738230325543461E-14
 -1.42602142100391794E-14 -1.60593955495136643E-15 -1.33334456990730776E-16
 -9.44707050467095880E-18 -5.89542234397429367E-19  0.00000000000000000E+00
  0.00000000000000000E+00  0.00000000000000000E+00  0.00000000000000000E+00
  0.00000000000000000E+00  0.00000000000000000E+00  0.00000000000000000E+00
  0.00000000000000000E+00  0.00000000000000000E+00  0.00000000000000000E+00
  0.00000000000000000E+00  0.00000000000000000E+00  0.00000000000000000E+00
  0.00000000000000000E+00  0.00000000000000000E+00  0.00000000000000000E+00
  0.00000000000000000E+00  0.00000000000000000E+00  0.00000000000000000E+00
  0.00000000000000000E+00  0.00000000000000000E+00  0.00000000000000000E+00
  0.00000000000000000E+00  0.00000000000000000E+00  0.00000000000000000E+00
  0.00000000000000000E+00  0.00000000000000000E+00  0.00000000000000000E+00
  0.00000000000000000E+00  0.00000000000000000E+00  0.00000000000000000E+00
  0.00000000000000000E+00  0.00000000000000000E+00  0.00000000000000000E+00
  0.00000000000000000E+00  0.00000000000000000E+00  0.00000000000000000E+00
  0.00000000000000000E+00  0.00000000000000000E+00  0.00000000000000000E+00
  0.00000000000000000E+00  0.00000000000000000E+00  0.00000000000000000E+00
  0.00000000000000000E+00  0.00000000000000000E+00  0.00000000000000000E+00
  0.00000000000000000E+00  0.00000000000000000E+00  0.00000000000000000E+00
  0.00000000000000000E+00  0.00000000000000000E+00  0.00000000000000000E+00
  0.00000000000000000E+00  0.00000000000000000E+00  0.00000000000000000E+00
  0.00000000000000000E+00  0.00000000000000000E+00  0.00000000000000000E+00
  0.00000000000000000E+00  0.00000000000000000E+00  0.00000000000000000E+00
  0.00000000000000000E+00  0.00000000000000000E+00  0.00000000000000000E+00
  0.00000000000000000E+00  0.00000000000000000E+00  0.00000000000000000E+00
  0.00000000000000000E+00  0.00000000000000000E+00  0.00000000000000000E+00
  0.00000000000000000E+00  0.00000000000000000E+00  0.00000000000000000E+00
  0.00000000000000000E+00  0.00000000000000000E+00  0.00000000000000000E+00
  0.00000000000000000E+00  0.00000000000000000E+00  0.00000000000000000E+00
  0.00000000000000000E+00  0.00000000000000000E+00  0.00000000000000000E+00
  0.00000000000000000E+00  0.00000000000000000E+00  0.00000000000000000E+00
  0.00000000000000000E+00  0.00000000000000000E+00  0.00000000000000000E+00
  0.00000000000000000E+00  0.00000000000000000E+00  0.00000000000000000E+00
  0.00000000000000000E+00  0.00000000000000000E+00  0.00000000000000000E+00
  0.00000000000000000E+00  0.00000000000000000E+00  0.00000000000000000E+00
  0.00000000000000000E+00  0.00000000000000000E+00  0.00000000000000000E+00
  0.00000000000000000E+00  0.00000000000000000E+00  0.00000000000000000E+00
  0.00000000000000000E+00  0.00000000000000000E+00  0.00000000000000000E+00
  0.00000000000000000E+00  0.00000000000000000E+00  0.00000000000000000E+00
  0.00000000000000000E+00  0.00000000000000000E+00  0.00000000000000000E+00
  0.00000000000000000E+00  0.00000000000000000E+00  0.00000000000000000E+00
  0.00000000000000000E+00  0.00000000000000000E+00  0.00000000000000000E+00
  0.00000000000000000E+00  0.00000000000000000E+00  0.00000000000000000E+00
  0.00000000000000000E+00  0.00000000000000000E+00  0.00000000000000000E+00
  0.00000000000000000E+00  0.00000000000000000E+00  0.00000000000000000E+00
  0.00000000000000000E+00  0.00000000000000000E+00  0.00000000000000000E+00
  0.00000000000000000E+00  0.00000000000000000E+00  0.00000000000000000E+00
  0.00000000000000000E+00  0.00000000000000000E+00  0.00000000000000000E+00
  0.00000000000000000E+00  0.00000000000000000E+00  0.00000000000000000E+00
  0.00000000000000000E+00  0.00000000000000000E+00  0.00000000000000000E+00
  0.00000000000000000E+00  0.00000000000000000E+00  0.00000000000000000E+00
  0.00000000000000000E+00  0.00000000000000000E+00  0.00000000000000000E+00
  0.00000000000000000E+00  0.00000000000000000E+00  0.00000000000000000E+00
  0.00000000000000000E+00  0.00000000000000000E+00  0.00000000000000000E+00
  0.00000000000000000E+00  0.00000000000000000E+00  0.00000000000000000E+00
  0.00000000000000000E+00  0.00000000000000000E+00  0.00000000000000000E+00
  0.00000000000000000E+00  0.00000000000000000E+00  0.00000000000000000E+00
  0.00000000000000000E+00  0.00000000000000000E+00  0.00000000000000000E+00
  0.00000000000000000E+00
                       </PP_QIJL.3.4.0>
 <PP_QIJL.3.4.2 type="real" size="   961" columns="3" first_index=" 3" second_index=" 4" composite_index=" 9" angular_momentum="2">
 -6.63246353590600394E-17 -6.97251685825377185E-17 -7.33000668968171717E-17
 -7.70582406039398766E-17 -8.10090899461757740E-17 -8.51625223317580218E-17
 -8.95289073016807104E-17 -9.41191392611651119E-17 -9.89447317947275209E-17
 -1.04017750554800129E-16 -1.09350843700921216E-16 -1.14957377313934092E-16
 -1.20851383085575275E-16 -1.27047558133667865E-16 -1.33561418769111004E-16
 -1.40409274469429737E-16 -1.47608205107921718E-16 -1.55176231996787997E-16
 -1.63132303673394289E-16 -1.71496266992609061E-16 -1.80289062959972358E-16
 -1.89532697894612731E-16 -1.99250233785012867E-16 -2.09466011475281451E-16
 -2.20205578485222698E-16 -2.31495742476997104E-16 -2.43364791875763222E-16
 -2.55842376679412981E-16 -2.68959681219136305E-16 -2.82749557065574191E-16
 -2.97246425393061188E-16 -3.12486574579819304E-16 -3.28508118008298118E-16
 -3.45351070400872227E-16 -3.63057615804439983E-16 -3.81671967883359419E-16
 -4.01240707038947738E-16 -4.21812770718626488E-16 -4.43439555440633932E-16
 -4.66175209044546156E-16 -4.90076504238258758E-16 -5.15203275303026985E-16
 -5.41618308597988793E-16 -5.69387668384117333E-16 -5.98580811354731055E-16
 -6.29270687898249567E-16 -6.61534108434044516E-16 -6.95451663486909550E-16
 -7.31108256095116904E-16 -7.68592955341525587E-16 -8.07999578178173260E-16
 -8.49426584593022323E-16 -8.92977631268661688E-16 -9.38761560183701062E-16
 -9.86892905255706717E-16 -1.03749197581412936E-15 -1.09068533609093491E-15
 -1.14660595825244910E-15 -1.20539371339322343E-15 -1.26719555677334174E-15
 -1.33216607708311721E-15 -1.40046767283588640E-15 -1.47227120704736417E-15
 -1.54775613939938796E-15 -1.62711132061053563E-15 -1.71053507060716561E-15
 -1.79823610515322807E-15 -1.89043361504225649E-15 -1.98735823283302151E-15
 -2.08925225948878083E-15 -2.19637050480710984E-15 -2.30898084524042089E-15
 -2.42736479368831166E-15 -2.55181847597920121E-15 -2.68265297645041719E-15
 -2.82019554176397223E-15 -2.96479006357259070E-15 -3.11679807111377657E-15
 -3.27659975312270755E-15 -3.44459458316698761E-15 -3.62120271981825518E-15
 -3.80686577024382295E-15 -4.00204791048073972E-15 -4.20723730795392575E-15
 -4.42294697410669506E-15 -4.64971627632670630E-15 -4.88811234691053280E-15
 -5.13873121078207864E-15 -5.40219955573491089E-15 -5.67917626735121965E-15
 -5.97035384527742165E-15 -6.27646038741876208E-15 -6.59826140131433042E-15
 -6.93656149373142388E-15 -7.29220655098154023E-15 -7.66608596292600326E-15
 -8.05913460711697413E-15 -8.47233522296851672E-15 -8.90672109162352022E-15
 -9.36337844705017750E-15 -9.84344911424788147E-15 -1.03481334733642359E-14
 -1.08786935743840679E-14 -1.14364561135879417E-14 -1.20228157346739346E-14
 -1.26392385997466038E-14 -1.32872661515712115E-14 -1.39685188233620315E-14
 -1.46847000756887992E-14 -1.54376006760426900E-14 -1.62291032872740434E-14
 -1.70611871247146615E-14 -1.79359328404834083E-14 -1.88555277323351483E-14
 -1.98222712225306081E-14 -2.08385806720063046E-14 -2.19069974213607275E-14
 -2.30301930858167454E-14 -2.42109762378052907E-14 -2.54522994345394708E-14
 -2.67572666052346956E-14 -2.81291408301118234E-14 -2.95713525280424211E-14
 -3.10875079952613983E-14 -3.26813984164734352E-14 -3.43570093473918447E-14
 -3.61185306829528021E-14 -3.79703671361321912E-14 -3.99171492535756122E-14
 -4.19637449955980170E-14 -4.41152719098284448E-14 -4.63771099335806475E-14
 -4.87549148432953047E-14 -5.12546323905416981E-14 -5.38825131699627029E-14
 -5.66451282495851115E-14 -5.95493856023348952E-14 -6.26025473798723292E-14
 -6.58122480719605718E-14 -6.91865135967982245E-14 -7.27337813700738521E-14
 -7.64629214029379272E-14 -8.03832584816653682E-14 -8.45045954844721525E-14
 -8.88372378937897070E-14 -9.33920195652812559E-14 -9.81803298180080679E-14
 -1.03214141913454457E-13 -1.08506042994565186E-13 -1.14069265559586965E-13
 -1.19917720549318295E-13 -1.26066032130376084E-13 -1.32529574261306154E-13
 -1.39324509138389145E-13 -1.46467827625272130E-13 -1.53977391731972687E-13
 -1.61871979275541162E-13 -1.70171330832427405E-13 -1.78896199096809449E-13
 -1.88068400767882542E-13 -1.97710871095362503E-13 -2.07847721219000175E-13
 -2.18504298451279000E-13 -2.29707249752755155E-13 -2.41484588373395108E-13
 -2.53865763818379923E-13 -2.66881735465350377E-13 -2.80565049952758874E-13
 -2.94949922530224713E-13 -3.10072322736643901E-13 -3.25970064547166507E-13
 -3.42682900665637013E-13 -3.60252621838903799E-13 -3.78723161289324071E-13
 -3.98140704718980534E-13 -4.18553806271251327E-13 -4.40013509444948679E-13
 -4.62573474514699540E-13 -4.86290112665805188E-13 -5.11222727868874788E-13
 -5.37433664923791622E-13 -5.64988464658361625E-13 -5.93956027758881758E-13
 -6.24408788320406929E-13 -6.56422894434835671E-13 -6.90078397585627115E-13
 -7.25459453323221543E-13 -7.62654533276356198E-13 -8.01756644467089951E-13
 -8.42863561420496324E-13 -8.86078073121276733E-13 -9.31508238682608902E-13
 -9.79267655887447088E-13 -1.02947574818084721E-12 -1.08225806246929594E-12
 -1.13774658044381527E-12 -1.19608005246227123E-12 -1.25740434298573939E-12
 -1.32187279265559471E-12 -1.38964660699610167E-12 -1.46089525540002290E-12
 -1.53579689465898446E-12 -1.61453881932612022E-12 -1.69731792303131872E-12
 -1.78434119647518867E-12 -1.87582624339629118E-12 -1.97200182117400080E-12
 -2.07310842063465220E-12 -2.17939885772903057E-12 -2.29113891447100141E-12
 -2.40860799785110577E-12 -2.53209983974312439E-12 -2.66192323489948621E-12
 -2.79840280523515327E-12 -2.94187982285402195E-12 -3.09271304978891445E-12
 -3.25127964984208207E-12 -3.41797611674580794E-12 -3.59321928002893369E-12
 -3.77744733369019018E-12 -3.97112094463812186E-12 -4.17472439254688571E-12
 -4.38876679246666447E-12 -4.61378335611335957E-12 -4.85033674250860996E-12
 -5.09901845139684485E-12 -5.36045031750404287E-12 -5.63528604801822515E-12
 -5.92421287707143585E-12 -6.22795326181647396E-12 -6.54726671315540043E-12
 -6.88295167005848444E-12 -7.23584751949795999E-12 -7.60683667578694161E-12
 -7.99684679986254622E-12 -8.40685311533740282E-12 -8.83788083953517973E-12
 -9.29100776550449682E-12 -9.76736693035179722E-12 -1.02681494776002561E-11
 -1.07946076118676196E-11 -1.13480577402638159E-11 -1.19298837714608797E-11
 -1.25415405524912533E-11 -1.31845575382068140E-11 -1.38605425899378997E-11
 -1.45711860022255851E-11 -1.53182647463546959E-11 -1.61036468824827152E-11
 -1.69292962578947628E-11 -1.77972774114970330E-11 -1.87097607156373907E-11
 -1.96690278366845807E-11 -2.06774774193095824E-11 -2.17376310740018199E-11
 -2.28521397160281865E-11 -2.40237901671571091E-11 -2.52555121174893569E-11
 -2.65503854849828697E-11 -2.79116480903407780E-11 -2.93427037433155897E-11
 -3.08471307879653558E-11 -3.24286910316723694E-11 -3.40913391333266379E-11
 -3.58392325196804770E-11 -3.76767417825994794E-11 -3.96084615789508932E-11
 -4.16392221294833193E-11 -4.37741013260036441E-11 -4.60184373969637133E-11
 -4.83778422470514746E-11 -5.08582155158428416E-11 -5.34657593342898952E-11
 -5.62069938037538898E-11 -5.90887732991584333E-11 -6.21183036394663033E-11
 -6.53031600958697017E-11 -6.86513063104765895E-11 -7.21711142095808306E-11
 -7.58713849672484269E-11 -7.97613710054573120E-11 -8.38507991054142840E-11
 -8.81498947272209448E-11 -9.26694075974322331E-11 -9.74206386030460522E-11
 -1.02415468018093970E-10 -1.07666385205008962E-10 -1.13186519845077853E-10
 -1.18989674797915428E-10 -1.25090360603286168E-10 -1.31503831742920977E-10
 -1.38246124781417387E-10 -1.45334098465696408E-10 -1.52785475907017502E-10
 -1.60618888885406103E-10 -1.68853924416369072E-10 -1.77511173724451981E-10
 -1.86612283727961741E-10 -1.96180011177801259E-10 -2.06238279576506603E-10
 -2.16812238967958105E-10 -2.27928328815960320E-10 -2.39614344111005093E-10
 -2.51899504866177682E-10 -2.64814529187191656E-10 -2.78391710098380441E-10
 -2.92664996260304397E-10 -3.07670076845779253E-10 -3.23444470772831620E-10
 -3.40027620512346427E-10 -3.57460990705017140E-10 -3.75788171847391077E-10
 -3.95054989293907973E-10 -4.15309617809529525E-10 -4.36602702015481040E-10
 -4.58987483012966894E-10 -4.82519931498377712E-10 -5.07258887702729685E-10
 -5.33266208505272672E-10 -5.60606922100099411E-10 -5.89349390592399673E-10
 -6.19565480897955311E-10 -6.51330744421289113E-10 -6.84724605947817387E-10
 -7.19830562219491844E-10 -7.56736390690305136E-10 -7.95534368983511214E-10
 -8.36321505599124898E-10 -8.79199782448807174E-10 -9.24276409835814234E-10
 -9.71664094495507585E-10 -1.02148132136080181E-09 -1.07385264978499486E-09
 -1.12890902495066703E-09 -1.18678810524226996E-09 -1.24763460640064518E-09
 -1.31160066331969784E-09 -1.37884621038955194E-09 -1.44953938133674793E-09
 -1.52385692956095230E-09 -1.60198467001865996E-09 -1.68411794375841143E-09
 -1.77046210627346552E-09 -1.86123304088718832E-09 -1.95665769844092402E-09
 -2.05697466465433547E-09 -2.16243475656980696E-09 -2.27330164957028888E-09
 -2.38985253653754243E-09 -2.51237882079818512E-09 -2.64118684458912115E-09
 -2.77659865486290972E-09 -2.91895280834675675E-09 -3.06860521786687700E-09
 -3.22593004205322194E-09 -3.39132062064769038E-09 -3.56519045775307735E-09
 -3.74797425547964798E-09 -3.94012900057209611E-09 -4.14213510673213268E-09
 -4.35449761549078201E-09 -4.57774745863107739E-09 -4.81244278531521979E-09
 -5.05917035723201251E-09 -5.31854701525044510E-09 -5.59122122124337582E-09
 -5.87787467893362755E-09 -6.17922403781167207E-09 -6.49602268438150624E-09
 -6.82906262520995333E-09 -7.17917646648316698E-09 -7.54723949501510185E-09
 -7.93417186590651886E-09 -8.34094090231923848E-09 -8.76856351311018120E-09
 -9.21810873436369170E-09 -9.69070040117014889E-09 -1.01875199563242391E-08
 -1.07098094029574140E-08 -1.12588744084790974E-08 -1.18360875675781686E-08
 -1.24428918324337034E-08 -1.30808041187011328E-08 -1.37514190962782164E-08
 -1.44564131743173240E-08 -1.51975486904339092E-08 -1.59766783145718583E-08
 -1.67957496785210294E-08 -1.76568102426459810E-08 -1.85620124119767729E-08
 -1.95136189144323706E-08 -2.05140084546047204E-08 -2.15656816572170396E-08
 -2.26712673150916282E-08 -2.38335289572242296E-08 -2.50553717533571690E-08
 -2.63398497722858245E-08 -2.76901736120127843E-08 -2.91097184207913503E-08
 -3.06020323290764180E-08 -3.21708453134224110E-08 -3.38200785144470548E-08
 -3.55538540321100678E-08 -3.73765052227460761E-08 -3.92925875235414071E-08
 -4.13068898314586070E-08 -4.34244464649946204E-08 -4.56505497386092176E-08
 -4.79907631811887350E-08 -5.04509354315128108E-08 -5.30372148453779664E-08
 -5.57560648508059235E-08 -5.86142800896258014E-08 -6.16190033856776871E-08
 -6.47777435819444112E-08 -6.80983942910794629E-08 -7.15892536060746372E-08
 -7.52590448201987846E-08 -7.91169382078521640E-08 -8.31725739206207337E-08
 -8.74360860555873285E-08 -9.19181279559481498E-08 -9.66298988069940303E-08
 -1.01583171593353252E-07 -1.06790322487506526E-07 -1.12264361742719428E-07
 -1.18018966167304970E-07 -1.24068513261093119E-07 -1.30428117099113743E-07
 -1.37113666051839712E-07 -1.44141862435901230E-07 -1.51530264193977916E-07
 -1.59297328707611561E-07 -1.67462458851986861E-07 -1.76046051407279448E-07
 -1.85069547947037866E-07 -1.94555488330197882E-07 -2.04527566929796646E-07
 -2.15010691738243645E-07 -2.26031046496151510E-07 -2.37616155999884736E-07
 -2.49794954749249121E-07 -2.62597859105156915E-07 -2.76056843138331102E-07
 -2.90205518356947463E-07 -3.05079217511273158E-07 -3.20715082683487273E-07
 -3.37152157881496138E-07 -3.54431486366696678E-07 -3.72596212957350636E-07
 -3.91691691561554603E-07 -4.11765598206712574E-07 -4.32868049846012803E-07
 -4.55051729236692889E-07 -4.78372016199878886E-07 -5.02887125588602214E-07
 -5.28658252307021368E-07 -5.55749723733375086E-07 -5.84229159931016109E-07
 -6.14167642043705228E-07 -6.45639889291690272E-07 -6.78724445006981043E-07
 -7.13503872168478023E-07 -7.50064958921063805E-07 -7.88498934587302785E-07
 -8.28901696706269970E-07 -8.71374049661129779E-07 -9.16021955485609829E-07
 -9.62956797469629811E-07 -1.01229565722130562E-06 -1.06416160586126127E-06
 -1.11868401006268848E-06 -1.17599885370702837E-06 -1.23624907594428265E-06
 -1.29958492649179344E-06 -1.36616433904801921E-06 -1.43615332374217100E-06
 -1.50972637958716917E-06 -1.58706692795238606E-06 -1.66836776812392892E-06
 -1.75383155607431969E-06 -1.84367130762347260E-06 -1.93811092724104446E-06
 -2.03738576374793421E-06 -2.14174319431293670E-06 -2.25144323818388968E-06
 -2.36675920165408949E-06 -2.48797835584743538E-06 -2.61540264898561839E-06
 -2.74934945488434148E-06 -2.89015235951358780E-06 -3.03816198754928292E-06
 -3.19374687094058561E-06 -3.35729436163203079E-06 -3.52921159068282283E-06
 -3.70992647604407933E-06 -3.89988878153767152E-06 -4.09957122961169270E-06
 -4.30947067058025876E-06 -4.53010931119952077E-06 -4.76203600557462922E-06
 -5.00582761154220347E-06 -5.26209041583012241E-06 -5.53146163146149293E-06
 -5.81461097105369286E-06 -6.11224229988824526E-06 -6.42509537259591759E-06
 -6.75394765777025048E-06 -7.09961625496535461E-06 -7.46295990868823735E-06
 -7.84488112425813899E-06 -8.24632839064791498E-06 -8.66829851567586992E-06
 -9.11183907918329087E-06 -9.57805101011151675E-06 -1.00680912937211476E-05
 -1.05831758155354601E-05 -1.11245823485181191E-05 -1.16936536909290722E-05
 -1.22918009623771538E-05 -1.29205070659267869E-05 -1.35813303245451193E-05
 -1.42759083005827045E-05 -1.50059618074079701E-05 -1.57732991227628102E-05
 -1.65798204138814753E-05 -1.74275223850792355E-05 -1.83185031585495709E-05
 -1.92549673998201213E-05 -2.02392317004250550E-05 -2.12737302303711977E-05
 -2.23610206737396857E-05 -2.35037904614237488E-05 -2.47048633156813698E-05
 -2.59672061218906914E-05 -2.72939361436408313E-05 -2.86883285982823127E-05
 -3.01538246105430203E-05 -3.16940395620364862E-05 -3.33127718570571600E-05
 -3.50140121248270286E-05 -3.68019528795042870E-05 -3.86809986603411926E-05
 -4.06557766754393380E-05 -4.27311479736666125E-05 -4.49122191704606834E-05
 -4.72043547548087918E-05 -4.96131900054713523E-05 -5.21446445446636616E-05
 -5.48049365617049925E-05 -5.76005977386257240E-05 -6.05384889115030003E-05
 -6.36258165029761130E-05 -6.68701497630301041E-05 -7.02794388568561787E-05
 -7.38620338403955112E-05 -7.76267045667901291E-05 -8.15826615671547291E-05
 -8.57395779508236876E-05 -9.01076123759341781E-05 -9.46974331403217101E-05
 -9.95202434456590268E-05 -1.04587807890243046E-04 -1.09912480248306713E-04
 -1.15507232596314310E-04 -1.21385685849538597E-04 -1.27562141776345366E-04
 -1.34051616555223374E-04 -1.40869875947762982E-04 -1.48033472164329252E-04
 -1.55559782499567386E-04 -1.63467049819262795E-04 -1.71774424983581528E-04
 -1.80502011295322968E-04 -1.89670911065554018E-04 -1.99303274394043307E-04
 -2.09422350264916316E-04 -2.20052540055741379E-04 -2.31219453575288124E-04
 -2.42949967741788080E-04 -2.55272288018757950E-04 -2.68216012730692851E-04
 -2.81812200385770956E-04 -2.96093440137681441E-04 -3.11093925524189756E-04
 -3.26849531628384368E-04 -3.43397895801594421E-04 -3.60778502104786589E-04
 -3.79032769631634260E-04 -3.98204144875652041E-04 -4.18338198312097028E-04
 -4.39482725371422803E-04 -4.61687851987180960E-04 -4.85006144907570980E-04
 -5.09492726969972671E-04 -5.35205397535534299E-04 -5.62204758284662017E-04
 -5.90554344601202904E-04 -6.20320762762550330E-04 -6.51573833163046059E-04
 -6.84386739805132021E-04 -7.18836186299205812E-04 -7.55002558619575570E-04
 -7.92970094873174142E-04 -8.32827062342563255E-04 -8.74665942050374288E-04
 -9.18583621136299347E-04 -9.64681593321056459E-04 -1.01306616773808662E-03
 -1.06384868642060660E-03 -1.11714575073611536E-03 -1.17307945706448592E-03
 -1.23177764202109957E-03 -1.29337413753323059E-03 -1.35800903604960197E-03
 -1.42582896620783387E-03 -1.49698737926734992E-03 -1.57164484660884431E-03
 -1.64996936860353316E-03 -1.73213669515232200E-03 -1.81833065819029692E-03
 -1.90874351644689205E-03 -2.00357631274920324E-03 -2.10303924411722959E-03
 -2.20735204492501086E-03 -2.31674438337795994E-03 -2.43145627152874114E-03
 -2.55173848903951202E-03 -2.67785302087562068E-03 -2.81007350908957796E-03
 -2.94868571882449075E-03 -3.09398801863226564E-03 -3.24629187515462683E-03
 -3.40592236219084072E-03 -3.57321868411973132E-03 -3.74853471358551921E-03
 -3.93223954330102106E-03 -4.12471805175591930E-03 -4.32637148254540367E-03
 -4.53761803695298081E-03 -4.75889347931614509E-03 -4.99065175465514179E-03
 -5.23336561791386268E-03 -5.48752727402025426E-03 -5.75364902787701797E-03
 -6.03226394324874252E-03 -6.32392650936186053E-03 -6.62921331387150269E-03
 -6.94872372066763968E-03 -7.28308055074375522E-03 -7.63293076433989564E-03
 -7.99894614219756779E-03 -8.38182396347030706E-03 -8.78228767768469802E-03
 -9.20108756783535181E-03 -9.63900140139820234E-03 -1.00968350657260411E-02
 -1.05754231839281180E-02 -1.10756297068279452E-02 -1.15983484767406449E-02
 -1.21445037578793071E-02 -1.27150507277324267E-02 -1.33109759235234288E-02
 -1.39332976372729435E-02 -1.45830662524487273E-02 -1.52613645146218238E-02
 -1.59693077278850043E-02 -1.67080438678916601E-02 -1.74787536029705065E-02
 -1.82826502126207692E-02 -1.91209793922551760E-02 -1.99950189326630404E-02
 -2.09060782616876766E-02 -2.18554978347648074E-02 -2.28446483600874377E-02
 -2.38749298430536612E-02 -2.49477704333742716E-02 -2.60646250597613774E-02
 -2.72269738326327525E-02 -2.84363201956113615E-02 -2.96941888058887306E-02
 -3.10021231221744159E-02 -3.23616826778548514E-02 -3.37744400158767402E-02
 -3.52419772602011530E-02 -3.67658822977092181E-02 -3.83477445472936995E-02
 -3.99891502849525488E-02 -4.16916774964287140E-02 -4.34568902278487795E-02
 -4.52863324035616757E-02 -4.71815210795397191E-02 -4.91439390999539108E-02
 -5.11750271224865605E-02 -5.32761749798278603E-02 -5.54487123481377381E-02
 -5.76938986827710484E-02 -6.00129123889958510E-02 -6.24068391946712084E-02
 -6.48766596922301514E-02 -6.74232360183612267E-02 -7.00472976411333492E-02
 -7.27494262233024935E-02 -7.55300395407320774E-02 -7.83893744358792194E-02
 -8.13274687793592160E-02 -8.43441424272436263E-02 -8.74389771642069130E-02
 -9.06112956282716098E-02 -9.38601392196806716E-02 -9.71842450037983946E-02
 -1.00582021622842119E-01 -1.04051524256954436E-01 -1.07590428671679991E-01
 -1.11196004399091761E-01 -1.14865087123813214E-01 -1.18594050357729061E-01
 -1.22378776504748002E-01 -1.26214627436488425E-01 -1.30096414720202058E-01
 -1.34018369661899589E-01 -1.37974113370341961E-01 -1.41956627049758866E-01
 -1.45958222770361301E-01 -1.49970515001886850E-01 -1.53984393228157934E-01
 -1.57989995998465693E-01 -1.61976686812001031E-01 -1.65933032274483000E-01
 -1.69846783014771574E-01 -1.73704857894121545E-01 -1.77493332085418759E-01
 -1.81197429660400949E-01 -1.84801521375090205E-01 -1.88289128399142802E-01
 -1.91642932791990683E-01 -1.94844795586702979E-01 -1.97875783411893991E-01
 -2.00716204621822852E-01 -2.03345655940211811E-01 -2.05743080733122002E-01
 -2.07886840041016485E-01 -2.09754797551048894E-01 -2.11324419731103746E-01
 -2.12572892378677436E-01 -2.13477254863026933E-01 -2.14014553393027912E-01
 -2.14162014500711206E-01 -2.13897240002590971E-01 -2.13198424726061375E-01
 -2.12044598129710909E-01 -2.10415890885056911E-01 -2.08293827369941592E-01
 -2.05661644872396021E-01 -2.02504640138410102E-01 -1.98810543724397104E-01
 -1.94569921972508358E-01 -1.89776606575717599E-01 -1.84428151156991238E-01
 -1.78526313772412987E-01 -1.72077563784469506E-01 -1.65093610977436023E-01
 -1.57591954140306967E-01 -1.49596445701502073E-01 -1.41137868086774865E-01
 -1.32254516261590765E-01 -1.22992780739850621E-01 -1.13407723779771374E-01
 -1.03563640430611656E-01 -9.35345949299510454E-02 -8.34049216905284330E-02
 -7.32696788018323414E-02 -6.32350406926365793E-02 -5.34186148661169313E-02
 -4.39496665041135132E-02 -3.49692336089482692E-02 -2.66301136218307956E-02
 -1.90967013465885398E-02 -1.25446569691281193E-02 -7.16038167003020965E-03
 -3.14024599568737918E-03 -6.88653675782453659E-04  1.05833046229153055E-05
  7.82445358418377331E-07  5.07534970778426265E-08  2.88637035082845482E-09
  1.37126716504861480E-10  4.51593294842635009E-12 -1.51799306507410903E-14
 -1.85431166953146644E-14 -2.08826628649942795E-15 -1.73380031959473778E-16
 -1.22843968692737863E-17 -7.66604925299930146E-19  0.00000000000000000E+00
  0.00000000000000000E+00  0.00000000000000000E+00  0.00000000000000000E+00
  0.00000000000000000E+00  0.00000000000000000E+00  0.00000000000000000E+00
  0.00000000000000000E+00  0.00000000000000000E+00  0.00000000000000000E+00
  0.00000000000000000E+00  0.00000000000000000E+00  0.00000000000000000E+00
  0.00000000000000000E+00  0.00000000000000000E+00  0.00000000000000000E+00
  0.00000000000000000E+00  0.00000000000000000E+00  0.00000000000000000E+00
  0.00000000000000000E+00  0.00000000000000000E+00  0.00000000000000000E+00
  0.00000000000000000E+00  0.00000000000000000E+00  0.00000000000000000E+00
  0.00000000000000000E+00  0.00000000000000000E+00  0.00000000000000000E+00
  0.00000000000000000E+00  0.00000000000000000E+00  0.00000000000000000E+00
  0.00000000000000000E+00  0.00000000000000000E+00  0.00000000000000000E+00
  0.00000000000000000E+00  0.00000000000000000E+00  0.00000000000000000E+00
  0.00000000000000000E+00  0.00000000000000000E+00  0.00000000000000000E+00
  0.00000000000000000E+00  0.00000000000000000E+00  0.00000000000000000E+00
  0.00000000000000000E+00  0.00000000000000000E+00  0.00000000000000000E+00
  0.00000000000000000E+00  0.00000000000000000E+00  0.00000000000000000E+00
  0.00000000000000000E+00  0.00000000000000000E+00  0.00000000000000000E+00
  0.00000000000000000E+00  0.00000000000000000E+00  0.00000000000000000E+00
  0.00000000000000000E+00  0.00000000000000000E+00  0.00000000000000000E+00
  0.00000000000000000E+00  0.00000000000000000E+00  0.00000000000000000E+00
  0.00000000000000000E+00  0.00000000000000000E+00  0.00000000000000000E+00
  0.00000000000000000E+00  0.00000000000000000E+00  0.00000000000000000E+00
  0.00000000000000000E+00  0.00000000000000000E+00  0.00000000000000000E+00
  0.00000000000000000E+00  0.00000000000000000E+00  0.00000000000000000E+00
  0.00000000000000000E+00  0.00000000000000000E+00  0.00000000000000000E+00
  0.00000000000000000E+00  0.00000000000000000E+00  0.00000000000000000E+00
  0.00000000000000000E+00  0.00000000000000000E+00  0.00000000000000000E+00
  0.00000000000000000E+00  0.00000000000000000E+00  0.00000000000000000E+00
  0.00000000000000000E+00  0.00000000000000000E+00  0.00000000000000000E+00
  0.00000000000000000E+00  0.00000000000000000E+00  0.00000000000000000E+00
  0.00000000000000000E+00  0.00000000000000000E+00  0.00000000000000000E+00
  0.00000000000000000E+00  0.00000000000000000E+00  0.00000000000000000E+00
  0.00000000000000000E+00  0.00000000000000000E+00  0.00000000000000000E+00
  0.00000000000000000E+00  0.00000000000000000E+00  0.00000000000000000E+00
  0.00000000000000000E+00  0.00000000000000000E+00  0.00000000000000000E+00
  0.00000000000000000E+00  0.00000000000000000E+00  0.00000000000000000E+00
  0.00000000000000000E+00  0.00000000000000000E+00  0.00000000000000000E+00
  0.00000000000000000E+00  0.00000000000000000E+00  0.00000000000000000E+00
  0.00000000000000000E+00  0.00000000000000000E+00  0.00000000000000000E+00
  0.00000000000000000E+00  0.00000000000000000E+00  0.00000000000000000E+00
  0.00000000000000000E+00  0.00000000000000000E+00  0.00000000000000000E+00
  0.00000000000000000E+00  0.00000000000000000E+00  0.00000000000000000E+00
  0.00000000000000000E+00  0.00000000000000000E+00  0.00000000000000000E+00
  0.00000000000000000E+00  0.00000000000000000E+00  0.00000000000000000E+00
  0.00000000000000000E+00  0.00000000000000000E+00  0.00000000000000000E+00
  0.00000000000000000E+00  0.00000000000000000E+00  0.00000000000000000E+00
  0.00000000000000000E+00  0.00000000000000000E+00  0.00000000000000000E+00
  0.00000000000000000E+00  0.00000000000000000E+00  0.00000000000000000E+00
  0.00000000000000000E+00  0.00000000000000000E+00  0.00000000000000000E+00
  0.00000000000000000E+00  0.00000000000000000E+00  0.00000000000000000E+00
  0.00000000000000000E+00  0.00000000000000000E+00  0.00000000000000000E+00
  0.00000000000000000E+00  0.00000000000000000E+00  0.00000000000000000E+00
  0.00000000000000000E+00  0.00000000000000000E+00  0.00000000000000000E+00
  0.00000000000000000E+00  0.00000000000000000E+00  0.00000000000000000E+00
  0.00000000000000000E+00  0.00000000000000000E+00  0.00000000000000000E+00
  0.00000000000000000E+00
                       </PP_QIJL.3.4.2>
 <PP_QIJL.4.4.0 type="real" size="   961" columns="3" first_index=" 4" second_index=" 4" composite_index="10" angular_momentum="0">
  9.92120431265833721E-09  1.01723607928319664E-08  1.04298753294307269E-08
  1.06939088774121182E-08  1.09646264663274271E-08  1.12421973034704419E-08
  1.15267948796376575E-08  1.18185970775655801E-08  1.21177862831130510E-08
  1.24245494992585690E-08  1.27390784629830697E-08  1.30615697651116393E-08
  1.33922249731892837E-08  1.37312507574671715E-08  1.40788590200781761E-08
  1.44352670274824627E-08  1.48006975462662854E-08  1.51753789823780721E-08
  1.55595455238895691E-08  1.59534372873712146E-08  1.63573004679723379E-08
  1.67713874933013007E-08  1.71959571812010138E-08  1.76312749015181419E-08
  1.80776127419681387E-08  1.85352496781986809E-08  1.90044717481583750E-08
  1.94855722308799253E-08  1.99788518297888010E-08  2.04846188606526234E-08
  2.10031894442885772E-08  2.15348877041488695E-08  2.20800459689085022E-08
  2.26390049801814242E-08  2.32121141054948628E-08  2.37997315566554565E-08
  2.44022246136429557E-08  2.50199698541721927E-08  2.56533533890662158E-08
  2.63027711035879477E-08  2.69686289048812762E-08  2.76513429756758449E-08
  2.83513400344149481E-08  2.90690576019679642E-08  2.98049442750952279E-08
  3.05594600068351756E-08  3.13330763939896904E-08  3.21262769718876299E-08
  3.29395575166092626E-08  3.37734263548630479E-08  3.46284046817051859E-08
  3.55050268863039632E-08  3.64038408859495732E-08  3.73254084685202699E-08
  3.82703056436176864E-08  3.92391230025911277E-08  4.02324660876760186E-08
  4.12509557704774201E-08  4.22952286400340917E-08  4.33659374007076721E-08
  4.44637512801428367E-08  4.55893564475566714E-08  4.67434564426157003E-08
  4.79267726151709953E-08  4.91400445761245761E-08  5.03840306597098501E-08
  5.16595083974742432E-08  5.29672750042617193E-08  5.43081478764965610E-08
  5.56829651030830843E-08  5.70925859892367465E-08  5.85378915935776073E-08
  6.00197852788199843E-08  6.15391932764020357E-08  6.30970652654109415E-08
  6.46943749661607630E-08  6.63321207487994790E-08  6.80113262573214533E-08
  6.97330410493768291E-08  7.14983412522790644E-08  7.33083302356169610E-08
  7.51641393008964358E-08  7.70669283886392052E-08  7.90178868033812201E-08
  8.10182339570267295E-08  8.30692201310174862E-08  8.51721272577982634E-08
  8.73282697220649712E-08  8.95389951822955460E-08  9.18056854130788742E-08
  9.41297571687669093E-08  9.65126630689898480E-08  9.89558925065887351E-08
  1.01460972578532200E-07  1.04029469040399692E-07  1.06662987285026295E-07
  1.09363173345923534E-07  1.12131714926101034E-07  1.14970342452932419E-07
  1.17880830159726684E-07  1.20864997194677241E-07  1.23924708757886348E-07
  1.27061877267171510E-07  1.30278463553385453E-07  1.33576478085996017E-07
  1.36957982229689543E-07  1.40425089532787079E-07  1.43979967048276175E-07
  1.47624836688284852E-07  1.51361976612844611E-07  1.55193722653807531E-07
  1.59122469774812821E-07  1.63150673568210805E-07  1.67280851789881745E-07
  1.71515585932909530E-07  1.75857522841090798E-07  1.80309376363291363E-07
  1.84873929049683219E-07  1.89554033890920310E-07  1.94352616101343313E-07
  1.99272674947323391E-07  2.04317285621892798E-07  2.09489601166830776E-07
  2.14792854443406696E-07  2.20230360153014453E-07  2.25805516908954889E-07
  2.31521809360669271E-07  2.37382810371745848E-07  2.43392183253062411E-07
  2.49553684052462340E-07  2.55871163902389791E-07  2.62348571426959525E-07
  2.68989955209958157E-07  2.75799466325325016E-07  2.82781360931689131E-07
  2.89940002932590973E-07  2.97279866704041043E-07  3.04805539891132135E-07
  3.12521726275444536E-07  3.20433248715038950E-07  3.28545052158878299E-07
  3.36862206737553378E-07  3.45389910932254721E-07  3.54133494823964512E-07
  3.63098423424899955E-07  3.72290300094296509E-07  3.81714870040652849E-07
  3.91378023912641820E-07  4.01285801480921250E-07  4.11444395413148835E-07
  4.21860155144563934E-07  4.32539590846545773E-07  4.43489377495640878E-07
  4.54716359045595266E-07  4.66227552704996878E-07  4.78030153323214351E-07
  4.90131537887351953E-07  5.02539270133053945E-07  5.15261105272026439E-07
  5.28304994839232935E-07  5.41679091662801907E-07  5.55391754959735613E-07
  5.69451555560623192E-07  5.83867281266613186E-07  5.98647942341992335E-07
  6.13802777145818382E-07  6.29341257906096134E-07  6.45273096640143364E-07
  6.61608251224817700E-07  6.78356931620409896E-07  6.95529606252099010E-07
  7.13137008552938546E-07  7.31190143672486682E-07  7.49700295355257802E-07
  7.68679032993295851E-07  7.88138218857288567E-07  8.08090015510720031E-07
  8.28546893411720107E-07  8.49521638707346003E-07  8.71027361225169251E-07
  8.93077502667171210E-07  9.15685845011052488E-07  9.38866519124225549E-07
  9.62634013595859445E-07  9.87003183792496773E-07  1.01198926114292740E-06
  1.03760786265807489E-06  1.06387500069188620E-06  1.09080709294931440E-06
  1.11842097274763682E-06  1.14673389953753728E-06  1.17576356969050901E-06
  1.20552812755934626E-06  1.23604617681861299E-06  1.26733679209218469E-06
  1.29941953087514313E-06  1.33231444575744008E-06  1.36604209695700657E-06
  1.40062356517012701E-06  1.43608046474709298E-06  1.47243495720140701E-06
  1.50970976506092526E-06  1.54792818606965152E-06  1.58711410774902938E-06
  1.62729202232782032E-06  1.66848704204993767E-06  1.71072491486975455E-06
  1.75403204054472565E-06  1.79843548713538900E-06  1.84396300792301160E-06
  1.89064305875551641E-06  1.93850481583245545E-06  1.98757819394021909E-06
  2.03789386514882759E-06  2.08948327798197914E-06  2.14237867707242477E-06
  2.19661312331478468E-06  2.25222051452859503E-06  2.30923560664433674E-06
  2.36769403542578596E-06  2.42763233874222284E-06  2.48908797940439358E-06
  2.55209936857853443E-06  2.61670588979309892E-06  2.68294792355310834E-06
  2.75086687257764756E-06  2.82050518767607693E-06  2.89190639427936746E-06
  2.96511511964290107E-06  3.04017712073795007E-06  3.11713931284907648E-06
  3.19604979889545696E-06  3.27695789949435467E-06  3.35991418378563079E-06
  3.44497050103643690E-06  3.53218001304593466E-06  3.62159722737021690E-06
  3.71327803138822667E-06  3.80727972722999507E-06  3.90366106758889194E-06
  4.00248229244046384E-06  4.10380516669059347E-06  4.20769301877662444E-06
  4.31421078024558858E-06  4.42342502633415345E-06  4.53540401757573283E-06
  4.65021774246075559E-06  4.76793796117663059E-06  4.88863825045494196E-06
  5.01239404955368297E-06  5.13928270740333012E-06  5.26938353094634002E-06
  5.40277783469998805E-06  5.53954899157379665E-06  5.67978248497315934E-06
  5.82356596222162999E-06  5.97098928933548232E-06  6.12214460718452352E-06
  6.27712638907434611E-06  6.43603149978602444E-06  6.59895925611006119E-06
  6.76601148891239790E-06  6.93729260677129393E-06  7.11290966122488419E-06
  7.29297241366998874E-06  7.47759340395406243E-06  7.66688802070328593E-06
  7.86097457343037382E-06  8.05997436646739648E-06  8.26401177476979257E-06
  8.47321432163873420E-06  8.68771275841056086E-06  8.90764114616290225E-06
  9.13313693948869832E-06  9.36434107239029519E-06  9.60139804634713612E-06
  9.84445602061244173E-06  1.00936669047947971E-05  1.03491864537828099E-05
  1.06111743650718947E-05  1.08797943785540071E-05  1.11552143788327475E-05
  1.14376065001276054E-05  1.17271472338327474E-05  1.20240175387977512E-05
  1.23284029543988618E-05  1.26404937164717016E-05  1.29604848761773471E-05
  1.32885764218763378E-05  1.36249734040866291E-05  1.39698860636033160E-05
  1.43235299628604137E-05  1.46861261206162696E-05  1.50579011500469955E-05
  1.54390874003340428E-05  1.58299231018341789E-05  1.62306525149226406E-05
  1.66415260826020475E-05  1.70628005869726858E-05  1.74947393096614833E-05
  1.79376121963099300E-05  1.83916960252236632E-05  1.88572745802887014E-05
  1.93346388282623585E-05  1.98240871005494786E-05  2.03259252795771966E-05
  2.08404669898847846E-05  2.13680337940474988E-05  2.19089553935567997E-05
  2.24635698347822332E-05  2.30322237201431418E-05  2.36152724246224250E-05
  2.42130803177568502E-05  2.48260209912426144E-05  2.54544774922982039E-05
  2.60988425629295246E-05  2.67595188852472447E-05  2.74369193329883503E-05
  2.81314672293995882E-05  2.88435966116430995E-05  2.95737525018888849E-05
  3.03223911852635358E-05  3.10899804948280359E-05  3.18770001037624304E-05
  3.26839418249393662E-05  3.35113099180730077E-05  3.43596214046349840E-05
  3.52294063907333525E-05  3.61212083981554848E-05  3.70355847037817437E-05
  3.79731066875802964E-05  3.89343601894009191E-05  3.99199458747891261E-05
  4.09304796100485782E-05  4.19665928467855700E-05  4.30289330161745762E-05
  4.41181639331902242E-05  4.52349662110581438E-05  4.63800376861808969E-05
  4.75540938538054163E-05  4.87578683147012564E-05  4.99921132331284250E-05
  5.12575998063800203E-05  5.25551187461899380E-05  5.38854807723077918E-05
  5.52495171185448698E-05  5.66480800516080735E-05  5.80820434030434923E-05
  5.95523031146194995E-05  6.10597777974899205E-05  6.26054093054828186E-05
  6.41901633228727028E-05  6.58150299670002956E-05  6.74810244061139298E-05
  6.91891874928172833E-05  7.09405864135154656E-05  7.27363153542633897E-05
  7.45774961834295091E-05  7.64652791515981796E-05  7.84008436091453847E-05
  8.03853987419321834E-05  8.24201843255731428E-05  8.45064714987464523E-05
  8.66455635560252861E-05  8.88387967607228340E-05  9.10875411782524023E-05
  9.33932015305214699E-05  9.57572180718875180E-05  9.81810674872168789E-05
  1.00666263812605809E-04  1.03214359379329835E-04  1.05826945781608330E-04
  1.08505654868781753E-04  1.11252159762514875E-04  1.14068175899655565E-04
  1.16955462101393819E-04  1.19915821669380247E-04  1.22951103509483776E-04
  1.26063203283879546E-04  1.29254064592180162E-04  1.32525680182339254E-04
  1.35880093192072881E-04  1.39319398421567032E-04  1.42845743638252463E-04
  1.46461330914454603E-04  1.50168417998739980E-04  1.53969319721805267E-04
  1.57866409437774289E-04  1.61862120501788509E-04  1.65958947784803154E-04
  1.70159449226516224E-04  1.74466247427388683E-04  1.78882031280732615E-04
  1.83409557645867598E-04  1.88051653063377091E-04  1.92811215513511450E-04
  1.97691216218820898E-04  2.02694701492121669E-04  2.07824794630925033E-04
  2.13084697859494362E-04  2.18477694319713664E-04  2.24007150111989325E-04
  2.29676516387430322E-04  2.35489331492586739E-04  2.41449223168055079E-04
  2.47559910802292642E-04  2.53825207742017710E-04  2.60249023660598052E-04
  2.66835366985877928E-04  2.73588347388915984E-04  2.80512178335149613E-04
  2.87611179699536943E-04  2.94889780447265301E-04  3.02352521381652243E-04
  3.10004057960906699E-04  3.17849163185456940E-04  3.25892730557595202E-04
  3.34139777115227156E-04  3.42595446541562416E-04  3.51265012352625669E-04
  3.60153881164508431E-04  3.69267596042334629E-04  3.78611839932956084E-04
  3.88192439183445673E-04  3.98015367147499892E-04  4.08086747881921752E-04
  4.18412859935397093E-04  4.29000140231839127E-04  4.39855188050624615E-04
  4.50984769106100723E-04  4.62395819728802463E-04  4.74095451150873014E-04
  4.86090953898238992E-04  4.98389802292163384E-04  5.10999659062838204E-04
  5.23928380077767655E-04  5.37184019187739951E-04  5.50774833193252858E-04
  5.64709286934339289E-04  5.78996058506785270E-04  5.93644044607819768E-04
  6.08662366014426173E-04  6.24060373197486327E-04  6.39847652075060426E-04
  6.56034029908156681E-04  6.72629581342453885E-04  6.89644634599488626E-04
  7.07089777820919807E-04  7.24975865569559810E-04  7.43314025490939023E-04
  7.62115665139266422E-04  7.81392478971727734E-04  8.01156455515153942E-04
  8.21419884709186760E-04  8.42195365430156847E-04  8.63495813199977882E-04
  8.85334468084467445E-04  9.07724902785599693E-04  9.30681030932296155E-04
  9.54217115574438192E-04  9.78347777884922346E-04  1.00308800607466601E-03
  1.02845316452556909E-03  1.05445900314656785E-03  1.08112166695800574E-03
  1.10845770590966468E-03  1.13648408493792030E-03  1.16521819426758356E-03
  1.19467785996412779E-03  1.22488135474208980E-03  1.25584740903559038E-03
  1.28759522233702671E-03  1.32014447481009086E-03  1.35351533918341769E-03
  1.38772849293127823E-03  1.42280513074787701E-03  1.45876697732193130E-03
  1.49563630041833024E-03  1.53343592427384505E-03  1.57218924331392596E-03
  1.61192023619783644E-03  1.65265348019943319E-03  1.69441416593107508E-03
  1.73722811241834346E-03  1.78112178253328523E-03  1.82612229879407380E-03
  1.87225745953913765E-03  1.91955575548392486E-03  1.96804638666865130E-03
  2.01775927980546053E-03  2.06872510603362848E-03  2.12097529909153820E-03
  2.17454207391431847E-03  2.22945844566615385E-03  2.28575824921640547E-03
  2.34347615906899598E-03  2.40264770975436113E-03  2.46330931669357014E-03
  2.52549829754433654E-03  2.58925289403876642E-03  2.65461229432282066E-03
  2.72161665580758711E-03  2.79030712854260246E-03  2.86072587912155696E-03
  2.93291611513083741E-03  3.00692211015139320E-03  3.08278922932488835E-03
  3.16056395549475485E-03  3.24029391593298440E-03  3.32202790966368462E-03
  3.40581593539443592E-03  3.49170922006662417E-03  3.57976024803589908E-03
  3.67002279089407137E-03  3.76255193794370908E-03  3.85740412733673104E-03
  3.95463717788830174E-03  4.05431032157787044E-03  4.15648423674837373E-03
  4.26122108201493991E-03  4.36858453089452540E-03  4.47863980716778787E-03
  4.59145372098442549E-03  4.70709470572314246E-03  4.82563285561729734E-03
  4.94713996415714879E-03  5.07168956327920788E-03  5.19935696335377309E-03
  5.33021929398133903E-03  5.46435554560731947E-03  5.60184661196534966E-03
  5.74277533335877839E-03  5.88722654078971744E-03  6.03528710094464009E-03
  6.18704596204503691E-03  6.34259420057138763E-03  6.50202506886763884E-03
  6.66543404363360327E-03  6.83291887531313306E-03  7.00457963838236469E-03
  7.18051878254382086E-03  7.36084118483089182E-03  7.54565420262658017E-03
  7.73506772759924126E-03  7.92919424055748764E-03  8.12814886722504001E-03
  8.33204943493496761E-03  8.54101653024221842E-03  8.75517355745428390E-03
  8.97464679807343652E-03  9.19956547114596061E-03  9.43006179451172030E-03
  9.66627104694587139E-03  9.90833163118238699E-03  1.01563851378076338E-02
  1.04105764100099231E-02  1.06710536091676987E-02  1.09379682812598186E-02
  1.12114754240796415E-02  1.14917335552254789E-02  1.17789047808431017E-02
  1.20731548650915236E-02  1.23746533003005615E-02  1.26835733777850811E-02
  1.30000922592776423E-02  1.33243910489373608E-02  1.36566548658863599E-02
  1.39970729172310578E-02  1.43458385715116900E-02  1.47031494325182786E-02
  1.50692074134115145E-02  1.54442188110802195E-02  1.58283943806618380E-02
  1.62219494101465030E-02  1.66251037949795046E-02  1.70380821125684020E-02
  1.74611136965963712E-02  1.78944327110485482E-02  1.83382782238267310E-02
  1.87928942798345489E-02  1.92585299734061195E-02  1.97354395199416457E-02
  2.02238823266043602E-02  2.07241230619237861E-02  2.12364317241397239E-02
  2.17610837081043673E-02  2.22983598705747098E-02  2.28485465936906808E-02
  2.34119358464209941E-02  2.39888252437592819E-02  2.45795181034349705E-02
  2.51843234998897977E-02  2.58035563152559204E-02  2.64375372870561537E-02
  2.70865930523229610E-02  2.77510561878342374E-02  2.84312652461547188E-02
  2.91275647871063956E-02  2.98403054043104229E-02  3.05698437464157376E-02
  3.13165425326070029E-02  3.20807705619633662E-02  3.28629027162163911E-02
  3.36633199554245005E-02  3.44824093060593015E-02  3.53205638410280312E-02
  3.61781826510313917E-02  3.70556708066841767E-02  3.79534393107949855E-02
  3.88719050401662783E-02  3.98114906762448706E-02  4.07726246239207349E-02
  4.17557409177317582E-02  4.27612791146818952E-02  4.37896841729459030E-02
  4.48414063155581216E-02  4.59169008781951313E-02  4.70166281401424441E-02
  4.81410531374794753E-02  4.92906454574761413E-02  5.04658790131491536E-02
  5.16672317968755457E-02  5.28951856118821534E-02  5.41502257805262094E-02
  5.54328408280700680E-02  5.67435221406240309E-02  5.80827635959383637E-02
  5.94510611656465585E-02  6.08489124875080944E-02  6.22768164061433191E-02
  6.37352724806903859E-02  6.52247804577081314E-02  6.67458397077845683E-02
  6.82989486240569571E-02  6.98846039807793640E-02  7.15033002501157672E-02
  7.31555288752396976E-02  7.48417774977577499E-02  7.65625291374147782E-02
  7.83182613219699508E-02  8.01094451650090078E-02  8.19365443896494655E-02
  8.38000142957964350E-02  8.57003006685128493E-02  8.76378386251660951E-02
  8.96130513989050331E-02  9.16263490559697108E-02  9.36781271442890806E-02
  9.57687652707694126E-02  9.78986256045595027E-02  1.00068051303862010E-01
  1.02277364863502987E-01  1.04526866380438468E-01  1.06816831734534129E-01
  1.09147510681882220E-01  1.11519124857920079E-01  1.13931865687623646E-01
  1.16385892200062582E-01  1.18881328744565584E-01  1.21418262606137944E-01
  1.23996741517422099E-01  1.26616771064638201E-01  1.29278311985191852E-01
  1.31981277354682514E-01  1.34725529661184534E-01  1.37510877764834810E-01
  1.40337073740933405E-01  1.43203809604961291E-01  1.46110713918371854E-01
  1.49057348273934076E-01  1.52043203659875836E-01  1.55067696702472585E-01
  1.58130165787073063E-01  1.61229867057981618E-01  1.64365970298093023E-01
  1.67537554689718510E-01  1.70743604458703957E-01  1.73983004404264396E-01
  1.77254535317907386E-01  1.80556869295577016E-01  1.83888564947904648E-01
  1.87248062514365432E-01  1.90633678888111641E-01  1.94043602559302919E-01
  1.97475888486069312E-01  2.00928452903507276E-01  2.04399068081084323E-01
  2.07885357042267904E-01  2.11384788260747247E-01  2.14894670349218303E-01
  2.18412146758526576E-01  2.21934190506816398E-01  2.25457598960305650E-01
  2.28978988690121149E-01  2.32494790430845588E-01  2.36001244166673146E-01
  2.39494394378637399E-01  2.42970085485673337E-01  2.46423957515488068E-01
  2.49851442044245226E-01  2.53247758447090854E-01  2.56607910504763614E-01
  2.59926683416907556E-01  2.63198641270971756E-01  2.66418125019623919E-01
  2.69579251030913070E-01  2.72675910272255018E-01  2.75701768194754837E-01
  2.78650265388450058E-01  2.81514619083051421E-01  2.84287825573202202E-01
  2.86962663655721206E-01  2.89531699154912725E-01  2.91987290628861196E-01
  2.94321596357835003E-01  2.96526582710096909E-01  2.98594033987193919E-01
  3.00515563854339696E-01  3.02282628464709935E-01  3.03886541391232945E-01
  3.05318490487308303E-01  3.06569556768136020E-01  3.07630735446580150E-01
  3.08492959245247111E-01  3.09147124099389436E-01  3.09584117368463030E-01
  3.09794848672445056E-01  3.09770283466206942E-01  3.09501479467568341E-01
  3.08979626045304379E-01  3.08196086627214316E-01  3.07142444253787283E-01
  3.05810550349050969E-01  3.04192576770385081E-01  3.02281071187666339E-01
  3.00069015824901641E-01  2.97549889577935545E-01  2.94717733513953029E-01
  2.91567219697266122E-01  2.88093723251182598E-01  2.84293397608015863E-01
  2.80163252798485918E-01  2.75701236605806976E-01  2.70906318367561905E-01
  2.65778575160148134E-01  2.60319280049635227E-01  2.54530992054361305E-01
  2.48417647328755625E-01  2.41984651081958629E-01  2.35238969689399807E-01
  2.28189222329277491E-01  2.20845771413440334E-01  2.13220810998437538E-01
  2.05328452274334244E-01  1.97184805140666497E-01  1.88808054785581714E-01
  1.80218532036863971E-01  1.71438776248408087E-01  1.62493589336644984E-01
  1.53410079476587052E-01  1.44217692879391207E-01  1.34948231980366096E-01
  1.25635858278565576E-01  1.16317077977769662E-01  1.07030708503204744E-01
  9.78178239794924576E-02  8.87216776284210779E-02  7.97875990448913136E-02
  7.10628643094609186E-02  6.25965369141897043E-02  5.44392775276695690E-02
  4.66431207046361512E-02  3.92612166844990354E-02  3.23475367792398910E-02
  2.59565410444881003E-02  2.01428069113907954E-02  1.49606180106437430E-02
  1.04635127493974741E-02  6.70379267293174600E-03  3.73199098270888315E-03
  1.59628680253064148E-03  3.41432989758427147E-04 -5.13677446807264982E-06
 -3.79772243452473091E-07 -2.46340134054504966E-08 -1.40094555073416439E-09
 -6.65566230331915750E-11 -2.19187955894011948E-12  7.36781969074237879E-15
  9.00019528803336252E-15  1.01357310643792723E-15  8.41527437011176012E-17
  5.96242652385969369E-18  3.72083838431051583E-19  0.00000000000000000E+00
  0.00000000000000000E+00  0.00000000000000000E+00  0.00000000000000000E+00
  0.00000000000000000E+00  0.00000000000000000E+00  0.00000000000000000E+00
  0.00000000000000000E+00  0.00000000000000000E+00  0.00000000000000000E+00
  0.00000000000000000E+00  0.00000000000000000E+00  0.00000000000000000E+00
  0.00000000000000000E+00  0.00000000000000000E+00  0.00000000000000000E+00
  0.00000000000000000E+00  0.00000000000000000E+00  0.00000000000000000E+00
  0.00000000000000000E+00  0.00000000000000000E+00  0.00000000000000000E+00
  0.00000000000000000E+00  0.00000000000000000E+00  0.00000000000000000E+00
  0.00000000000000000E+00  0.00000000000000000E+00  0.00000000000000000E+00
  0.00000000000000000E+00  0.00000000000000000E+00  0.00000000000000000E+00
  0.00000000000000000E+00  0.00000000000000000E+00  0.00000000000000000E+00
  0.00000000000000000E+00  0.00000000000000000E+00  0.00000000000000000E+00
  0.00000000000000000E+00  0.00000000000000000E+00  0.00000000000000000E+00
  0.00000000000000000E+00  0.00000000000000000E+00  0.00000000000000000E+00
  0.00000000000000000E+00  0.00000000000000000E+00  0.00000000000000000E+00
  0.00000000000000000E+00  0.00000000000000000E+00  0.00000000000000000E+00
  0.00000000000000000E+00  0.00000000000000000E+00  0.00000000000000000E+00
  0.00000000000000000E+00  0.00000000000000000E+00  0.00000000000000000E+00
  0.00000000000000000E+00  0.00000000000000000E+00  0.00000000000000000E+00
  0.00000000000000000E+00  0.00000000000000000E+00  0.00000000000000000E+00
  0.00000000000000000E+00  0.00000000000000000E+00  0.00000000000000000E+00
  0.00000000000000000E+00  0.00000000000000000E+00  0.00000000000000000E+00
  0.00000000000000000E+00  0.00000000000000000E+00  0.00000000000000000E+00
  0.00000000000000000E+00  0.00000000000000000E+00  0.00000000000000000E+00
  0.00000000000000000E+00  0.00000000000000000E+00  0.00000000000000000E+00
  0.00000000000000000E+00  0.00000000000000000E+00  0.00000000000000000E+00
  0.00000000000000000E+00  0.00000000000000000E+00  0.00000000000000000E+00
  0.00000000000000000E+00  0.00000000000000000E+00  0.00000000000000000E+00
  0.00000000000000000E+00  0.00000000000000000E+00  0.00000000000000000E+00
  0.00000000000000000E+00  0.00000000000000000E+00  0.00000000000000000E+00
  0.00000000000000000E+00  0.00000000000000000E+00  0.00000000000000000E+00
  0.00000000000000000E+00  0.00000000000000000E+00  0.00000000000000000E+00
  0.00000000000000000E+00  0.00000000000000000E+00  0.00000000000000000E+00
  0.00000000000000000E+00  0.00000000000000000E+00  0.00000000000000000E+00
  0.00000000000000000E+00  0.00000000000000000E+00  0.00000000000000000E+00
  0.00000000000000000E+00  0.00000000000000000E+00  0.00000000000000000E+00
  0.00000000000000000E+00  0.00000000000000000E+00  0.00000000000000000E+00
  0.00000000000000000E+00  0.00000000000000000E+00  0.00000000000000000E+00
  0.00000000000000000E+00  0.00000000000000000E+00  0.00000000000000000E+00
  0.00000000000000000E+00  0.00000000000000000E+00  0.00000000000000000E+00
  0.00000000000000000E+00  0.00000000000000000E+00  0.00000000000000000E+00
  0.00000000000000000E+00  0.00000000000000000E+00  0.00000000000000000E+00
  0.00000000000000000E+00  0.00000000000000000E+00  0.00000000000000000E+00
  0.00000000000000000E+00  0.00000000000000000E+00  0.00000000000000000E+00
  0.00000000000000000E+00  0.00000000000000000E+00  0.00000000000000000E+00
  0.00000000000000000E+00  0.00000000000000000E+00  0.00000000000000000E+00
  0.00000000000000000E+00  0.00000000000000000E+00  0.00000000000000000E+00
  0.00000000000000000E+00  0.00000000000000000E+00  0.00000000000000000E+00
  0.00000000000000000E+00  0.00000000000000000E+00  0.00000000000000000E+00
  0.00000000000000000E+00  0.00000000000000000E+00  0.00000000000000000E+00
  0.00000000000000000E+00  0.00000000000000000E+00  0.00000000000000000E+00
  0.00000000000000000E+00  0.00000000000000000E+00  0.00000000000000000E+00
  0.00000000000000000E+00  0.00000000000000000E+00  0.00000000000000000E+00
  0.00000000000000000E+00  0.00000000000000000E+00  0.00000000000000000E+00
  0.00000000000000000E+00  0.00000000000000000E+00  0.00000000000000000E+00
  0.00000000000000000E+00
                       </PP_QIJL.4.4.0>
 <PP_QIJL.4.4.2 type="real" size="   961" columns="3" first_index=" 4" second_index=" 4" composite_index="10" angular_momentum="2">
  2.13090111804028028E-17  2.24015464063581540E-17  2.35501022594794519E-17
  2.47575414728189670E-17  2.60268841891418172E-17  2.73613134952703580E-17
  2.87641609536592185E-17  3.02389267569805059E-17  3.17893100299991805E-17
  3.34191872677941033E-17  3.51326221153676801E-17  3.69339088739940156E-17
  3.88275556947466409E-17  4.08182845191230855E-17  4.29110804818419726E-17
  4.51111835489739382E-17  4.74240812020420769E-17  4.98555633913581840E-17
  5.24117179693830328E-17  5.50989214031713790E-17  5.79239016923385672E-17
  6.08937291041813479E-17  6.40158130751445750E-17  6.72979739168883676E-17
  7.07484196260672518E-17  7.43757630622862224E-17  7.81890928298732539E-17
  8.21979349840137452E-17  8.64123085358696843E-17  9.08427681531342386E-17
  9.55003727912734226E-17  1.00396781307558967E-16  1.05544238903013795E-16
  1.10955601647812162E-16  1.16644422580310404E-16  1.22624906821472004E-16
  1.28912019885801206E-16  1.35521484567831314E-16  1.42469813720981663E-16
  1.49774404152828653E-16  1.57453495997837319E-16  1.65526313023486098E-16
  1.74013027451176722E-16  1.82934864638094759E-16  1.92314139873973265E-16
  2.02174290915145685E-16  2.12539995682211224E-16  2.23437146581280618E-16
  2.34893021557901488E-16  2.46936237039019774E-16  2.59596934863622789E-16
  2.72906748601544094E-16  2.86898981434870563E-16  3.01608602495758482E-16
  3.17072409642450770E-16  3.33329056277751542E-16  3.50419205401455829E-16
  3.68385578776956229E-16  3.87273114679472414E-16  4.07129027409741886E-16
  4.28002983763705825E-16  4.49947159704603701E-16  4.73016450700650075E-16
  4.97268514187064700E-16  5.22764024784248025E-16  5.49566699412846368E-16
  5.77743595004623652E-16  6.07365133945541988E-16  6.38505414671978652E-16
  6.71242284486178625E-16  7.05657609572494433E-16  7.41837454215916244E-16
  7.79872263866954029E-16  8.19857178869077754E-16  8.61892145487898536E-16
  9.06082302677318481E-16  9.52538137152162269E-16  1.00137580229227525E-15
  1.05271744646628036E-15  1.10669141394131473E-15  1.16343269473507148E-15
  1.22308316994519563E-15  1.28579197167485738E-15  1.35171594006436409E-15
  1.42101989722727972E-15  1.49387713300729185E-15  1.57046985765528262E-15
  1.65098956414665160E-15  1.73563759693097705E-15  1.82462564507615094E-15
  1.91817619729436944E-15  2.01652317943112410E-15  2.11991253643011342E-15
  2.22860277517203504E-15  2.34286566497414956E-15  2.46298695212659660E-15
  2.58926699736416852E-15  2.72202153864830826E-15  2.86158255216414068E-15
  3.00829902696599695E-15  3.16253781258944333E-15  3.32468457137317983E-15
  3.49514477915723836E-15  3.67434468156999453E-15  3.86273235462414241E-15
  4.06077885201653427E-15  4.26897941387839944E-15  4.48785465866912509E-15
  4.71795188016770210E-15  4.95984642242667279E-15  5.21414315396148136E-15
  5.48147796400702967E-15  5.76251933176449935E-15  6.05796999991858019E-15
  6.36856873490797020E-15  6.69509219492226416E-15  7.03835687077114626E-15
  7.39922110835196717E-15  7.77858725565364438E-15  8.17740392060028055E-15
  8.59666834444312615E-15  9.03742890102596489E-15  9.50078772734046030E-15
  9.98790346687365333E-15  1.04999941647278206E-14  1.10383403142037579E-14
  1.16042880594235732E-14  1.21992525620016745E-14  1.28247215401849575E-14
  1.34822589893156569E-14  1.41735090930225746E-14  1.49002003364115539E-14
  1.56641498271493836E-14  1.64672678371279510E-14  1.73115625792896753E-14
  1.81991452293883567E-14  1.91322352051639761E-14  2.01131657161409431E-14
  2.11443895979336361E-14  2.22284854456553455E-14  2.33681640617743737E-14
  2.45662752345444097E-14  2.58258148639641631E-14  2.71499324530859049E-14
  2.85419389834048675E-14  3.00053151940190277E-14  3.15437202852526742E-14
  3.31610010684972820E-14  3.48612015851303576E-14  3.66485732185414483E-14
  3.85275853245197062E-14  4.05029364065436194E-14  4.25795658638690655E-14
  4.47626663435325629E-14  4.70576967297248769E-14  4.94703957915942588E-14
  5.20067965319805378E-14  5.46732412724358580E-14  5.74763975112415016E-14
  6.04232745939378565E-14  6.35212412378947520E-14  6.67780439545516209E-14
  7.02018264172536306E-14  7.38011498548313863E-14  7.75850144623632936E-14
  8.15628818800342305E-14  8.57446988451419237E-14  9.01409220556978014E-14
  9.47625443069540844E-14  9.96211220183668993E-14  1.04728804196333166E-13
  1.10098362728796024E-13  1.15743224293294011E-13  1.21677503909402152E-13
  1.27916040281272085E-13  1.34474433054171328E-13  1.41369081662201338E-13
  1.48617226266363879E-13  1.56236990849878347E-13  1.64247428800161271E-13
  1.72668570472910201E-13  1.81521473054869200E-13  1.90828273199887819E-13
  2.00612242787758725E-13  2.10897846944190381E-13  2.21710804890205402E-13
  2.33078154415842353E-13  2.45028319995894153E-13  2.57591183252207173E-13
  2.70798157526697046E-13  2.84682267224433787E-13  2.99278229955825345E-13
  3.14622542814507377E-13  3.30753574583242308E-13  3.47711661411931540E-13
  3.65539206840592388E-13  3.84280789070236648E-13  4.03983271945875183E-13
  4.24695921285914437E-13  4.46470529765886034E-13  4.69361545105940182E-13
  4.93426206144166098E-13  5.18724687530678904E-13  5.45320247940598848E-13
  5.73279390071296898E-13  6.02672026414153866E-13  6.33571652941342317E-13
  6.66055535387975696E-13  7.00204899348325249E-13  7.36105136198828237E-13
  7.73846014796155940E-13  8.13521906345646334E-13  8.55232021507053906E-13
  8.99080655946354051E-13  9.45177454760547371E-13  9.93637682272266666E-13
  1.04458251498908664E-12  1.09813933980621552E-12  1.15444207717481501E-12
  1.21363151159777114E-12  1.27585564775315702E-12  1.34127007671109564E-12
  1.41003836873831666E-12  1.48233247852972853E-12  1.55833317914677263E-12
  1.63823050969933636E-12  1.72222425542644147E-12  1.81052444166336257E-12
  1.90335186539939308E-12  2.00093864019932033E-12  2.10352878438629076E-12
  2.21137882322956807E-12  2.32475843791592744E-12  2.44395113360694447E-12
  2.56925495245805101E-12  2.70098321772767677E-12  2.83946531482886152E-12
  2.98504752088772639E-12  3.13809386203480725E-12  3.29898703303375316E-12
  3.46812934657057109E-12  3.64594374253285346E-12  3.83287484794652330E-12
  4.02939008116242660E-12  4.23598083079298773E-12  4.45316367615868181E-12
  4.68148168101069512E-12  4.92150575690806728E-12  5.17383608076192472E-12
  5.43910360430729886E-12  5.71797162983596388E-12  6.01113746217855624E-12
  6.31933416309860358E-12  6.64333237755834067E-12  6.98394225740890399E-12
  7.34201549799327526E-12  7.71844745917132853E-12  8.11417940204121086E-12
  8.53020085343326789E-12  8.96755207172494202E-12  9.42732664483691114E-12
  9.91067423568292960E-12  1.04188034509162176E-11  1.09529848571979601E-11
  1.15145541671584139E-11  1.21049155798621486E-11  1.27255452827623506E-11
  1.33779951461011805E-11  1.40638966127459808E-11  1.47849647674333399E-11
  1.55430026225596518E-11  1.63399056349940429E-11  1.71776664470945873E-11
  1.80583798598662488E-11  1.89842480708950574E-11  1.99575861909390383E-11
  2.09808280296626560E-11  2.20565321738986397E-11  2.31873883854531736E-11
  2.43762243363602931E-11  2.56260126771639070E-11  2.69398784622025963E-11
  2.83211069631171488E-11  2.97731518897109505E-11  3.12996440305451813E-11
  3.29044003216767797E-11  3.45914333892178886E-11  3.63649615831650383E-11
  3.82294195346060551E-11  4.01894692405862593E-11  4.22500117144319169E-11
  4.44161992397922892E-11  4.66934482539336260E-11  4.90874529001246152E-11
  5.16041992619181158E-11  5.42499803242686245E-11  5.70314117079282869E-11
  5.99554482106389466E-11  6.30294012010465558E-11  6.62609569058488962E-11
  6.96581956192432718E-11  7.32296119047771240E-11  7.69841358343602603E-11
  8.09311553161531474E-11  8.50805395707635790E-11  8.94426638141703760E-11
  9.40284351909591086E-11  9.88493200435895182E-11  1.03917372581472334E-10
  1.09245265019818702E-10  1.14846319263639364E-10  1.20734540220360647E-10
  1.26924650820381028E-10  1.33432128820941640E-10  1.40273245503355458E-10
  1.47465106355118681E-10  1.55025693837630536E-10  1.62973912346426591E-10
  1.71329635476354180E-10  1.80113755713402270E-10  1.89348236674195639E-10
  1.99056168013183236E-10  2.09261823150263441E-10  2.19990719958716252E-10
  2.31269684564281228E-10  2.43126918414857660E-10  2.55592068788489108E-10
  2.68696302915876616E-10  2.82472385902836808E-10  2.96954762651152793E-10
  3.12179643975568060E-10  3.28185097130377041E-10  3.45011140980932904E-10
  3.62699846054190437E-10  3.81295439718117341E-10  4.00844416752863965E-10
  4.21395655590065922E-10  4.43000540510825384E-10  4.65713090107770105E-10
  4.89590092332304341E-10  5.14691246464552093E-10  5.41079312360859685E-10
  5.68820267353452452E-10  5.97983471192690825E-10  6.28641839439880893E-10
  6.60872025750790936E-10  6.94754613503399165E-10  7.30374317248382807E-10
  7.67820194485788530E-10  8.07185868297165151E-10  8.48569761389488132E-10
  8.92075342135792034E-10  9.37811383227342391E-10  9.85892233583692591E-10
  1.03643810420013447E-09  1.08957536864679655E-09  1.14543687897031160E-09
  1.20416229778740768E-09  1.26589844740022434E-09  1.33079967680571490E-09
  1.39902824751610435E-09  1.47075473915447700E-09  1.54615847583883568E-09
  1.62542797441995946E-09  1.70876141569300364E-09  1.79636713976001314E-09
  1.88846416678103376E-09  1.98528274441475619E-09  2.08706492331626305E-09
  2.19406516212970801E-09  2.30655096348715999E-09  2.42480354260229800E-09
  2.54911853012915583E-09  2.67980671104165417E-09  2.81719480137953062E-09
  2.96162626480074878E-09  3.11346217097988981E-09  3.27308209799657215E-09
  3.44088508096755078E-09  3.61729060929182054E-09  3.80273967499916076E-09
  3.99769587482026346E-09  4.20264656873059372E-09  4.41810409786096092E-09
  4.64460706481622426E-09  4.88272167959886859E-09  5.13304317449828484E-09
  5.39619729147838699E-09  5.67284184577726096E-09  5.96366836962274476E-09
  6.26940384016687917E-09  6.59081249595346045E-09  6.92869774645313967E-09
  7.28390417943241312E-09  7.65731967116754740E-09  8.04987760477003955E-09
  8.46255920216073425E-09  8.89639597551248881E-09  9.35247230427911447E-09
  9.83192814424210268E-09  1.03359618753348044E-08  1.08658332953504584E-08
  1.14228667670036592E-08  1.20084545261971492E-08  1.26240601597476415E-08
  1.32712222612465584E-08  1.39515582741755946E-08  1.46667685318631235E-08
  1.54186405043585439E-08  1.62090532628164962E-08  1.70399821725247030E-08
  1.79135038262790861E-08  1.88318012304078333E-08  1.97971692563752766E-08
  2.08120203715580874E-08  2.18788906634805485E-08  2.30004461725269173E-08
  2.41794895489159209E-08  2.54189670505299327E-08  2.67219758990395076E-08
  2.80917720126547098E-08  2.95317781347958154E-08  3.10455923789432916E-08
  3.26369972108387680E-08  3.43099688905300253E-08  3.60686873977605572E-08
  3.79175468654144258E-08  3.98611665470007371E-08  4.19044023454890409E-08
  4.40523589322010824E-08  4.63104024859313188E-08  4.86841740840085261E-08
  5.11796037786298370E-08  5.38029253935020081E-08  5.65606920776088715E-08
  5.94597926548089885E-08  6.25074688099373598E-08  6.57113331541636911E-08
  6.90793882145408962E-08  7.26200463949734676E-08  7.63421509584555500E-08
  8.02549980824410077E-08  8.43683600419108466E-08  8.86925095783107433E-08
  9.32382455147270125E-08  9.80169196809345186E-08  1.03040465215202836E-07
  1.08321426313161571E-07  1.13872989497604966E-07  1.19709016486878570E-07
  1.25844078743448405E-07  1.32293493788405767E-07  1.39073363372028475E-07
  1.46200613595107137E-07  1.53693037080566280E-07  1.61569337300311734E-07
  1.69849175167514663E-07  1.78553218007591474E-07  1.87703191031366320E-07
  1.97321931437700635E-07  2.07433445279413804E-07  2.18062967233347702E-07
  2.29237023422578021E-07  2.40983497446307441E-07  2.53331699780861861E-07
  2.66312440723520102E-07  2.79958107059618403E-07  2.94302742642533123E-07
  3.09382133085820362E-07  3.25233894778667222E-07  3.41897568441820515E-07
  3.59414717453208921E-07  3.77829031190607263E-07  3.97186433644837662E-07
  4.17535197571405792E-07  4.38926064462187276E-07  4.61412370633020883E-07
  4.85050179738040063E-07  5.09898422037313575E-07  5.36019040760849426E-07
  5.63477145929394176E-07  5.92341176011754805E-07  6.22683067820270064E-07
  6.54578435048534739E-07  6.88106755899890629E-07  7.23351570269118785E-07
  7.60400686959509294E-07  7.99346401444046000E-07  8.40285724705105922E-07
  8.83320623713943459E-07  9.28558274139532198E-07  9.76111325905976024E-07
  1.02609818224885148E-06  1.07864329295777558E-06  1.13387746252561130E-06
  1.19193817393067137E-06  1.25296992886914906E-06  1.31712460526509363E-06
  1.38456183292786878E-06  1.45544938827335731E-06  1.52996360907107410E-06
  1.60828983022747502E-06  1.69062284166628894E-06  1.77716736941970822E-06
  1.86813858110341704E-06  1.96376261702067265E-06  2.06427714813057435E-06
  2.16993196226629432E-06  2.28098958003483948E-06  2.39772590187956512E-06
  2.52043088787087265E-06  2.64940927186847671E-06  2.78498131178001410E-06
  2.92748357772652045E-06  3.07726978001477206E-06  3.23471163892216456E-06
  3.40019979840880857E-06  3.57414478584845167E-06  3.75697802016981240E-06
  3.94915287082390530E-06  4.15114577010181480E-06  4.36345738146515842E-06
  4.58661382668223191E-06  4.82116797469997593E-06  5.06770079532562171E-06
  5.32682278094439305E-06  5.59917543971306204E-06  5.88543286367958375E-06
  6.18630337550751888E-06  6.50253125783988419E-06  6.83489856934326157E-06
  7.18422705171869110E-06  7.55138013217750227E-06  7.93726502609811202E-06
  8.34283494480767525E-06  8.76909141367174426E-06  9.21708670599363039E-06
  9.68792639838001569E-06  1.01827720533002210E-05  1.07028440353916054E-05
  1.12494244679896032E-05  1.18238603367291553E-05  1.24275667474101274E-05
  1.30620303456603002E-05  1.37288129062879935E-05  1.44295551005892622E-05
  1.51659804503774982E-05  1.59398994777529760E-05  1.67532140596771972E-05
  1.76079219977967027E-05  1.85061218137943949E-05  1.94500177811183493E-05
  2.04419252044778937E-05  2.14842759590229698E-05  2.25796243016752790E-05
  2.37306529676574778E-05  2.49401795661074413E-05  2.62111632887257790E-05
  2.75467119459639138E-05  2.89500893470934773E-05  3.04247230402136378E-05
  3.19742124292021339E-05  3.36023372854106617E-05  3.53130666726995054E-05
  3.71105683052357045E-05  3.89992183583915664E-05  4.09836117544060949E-05
  4.30685729437051696E-05  4.52591672053993013E-05  4.75607124916162350E-05
  4.99787918404514796E-05  5.25192663837285078E-05  5.51882889768860681E-05
  5.79923184794685424E-05  6.09381347158959415E-05  6.40328541478127675E-05
  6.72839462902789776E-05  7.06992509033566935E-05  7.42869959961174224E-05
  7.80558166789992587E-05  8.20147749021233214E-05  8.61733801188650035E-05
  9.05416109155283559E-05  9.51299376495690351E-05  9.99493461405786984E-05
  1.05011362460920857E-04  1.10328078870672544E-04  1.15912180947251985E-04
  1.21776975962163808E-04  1.27936422557035548E-04  1.34405161773789146E-04
  1.41198549495745982E-04  1.48332690358426420E-04  1.55824473190830992E-04
  1.63691608051245898E-04  1.71952664920889436E-04  1.80627114119927528E-04
  1.89735368519044150E-04  1.99298827616359032E-04  2.09339923552744137E-04
  2.19882169140864204E-04  2.30950207985357130E-04  2.42569866773637146E-04
  2.54768209819781989E-04  2.67573595945529369E-04  2.81015737777787287E-04
  2.95125763556187385E-04  3.09936281538849710E-04  3.25481447096562704E-04
  3.41797032587784109E-04  3.58920500108313579E-04  3.76891077210774795E-04
  3.95749835690763479E-04  4.15539773538681656E-04  4.36305900147192466E-04
  4.58095324878624326E-04  4.80957349091137680E-04  5.04943561720396319E-04
  5.30107938514162475E-04  5.56506945016243008E-04  5.84199643394697527E-04
  6.13247803207592592E-04  6.43716016198661242E-04  6.75671815202799988E-04
  7.09185797249419782E-04  7.44331750944073186E-04  7.81186788199791796E-04
  8.19831480384903655E-04  8.60349998946797405E-04  9.02830260562659422E-04
  9.47364076858690112E-04  9.94047308728417470E-04  1.04298002526554854E-03
  1.09426666731903032E-03  1.14801621565990982E-03  1.20434236373092186E-03
  1.26336369493175579E-03  1.32520386437178905E-03  1.38999178499882216E-03
  1.45786181798616076E-03  1.52895396722661889E-03  1.60341407776644915E-03
  1.68139403797006514E-03  1.76305198516088935E-03  1.84855251445264265E-03
  1.93806689043891141E-03  2.03177326136071406E-03  2.12985687531965255E-03
  2.23251029804584153E-03  2.33993363164978173E-03  2.45233473378366797E-03
  2.56992943651734949E-03  2.69294176413981167E-03  2.82160414904916853E-03
  2.95615764479413524E-03  3.09685213523386467E-03  3.24394653868005037E-03
  3.39770900576887806E-03  3.55841710964730808E-03  3.72635802710543284E-03
  3.90182870898729030E-03  4.08513603806232722E-03  4.27659697246548284E-03
  4.47653867262417550E-03  4.68529860941837434E-03  4.90322465113795201E-03
  5.13067512658869559E-03  5.36801886140983366E-03  5.61563518485784594E-03
  5.87391390362030502E-03  6.14325523908302966E-03  6.42406972434685346E-03
  6.71677805697614566E-03  7.02181090318884996E-03  7.33960864891474579E-03
  7.67062109279228674E-03  8.01530707576330118E-03  8.37413404242096961E-03
  8.74757752782507302E-03  9.13612056360929396E-03  9.54025299697693063E-03
  9.96047071574885853E-03  1.03972747722744473E-02  1.08511703986601590E-02
  1.13226659052343206E-02  1.18122714538563926E-02  1.23204976985959100E-02
  1.28478542837621463E-02  1.33948481901422101E-02  1.39619819199544373E-02
  1.45497515106219437E-02  1.51586443672017037E-02  1.57891369030633069E-02
  1.64416919777534871E-02  1.71167561215874731E-02  1.78147565375797214E-02
  1.85360978679584565E-02  1.92811587148961003E-02  2.00502879048424683E-02
  2.08438004859694201E-02  2.16619734485722741E-02  2.25050411587075054E-02
  2.33731904950228928E-02  2.42665556820112933E-02  2.51852128132469683E-02
  2.61291740559338632E-02  2.70983815327996147E-02  2.80927008781594392E-02
  2.91119144667844471E-02  3.01557143163867711E-02  3.12236946669026405E-02
  3.23153442413291886E-02  3.34300382011300107E-02  3.45670298081176067E-02
  3.57254418079916633E-02  3.69042575584235602E-02  3.81023119286081902E-02
  3.93182820028495777E-02  4.05506776270141284E-02  4.17978318432536411E-02
  4.30578912653557175E-02  4.43288064607981272E-02  4.56083224062892589E-02
  4.68939690968160142E-02  4.81830523998415458E-02  4.94726452568145930E-02
  5.07595793463071973E-02  5.20404373360802003E-02  5.33115458651683763E-02
  5.45689694127028391E-02  5.58085052246048846E-02  5.70256794836412270E-02
  5.82157449278203620E-02  5.93736801388884960E-02  6.04941907405082066E-02
  6.15717127640698011E-02  6.26004184587377471E-02  6.35742248446304892E-02
  6.44868053208254438E-02  6.53316046512483067E-02  6.61018576867867802E-02
  6.67906121867204994E-02  6.73907561189156790E-02  6.78950498312403117E-02
  6.82961634967968745E-02  6.85867202437101947E-02  6.87593453975617191E-02
  6.88067222187879052E-02  6.87216545405385515E-02  6.84971367205763348E-02
  6.81264312698976748E-02  6.76031545010463003E-02  6.69213705014160415E-02
  6.60756936881865542E-02  6.50614001484045579E-02  6.38745479122552473E-02
  6.25121061010992796E-02  6.09720929396479691E-02  5.92537224473184201E-02
  5.73575594585275725E-02  5.52856824727170765E-02  5.30418536503977009E-02
  5.06316950637950569E-02  4.80628701046658321E-02  4.53452686585855691E-02
  4.24911942662045891E-02  3.95155514343328435E-02  3.64360307581709023E-02
  3.32732891763672933E-02  3.00511223066152848E-02  2.67966254044593455E-02
  2.35403390658745805E-02  2.03163753832617498E-02  1.71625197072150064E-02
  1.41203028081661186E-02  1.12350378695509311E-02  8.55581618852388308E-03
  6.13545510352634001E-03  4.03039133441618781E-03  2.30051250544541881E-03
  1.00890923363631787E-03  2.21253065278544808E-04 -3.40024118209501270E-06
 -2.51386785623901825E-07 -1.63062613284093125E-08 -9.27343177140964803E-10
 -4.40565518274631015E-11 -1.45089475678242139E-12  4.87706129409115116E-15
  5.95759748758268887E-15  6.70925507630339699E-16  5.57041440104704608E-17
  3.94677405785544325E-18  2.46297515783275162E-19  0.00000000000000000E+00
  0.00000000000000000E+00  0.00000000000000000E+00  0.00000000000000000E+00
  0.00000000000000000E+00  0.00000000000000000E+00  0.00000000000000000E+00
  0.00000000000000000E+00  0.00000000000000000E+00  0.00000000000000000E+00
  0.00000000000000000E+00  0.00000000000000000E+00  0.00000000000000000E+00
  0.00000000000000000E+00  0.00000000000000000E+00  0.00000000000000000E+00
  0.00000000000000000E+00  0.00000000000000000E+00  0.00000000000000000E+00
  0.00000000000000000E+00  0.00000000000000000E+00  0.00000000000000000E+00
  0.00000000000000000E+00  0.00000000000000000E+00  0.00000000000000000E+00
  0.00000000000000000E+00  0.00000000000000000E+00  0.00000000000000000E+00
  0.00000000000000000E+00  0.00000000000000000E+00  0.00000000000000000E+00
  0.00000000000000000E+00  0.00000000000000000E+00  0.00000000000000000E+00
  0.00000000000000000E+00  0.00000000000000000E+00  0.00000000000000000E+00
  0.00000000000000000E+00  0.00000000000000000E+00  0.00000000000000000E+00
  0.00000000000000000E+00  0.00000000000000000E+00  0.00000000000000000E+00
  0.00000000000000000E+00  0.00000000000000000E+00  0.00000000000000000E+00
  0.00000000000000000E+00  0.00000000000000000E+00  0.00000000000000000E+00
  0.00000000000000000E+00  0.00000000000000000E+00  0.00000000000000000E+00
  0.00000000000000000E+00  0.00000000000000000E+00  0.00000000000000000E+00
  0.00000000000000000E+00  0.00000000000000000E+00  0.00000000000000000E+00
  0.00000000000000000E+00  0.00000000000000000E+00  0.00000000000000000E+00
  0.00000000000000000E+00  0.00000000000000000E+00  0.00000000000000000E+00
  0.00000000000000000E+00  0.00000000000000000E+00  0.00000000000000000E+00
  0.00000000000000000E+00  0.00000000000000000E+00  0.00000000000000000E+00
  0.00000000000000000E+00  0.00000000000000000E+00  0.00000000000000000E+00
  0.00000000000000000E+00  0.00000000000000000E+00  0.00000000000000000E+00
  0.00000000000000000E+00  0.00000000000000000E+00  0.00000000000000000E+00
  0.00000000000000000E+00  0.00000000000000000E+00  0.00000000000000000E+00
  0.00000000000000000E+00  0.00000000000000000E+00  0.00000000000000000E+00
  0.00000000000000000E+00  0.00000000000000000E+00  0.00000000000000000E+00
  0.00000000000000000E+00  0.00000000000000000E+00  0.00000000000000000E+00
  0.00000000000000000E+00  0.00000000000000000E+00  0.00000000000000000E+00
  0.00000000000000000E+00  0.00000000000000000E+00  0.00000000000000000E+00
  0.00000000000000000E+00  0.00000000000000000E+00  0.00000000000000000E+00
  0.00000000000000000E+00  0.00000000000000000E+00  0.00000000000000000E+00
  0.00000000000000000E+00  0.00000000000000000E+00  0.00000000000000000E+00
  0.00000000000000000E+00  0.00000000000000000E+00  0.00000000000000000E+00
  0.00000000000000000E+00  0.00000000000000000E+00  0.00000000000000000E+00
  0.00000000000000000E+00  0.00000000000000000E+00  0.00000000000000000E+00
  0.00000000000000000E+00  0.00000000000000000E+00  0.00000000000000000E+00
  0.00000000000000000E+00  0.00000000000000000E+00  0.00000000000000000E+00
  0.00000000000000000E+00  0.00000000000000000E+00  0.00000000000000000E+00
  0.00000000000000000E+00  0.00000000000000000E+00  0.00000000000000000E+00
  0.00000000000000000E+00  0.00000000000000000E+00  0.00000000000000000E+00
  0.00000000000000000E+00  0.00000000000000000E+00  0.00000000000000000E+00
  0.00000000000000000E+00  0.00000000000000000E+00  0.00000000000000000E+00
  0.00000000000000000E+00  0.00000000000000000E+00  0.00000000000000000E+00
  0.00000000000000000E+00  0.00000000000000000E+00  0.00000000000000000E+00
  0.00000000000000000E+00  0.00000000000000000E+00  0.00000000000000000E+00
  0.00000000000000000E+00  0.00000000000000000E+00  0.00000000000000000E+00
  0.00000000000000000E+00  0.00000000000000000E+00  0.00000000000000000E+00
  0.00000000000000000E+00  0.00000000000000000E+00  0.00000000000000000E+00
  0.00000000000000000E+00  0.00000000000000000E+00  0.00000000000000000E+00
  0.00000000000000000E+00  0.00000000000000000E+00  0.00000000000000000E+00
  0.00000000000000000E+00  0.00000000000000000E+00  0.00000000000000000E+00
  0.00000000000000000E+00  0.00000000000000000E+00  0.00000000000000000E+00
  0.00000000000000000E+00
                       </PP_QIJL.4.4.2>
                                   </PP_AUGMENTATION> 
                                   </PP_NONLOCAL> 
<PP_PSWFC> 
 <PP_CHI.1 type="real" size="   961" l="0" occupation=" 2.0000" columns="3" label= "2S">
  1.96506771047344345E-04  1.98978521907123602E-04  2.01481363563889922E-04
  2.04015687091671879E-04  2.06581888483602398E-04  2.09180368713792110E-04
  2.11811533799982984E-04  2.14475794866989173E-04  2.17173568210935717E-04
  2.19905275364306365E-04  2.22671343161807777E-04  2.25472203807063510E-04
  2.28308294940146860E-04  2.31180059705962307E-04  2.34087946823488844E-04
  2.37032410655891402E-04  2.40013911281517010E-04  2.43032914565782549E-04
  2.46089892233966622E-04  2.49185321944918553E-04  2.52319687365691852E-04
  2.55493478247118856E-04  2.58707190500334855E-04  2.61961326274265209E-04
  2.65256394034087107E-04  2.68592908640677083E-04  2.71971391431060174E-04
  2.75392370299868577E-04  2.78856379781826282E-04  2.82363961135271787E-04
  2.85915662426729277E-04  2.89512038616545632E-04  2.93153651645603516E-04
  2.96841070523125425E-04  3.00574871415583151E-04  3.04355637736723099E-04
  3.08183960238726546E-04  3.12060437104515361E-04  3.15985674041218420E-04
  3.19960284374815789E-04  3.23984889145969559E-04  3.28060117207063635E-04
  3.32186605320462585E-04  3.36364998258006280E-04  3.40595948901757585E-04
  3.44880118346014078E-04  3.49218176000606006E-04  3.53610799695492739E-04
  3.58058675786673440E-04  3.62562499263432872E-04  3.67122973856932107E-04
  3.71740812150168746E-04  3.76416735689318570E-04  3.81151475096477442E-04
  3.85945770183823570E-04  3.90800370069211507E-04  3.95716033293224139E-04
  4.00693527937695385E-04  4.05733631745722981E-04  4.10837132243193389E-04
  4.16004826861830995E-04  4.21237523063799500E-04  4.26536038467867818E-04
  4.31901200977163619E-04  4.37333848908535408E-04  4.42834831123537908E-04
  4.48405007161068966E-04  4.54045247371672660E-04  4.59756433053531857E-04
  4.65539456590173333E-04  4.71395221589901046E-04  4.77324643026986800E-04
  4.83328647384635691E-04  4.89408172799748239E-04  4.95564169209507612E-04
  5.01797598499804627E-04  5.08109434655534516E-04  5.14500663912782264E-04
  5.20972284912922111E-04  5.27525308858656900E-04  5.34160759672016260E-04
  5.40879674154347008E-04  5.47683102148312792E-04  5.54572106701931066E-04
  5.61547764234677409E-04  5.68611164705672720E-04  5.75763411783991423E-04
  5.83005623021108817E-04  5.90338930025519201E-04  5.97764478639549414E-04
  6.05283429118395845E-04  6.12896956311413882E-04  6.20606249845689060E-04
  6.28412514311914305E-04  6.36316969452608520E-04  6.44320850352698938E-04
  6.52425407632503044E-04  6.60631907643138123E-04  6.68941632664386094E-04
  6.77355881105051261E-04  6.85875967705832528E-04  6.94503223744753046E-04
  7.03238997245169274E-04  7.12084653186398722E-04  7.21041573716998886E-04
  7.30111158370722437E-04  7.39294824285194178E-04  7.48594006423337118E-04
  7.58010157797583094E-04  7.67544749696905354E-04  7.77199271916701948E-04
  7.86975232991575231E-04  7.96874160431038179E-04  8.06897600958183712E-04
  8.17047120751359106E-04  8.27324305688875413E-04  8.37730761596798719E-04
  8.48268114499856215E-04  8.58938010875499132E-04  8.69742117911162234E-04
  8.80682123764752931E-04  8.91759737828425633E-04  9.02976690995666389E-04
  9.14334735931741048E-04  9.25835647347545863E-04  9.37481222276894690E-04
  9.49273280357304148E-04  9.61213664114303197E-04  9.73304239249321015E-04
  9.85546894931198713E-04  9.97943544091359257E-04  1.01049612372269859E-03
  1.02320659518223100E-03  1.03607694449754260E-03  1.04910918267709925E-03
  1.06230534602445793E-03  1.07566749645642717E-03  1.08919772182523053E-03
  1.10289813624472400E-03  1.11677088042071355E-03  1.13081812198543023E-03
  1.14504205583620630E-03  1.15944490447841722E-03  1.17402891837273303E-03
  1.18879637628673679E-03  1.20374958565097135E-03  1.21889088291945308E-03
  1.23422263393472989E-03  1.24974723429752458E-03  1.26546710974102979E-03
  1.28138471650991216E-03  1.29750254174407545E-03  1.31382310386725723E-03
  1.33034895298051359E-03  1.34708267126064244E-03  1.36402687336363527E-03
  1.38118420683318137E-03  1.39855735251432712E-03  1.41614902497232869E-03
  1.43396197291677263E-03  1.45199897963103962E-03  1.47026286340715064E-03
  1.48875647798610202E-03  1.50748271300372278E-03  1.52644449444214788E-03
  1.54564478508697079E-03  1.56508658499013168E-03  1.58477293193864119E-03
  1.60470690192919345E-03  1.62489160964874517E-03  1.64533020896114610E-03
  1.66602589339987449E-03  1.68698189666698648E-03  1.70820149313832608E-03
  1.72968799837509455E-03  1.75144476964185568E-03  1.77347520643104592E-03
  1.79578275099408755E-03  1.81837088887917809E-03  1.84124314947584208E-03
  1.86440310656633577E-03  1.88785437888397065E-03  1.91160063067847652E-03
  1.93564557228845984E-03  1.95999296072106631E-03  1.98464660023893414E-03
  2.00961034295451873E-03  2.03488808943190014E-03  2.06048378929615198E-03
  2.08640144185037301E-03  2.11264509670048466E-03  2.13921885438786864E-03
  2.16612686702997211E-03  2.19337333896896334E-03  2.22096252742854001E-03
  2.24889874317900709E-03  2.27718635121069643E-03  2.30582977141587011E-03
  2.33483347927918939E-03  2.36420200657686767E-03  2.39393994208461722E-03
  2.42405193229447815E-03  2.45454268214068344E-03  2.48541695573463320E-03
  2.51667957710911307E-03  2.54833543097187634E-03  2.58038946346867901E-03
  2.61284668295593036E-03  2.64571216078304068E-03  2.67899103208461050E-03
  2.71268849658258364E-03  2.74680981939845904E-03  2.78136033187574615E-03
  2.81634543241273023E-03  2.85177058730572185E-03  2.88764133160290424E-03
  2.92396326996889611E-03  2.96074207756020363E-03  2.99798350091166161E-03
  3.03569335883401839E-03  3.07387754332281082E-03  3.11254202047864552E-03
  3.15169283143905280E-03  3.19133609332206006E-03  3.23147800018161024E-03
  3.27212482397500407E-03  3.31328291554246982E-03  3.35495870559907516E-03
  3.39715870573907867E-03  3.43988950945292062E-03  3.48315779315698298E-03
  3.52697031723628361E-03  3.57133392710027231E-03  3.61625555425190834E-03
  3.66174221737014917E-03  3.70780102340605416E-03  3.75443916869264106E-03
  3.80166394006870544E-03  3.84948271601674285E-03  3.89790296781517215E-03
  3.94693226070503937E-03  3.99657825507135356E-03  4.04684870763928443E-03
  4.09775147268536932E-03  4.14929450326395523E-03  4.20148585244899987E-03
  4.25433367459152403E-03  4.30784622659280414E-03  4.36203186919358402E-03
  4.41689906827947946E-03  4.47245639620273434E-03  4.52871253312062735E-03
  4.58567626835063632E-03  4.64335650174264956E-03  4.70176224506838134E-03
  4.76090262342824047E-03  4.82078687667586957E-03  4.88142436086053209E-03
  4.94282454968764280E-03  5.00499703599760915E-03  5.06795153326322721E-03
  5.13169787710589416E-03  5.19624602683081086E-03  5.26160606698148400E-03
  5.32778820891371876E-03  5.39480279238934053E-03  5.46266028718995610E-03
  5.53137129475091225E-03  5.60094654981577698E-03  5.67139692211157849E-03
  5.74273341804502381E-03  5.81496718242003642E-03  5.88810950017678615E-03
  5.96217179815255842E-03  6.03716564686469781E-03  6.11310276231587322E-03
  6.18999500782203838E-03  6.26785439586323174E-03  6.34669308995762863E-03
  6.42652340655907890E-03  6.50735781697837478E-03  6.58920894932866173E-03
  6.67208959049517703E-03  6.75601268812968218E-03  6.84099135266988834E-03
  6.92703885938414886E-03  7.01416865044180837E-03  7.10239433700942183E-03
  7.19172970137326156E-03  7.28218869908840542E-03  7.37378546115467423E-03
  7.46653429621988492E-03  7.56044969281060610E-03  7.65554632159087117E-03
  7.75183903764916065E-03  7.84934288281395436E-03  7.94807308799829783E-03
  8.04804507557365344E-03  8.14927446177346124E-03  8.25177705912676432E-03
  8.35556887892221177E-03  8.46066613370291890E-03  8.56708523979247093E-03
  8.67484281985249177E-03  8.78395570547221144E-03  8.89444093979030112E-03
  9.00631578014954304E-03  9.11959770078456765E-03  9.23430439554321497E-03
  9.35045378064183752E-03  9.46806399745494728E-03  9.58715341533977576E-03
  9.70774063449595867E-03  9.82984448886093862E-03  9.95348404904149858E-03
  1.00786786252817888E-02  1.02054477704683969E-02  1.03338112831728012E-02
  1.04637892107317960E-02  1.05954018523662617E-02  1.07286697623387387E-02
  1.08636137531503574E-02  1.10002548987775152E-02  1.11386145379488381E-02
  1.12787142774629420E-02  1.14205759955473655E-02  1.15642218452593412E-02
  1.17096742579288014E-02  1.18569559466441387E-02  1.20060899097812895E-02
  1.21570994345766101E-02  1.23100081007441377E-02  1.24648397841376785E-02
  1.26216186604583523E-02  1.27803692090081075E-02  1.29411162164897384E-02
  1.31038847808539836E-02  1.32687003151943216E-02  1.34355885516898657E-02
  1.36045755455972035E-02  1.37756876792914842E-02  1.39489516663575067E-02
  1.41243945557314420E-02  1.43020437358935947E-02  1.44819269391130365E-02
  1.46640722457445482E-02  1.48485080885786234E-02  1.50352632572450951E-02
  1.52243669026709671E-02  1.54158485415932297E-02  1.56097380611271742E-02
  1.58060657233909316E-02  1.60048621701868662E-02  1.62061584277404663E-02
  1.64099859114975218E-02  1.66163764309800489E-02  1.68253621947018657E-02
  1.70369758151444305E-02  1.72512503137935390E-02  1.74682191262377808E-02
  1.76879161073292650E-02  1.79103755364075114E-02  1.81356321225870920E-02
  1.83637210101097806E-02  1.85946777837621147E-02  1.88285384743587456E-02
  1.90653395642927416E-02  1.93051179931533617E-02  1.95479111634120038E-02
  1.97937569461773787E-02  2.00426936870203506E-02  2.02947602118693921E-02
  2.05499958329776085E-02  2.08084403549616617E-02  2.10701340809138840E-02
  2.13351178185880903E-02  2.16034328866599665E-02  2.18751211210629418E-02
  2.21502248814001608E-02  2.24287870574336572E-02  2.27108510756513157E-02
  2.29964609059125150E-02  2.32856610681735320E-02  2.35784966392931054E-02
  2.38750132599194476E-02  2.41752571414592735E-02  2.44792750731298650E-02
  2.47871144290950016E-02  2.50988231756854689E-02  2.54144498787053641E-02
  2.57340437108246889E-02  2.60576544590593109E-02  2.63853325323393471E-02
  2.67171289691663164E-02  2.70530954453606538E-02  2.73932842818997956E-02
  2.77377484528483348E-02  2.80865415933806914E-02  2.84397180078973175E-02
  2.87973326782355807E-02  2.91594412719758042E-02  2.95261001508436809E-02
  2.98973663792098977E-02  3.02732977326876755E-02  3.06539527068294473E-02
  3.10393905259232460E-02  3.14296711518899582E-02  3.18248552932820436E-02
  3.22250044143850278E-02  3.26301807444221714E-02  3.30404472868635335E-02
  3.34558678288401495E-02  3.38765069506643257E-02  3.43024300354566117E-02
  3.47337032788808051E-02  3.51703936989872443E-02  3.56125691461657429E-02
  3.60602983132086510E-02  3.65136507454849879E-02  3.69726968512265886E-02
  3.74375079119266749E-02  3.79081560928520370E-02  3.83847144536694079E-02
  3.88672569591867675E-02  3.93558584902102895E-02  3.98505948545177999E-02
  4.03515427979492802E-02  4.08587800156150621E-02  4.13723851632226622E-02
  4.18924378685224669E-02  4.24190187428732032E-02  4.29522093929275914E-02
  4.34920924324388239E-02  4.40387514941883995E-02  4.45922712420356512E-02
  4.51527373830896764E-02  4.57202366800037729E-02  4.62948569633931731E-02
  4.68766871443760114E-02  4.74658172272380413E-02  4.80623383222214123E-02
  4.86663426584375697E-02  4.92779235969044438E-02  4.98971756437083733E-02
  5.05241944632901438E-02  5.11590768918560521E-02  5.18019209509130232E-02
  5.24528258609283649E-02  5.31118920551135604E-02  5.37792211933321856E-02
  5.44549161761311365E-02  5.51390811588953825E-02  5.58318215661252962E-02
  5.65332441058360793E-02  5.72434567840790498E-02  5.79625689195832558E-02
  5.86906911585175564E-02  5.94279354893711489E-02  6.01744152579527583E-02
  6.09302451825061292E-02  6.16955413689413562E-02  6.24704213261803865E-02
  6.32550039816151960E-02  6.40494096966771204E-02  6.48537602825153547E-02
  6.56681790157829515E-02  6.64927906545282749E-02  6.73277214541891517E-02
  6.81730991836882322E-02  6.90290531416263703E-02  6.98957141725713577E-02
  7.07732146834394310E-02  7.16616886599661801E-02  7.25612716832635674E-02
  7.34721009464597979E-02  7.43943152714179462E-02  7.53280551255297859E-02
  7.62734626385802444E-02  7.72306816196786233E-02  7.81998575742509638E-02
  7.91811377210897976E-02  8.01746710094550091E-02  8.11806081362209386E-02
  8.21991015630635230E-02  8.32303055336817005E-02  8.42743760910462519E-02
  8.53314710946696670E-02  8.64017502378893187E-02  8.74853750651571477E-02
  8.85825089893274298E-02  8.96933173089344282E-02  9.08179672254512405E-02
  9.19566278605211673E-02  9.31094702731505297E-02  9.42766674768551749E-02
  9.54583944567479331E-02  9.66548281865571846E-02  9.78661476455645468E-02
  9.90925338354501500E-02  1.00334169797031594E-01  1.01591240626884585E-01
  1.02863933493830745E-01  1.04152437655277902E-01  1.05456944473398442E-01
  1.06777647431128830E-01  1.08114742147974396E-01  1.09468426395602225E-01
  1.10838900113203090E-01  1.12226365422604862E-01  1.13631026643116514E-01
  1.15053090306082559E-01  1.16492765169127252E-01  1.17950262230064107E-01
  1.19425794740450064E-01  1.20919578218757359E-01  1.22431830463139490E-01
  1.23962771563764118E-01  1.25512623914685040E-01  1.27081612225224849E-01
  1.28669963530838538E-01  1.30277907203425913E-01  1.31905674961061481E-01
  1.33553500877107378E-01  1.35221621388673302E-01  1.36910275304388818E-01
  1.38619703811447142E-01  1.40350150481883651E-01  1.42101861278044833E-01
  1.43875084557206934E-01  1.45670071075298030E-01  1.47487073989677919E-01
  1.49326348860927188E-01  1.51188153653594698E-01  1.53072748735851860E-01
  1.54980396877998444E-01  1.56911363249764679E-01  1.58865915416349396E-01
  1.60844323333134392E-01  1.62846859339010858E-01  1.64873798148252010E-01
  1.66925416840864316E-01  1.69001994851344761E-01  1.71103813955772566E-01
  1.73231158257155821E-01  1.75384314168956806E-01  1.77563570396710141E-01
  1.79769217917651186E-01  1.82001549958263731E-01  1.84260861969654577E-01
  1.86547451600660802E-01  1.88861618668589554E-01  1.91203665127486599E-01
  1.93573895033829213E-01  1.95972614509529353E-01  1.98400131702135968E-01
  2.00856756742114118E-01  2.03342801697079661E-01  2.05858580522861850E-01
  2.08404409011258562E-01  2.10980604734349986E-01  2.13587486985227309E-01
  2.16225376714989453E-01  2.18894596465854685E-01  2.21595470300230413E-01
  2.24328323725576623E-01  2.27093483614893649E-01  2.29891278122661497E-01
  2.32722036596045539E-01  2.35586089481182870E-01  2.38483768224355935E-01
  2.41415405167852704E-01  2.44381333440304688E-01  2.47381886841289922E-01
  2.50417399719977563E-01  2.53488206847586217E-01  2.56594643283418744E-01
  2.59737044234229719E-01  2.62915744906668913E-01  2.66131080352543015E-01
  2.69383385306626144E-01  2.72672994016740111E-01  2.76000240065817470E-01
  2.79365456185651173E-01  2.82768974062024614E-01  2.86211124130907768E-01
  2.89692235365397344E-01  2.93212635053057946E-01  2.96772648563322972E-01
  3.00372599104600624E-01  3.04012807470720015E-01  3.07693591776336928E-01
  3.11415267180913002E-01  3.15178145600868542E-01  3.18982535409497003E-01
  3.22828741124225160E-01  3.26717063080777192E-01  3.30647797093790385E-01
  3.34621234103436194E-01  3.38637659807572322E-01  3.42697354278942157E-01
  3.46800591566926775E-01  3.50947639283340440E-01  3.55138758171749835E-01
  3.59374201659787118E-01  3.63654215393915681E-01  3.67979036756060363E-01
  3.72348894361558824E-01  3.76764007537845391E-01  3.81224585783267123E-01
  3.85730828205427312E-01  3.90282922938429810E-01  3.94881046538395897E-01
  3.99525363356611429E-01  4.04216024889660464E-01  4.08953169105833125E-01
  4.13736919747159981E-01  4.18567385606391618E-01  4.23444659778221932E-01
  4.28368818884044933E-01  4.33339922269534772E-01  4.38358011174325490E-01
  4.43423107873070543E-01  4.48535214787179004E-01  4.53694313566407048E-01
  4.58900364139612937E-01  4.64153303733952083E-01  4.69453045861761786E-01
  4.74799479274391978E-01  4.80192466882249591E-01  4.85631844640328769E-01
  4.91117420398508364E-01  4.96648972715962700E-01  5.02226249638857758E-01
  5.07848967440690635E-01  5.13516809324675028E-01  5.19229424087495395E-01
  5.24986424743812852E-01  5.30787387110935760E-01  5.36631848353098961E-01
  5.42519305484848058E-01  5.48449213833146931E-01  5.54420985457563242E-01
  5.60433987528216493E-01  5.66487540661298139E-01  5.72580917211846785E-01
  5.78713339523598269E-01  5.84883978135810945E-01  5.91091949947046835E-01
  5.97336316336008255E-01  6.03616081239769620E-01  6.09930189189306970E-01
  6.16277523302862784E-01  6.22656903237883919E-01  6.29067083102113123E-01
  6.35506749324666997E-01  6.41974518488105828E-01  6.48468935122672008E-01
  6.54988469464110490E-01  6.61531515176917662E-01  6.68096387044099127E-01
  6.74681318625787729E-01  6.81284459889272553E-01  6.87903874812827887E-01
  6.94537538966182755E-01  7.01183337070782842E-01  7.07839060543325016E-01
  7.14502405026475995E-01  7.21170967911402006E-01  7.27842245855379266E-01
  7.34513632300278885E-01  7.41182414997640038E-01  7.47845773545996573E-01
  7.54500776946859020E-01  7.61144381186280583E-01  7.67773426849473362E-01
  7.74384636776747848E-01  7.80974613769980675E-01  7.87539838356622557E-01
  7.94076666622962613E-01  8.00581328127374592E-01  8.07049923904613720E-01
  8.13478424573319980E-01  8.19862668559670715E-01  8.26198360450952407E-01
  8.32481069494237058E-01  8.38706228256043795E-01  8.44869131455969868E-01
  8.50964934995052769E-01  8.56988655196752935E-01  8.62935168279613363E-01
  8.68799210082001783E-01  8.74575376060409138E-01  8.80258121583855302E-01
  8.85841762549330558E-01  8.91320476342134405E-01  8.96688303162889611E-01
  9.01939147753497594E-01  9.07066781548715229E-01  9.12064845282208991E-01
  9.16926852077316612E-01  9.21646191053786978E-01  9.26216131482850646E-01
  9.30629827526477271E-01  9.34880323590728479E-01  9.38960560325586280E-01
  9.42863381313569393E-01  9.46581540480924799E-01  9.50107710267903083E-01
  9.53434490595131523E-01  9.56554418663229877E-01  9.59459979623133230E-01
  9.62143618158135761E-01  9.64597751003587023E-01  9.66814780442584731E-01
  9.68787108817671827E-01  9.70507154087946633E-01  9.71967366462103799E-01
  9.73160246135531315E-01  9.74078362156664546E-01  9.74714372445529276E-01
  9.75061044986506364E-01  9.75111280190953056E-01  9.74858134449322900E-01
  9.74294844875329580E-01  9.73414855232853649E-01  9.72211843031050904E-01
  9.70679747763966594E-01  9.68812800260719142E-01  9.66605553103924486E-01
  9.64052912058496081E-01  9.61150168421721074E-01  9.57893032226851959E-01
  9.54277666192387852E-01  9.50300720293021484E-01  9.45959366810154689E-01
  9.41251335698454872E-01  9.36174950081948065E-01  9.30729161671891791E-01
  9.24913585861369514E-01  9.18728536227155779E-01  9.12175058157531971E-01
  9.05254961274900904E-01  8.97970850294888212E-01  8.90326153931136677E-01
  8.82325151421268106E-01  8.73972996215215847E-01  8.65275736329250700E-01
  8.56240330841687047E-01  8.46874661979844845E-01  8.37187542207262880E-01
  8.27188715698636057E-01  8.16888853569072926E-01  8.06299542209549136E-01
  7.95433264073886592E-01  7.84303370261374755E-01  7.72924044240078101E-01
  7.61310256169418831E-01  7.49477707241049007E-01  7.37442763555580028E-01
  7.25222379174995435E-01  7.12834008121330243E-01  7.00295505271680385E-01
  6.87625016327313654E-01  6.74840857290968654E-01  6.61961384268708208E-01
  6.49004854971610201E-01  6.35989283551448126E-01  6.22932291196604981E-01
  6.09850955655163562E-01  5.96761663745053461E-01  5.83679971982832946E-01
  5.70620481728212003E-01  5.57596736682731686E-01  5.44621152520569529E-01
  5.31704990384491927E-01  5.18858388208173538E-01  5.06090466839243969E-01
  4.93409531090804709E-01  4.80823381343422951E-01  4.68339553866425062E-01
  4.55965343588896233E-01  4.43707797697159567E-01  4.31573709846626630E-01
  4.19569614778462885E-01  4.07701783332322543E-01  3.95976217876643166E-01
  3.84398648167611656E-01  3.72974527647944643E-01  3.61709030196571302E-01
  3.50607047337151367E-01  3.39673185917307774E-01  3.28911766287356744E-01
  3.18326820961224388E-01  3.07922093774608496E-01  2.97701039550273439E-01
  2.87666824276143263E-01  2.77822325800263004E-01  2.68170135044863978E-01
  2.58712557740468918E-01  2.49451616680642280E-01  2.40389054487673476E-01
  2.31526336882242001E-01  2.22864656449883208E-01  2.14404936892559683E-01
  2.06147837751065072E-01  1.98093759581487283E-01  1.90242849567518718E-01
  1.82595007555437422E-01  1.75149892469688984E-01  1.67906929088122575E-01
  1.60865315159773592E-01  1.54024028832361687E-01  1.47381836359936957E-01
  1.40937300060342913E-01  1.34688786491532236E-01  1.28634474820407657E-01
  1.22772365359456542E-01  1.17100288200156444E-01  1.11615911948483165E-01
  1.06316752530158348E-01  1.01200182032446864E-01  9.62634375550474458E-02
  9.15036300440856404E-02  8.69177530849899738E-02  8.25026916446191111E-02
  7.82552307243891410E-02  7.41720638810326321E-02  7.02498016432272915E-02
  6.64849797942088233E-02  6.28740675053498649E-02  5.94134753094160903E-02
  5.60995629039701751E-02  5.29286467788930223E-02  4.98970076789974834E-02
  4.70008978489254645E-02  4.42365480766543778E-02  4.16001745553736951E-02
  3.90879855469194112E-02  3.66961878445718828E-02  3.44209930335943048E-02
  3.22586235479799047E-02  3.02053185280329629E-02  2.82573394841561382E-02
  2.64109757115819563E-02  2.46625495060682869E-02  2.30084211717913462E-02
  2.14449938110135678E-02  1.99687178916465452E-02  1.85760955884608989E-02
  1.72636848935627286E-02  1.60281035033661007E-02  1.48660324592920865E-02
  1.37742195168837692E-02  1.27494822825986454E-02  1.17887110984301480E-02
  1.08888716687221779E-02  1.00470074260733937E-02  9.26024163399291264E-03
  8.52577922620480037E-03  7.84090839400914709E-03  7.20300188698019383E-03
  6.60951804653690453E-03  6.05800159048767127E-03  5.54608414154743410E-03
  5.07148450473734330E-03  4.63200869991563149E-03  4.22554975678501605E-03
  3.85008728433175636E-03  3.50368682680723227E-03  3.18449898774423841E-03
  2.89075836423949078E-03  2.62078229854214272E-03  2.37296945540728908E-03
  2.14579823810409978E-03  1.93782505636334716E-03  1.74768245992945300E-03
  1.57407715655680388E-03  1.41578791925512856E-03  1.27166339021056755E-03
  1.14061981335636018E-03  1.02163870171085506E-03  9.13764451861739718E-04
  8.16101918365137583E-04  7.27813960380904366E-04  6.48118972834085360E-04
  5.76288416769268506E-04  5.11644347975318925E-04  4.53556961326136295E-04
  4.01442163899391356E-04  3.54759181919843348E-04  3.13008209333537086E-04
  2.75728105136238406E-04  2.42494145842643056E-04  2.12915839615959512E-04
  1.86634807093170483E-04  1.63322727147398208E-04  1.42679358611916876E-04
  1.24430639167809039E-04  1.08326862768625835E-04  9.41409372122739238E-05
  8.16667228950674289E-05  7.07174532646041615E-05  6.11242377665833380E-05
  5.27346450811877875E-05  4.54113653754474703E-05  3.90309529702527629E-05
  3.34826465173393073E-05  2.86672646599773563E-05  2.44961749930030464E-05
  2.08903339124539325E-05  1.77793948168929144E-05  1.51008822182869826E-05
  1.27994276253835767E-05  1.08260652917383594E-05  9.13758502486942370E-06
  7.69593862952557010E-06  6.46769692627639617E-06  5.42355430696410147E-06
  4.53787782581286504E-06  3.78829794672409604E-06  3.15533802936787899E-06
  2.62207941621366674E-06  2.17385996923749195E-06  1.79800330108179711E-06
  1.48357617502506767E-06  1.22117172148074548E-06  1.00271624245395566E-06
  8.21297502975502560E-07  6.71012568613071511E-07  5.46833250224369092E-07
  4.44487454547030720E-07  3.60354940578667440E-07  2.91375942005616043E-07
  2.34971291249468240E-07  1.88972796493187668E-07  1.51562730157116530E-07
  1.21221390979903124E-07  9.66818019913175565E-08  7.68906587124122145E-08
  6.09747936722521243E-08  4.82124659929383772E-08  3.80088495409733889E-08
  2.98751699512764835E-08  2.34110024889978290E-08  1.82892989897726580E-08
  1.42437643572018796E-08  1.10582467822852900E-08  8.55784565386102684E-09
  6.60148995936572902E-09  5.07576222993538403E-09  3.88977568253805603E-09
  2.97093931179198971E-09  2.26146897732157476E-09  1.71552301568922423E-09
  1.29685904456097574E-09  9.76923166971727791E-10  7.33297662557034951E-10
  5.48444955402960692E-10  4.08694670867235988E-10  3.03429736292595505E-10
  2.24434855363266872E-10
                              </PP_CHI.1>
 <PP_CHI.2 type="real" size="   961" l="0" occupation=" 0.0000" columns="3" label= "0S">
 -1.54602219583712915E-04 -1.56546876059243949E-04 -1.58515993300044778E-04
 -1.60509878984590521E-04 -1.62528844661472628E-04 -1.64573205798078094E-04
 -1.66643281829882060E-04 -1.68739396210360228E-04 -1.70861876461528533E-04
 -1.73011054225119743E-04 -1.75187265314402164E-04 -1.77390849766651231E-04
 -1.79622151896281003E-04 -1.81881520348643462E-04 -1.84169308154505715E-04
 -1.86485872785210167E-04 -1.88831576208530984E-04 -1.91206784945231804E-04
 -1.93611870126334754E-04 -1.96047207551111092E-04 -1.98513177745799241E-04
 -2.01010166023063165E-04 -2.03538562542197789E-04 -2.06098762370091960E-04
 -2.08691165542958571E-04 -2.11316177128839639E-04 -2.13974207290899799E-04
 -2.16665671351514257E-04 -2.19390989857163194E-04 -2.22150588644143634E-04
 -2.24944898905105631E-04 -2.27774357256427381E-04 -2.30639405806436725E-04
 -2.33540492224491083E-04 -2.36478069810926850E-04 -2.39452597567886853E-04
 -2.42464540271040919E-04 -2.45514368542207122E-04 -2.48602558922886708E-04
 -2.51729593948725179E-04 -2.54895962224907491E-04 -2.58102158502503782E-04
 -2.61348683755774716E-04 -2.64636045260448823E-04 -2.67964756672985538E-04
 -2.71335338110833049E-04 -2.74748316233697925E-04 -2.78204224325836113E-04
 -2.81703602379378376E-04 -2.85246997178705507E-04 -2.88834962385882215E-04
 -2.92468058627168217E-04 -2.96146853580616027E-04 -2.99871922064770622E-04
 -3.03643846128486428E-04 -3.07463215141870689E-04 -3.11330625888373968E-04
 -3.15246682658037883E-04 -3.19211997341914693E-04 -3.23227189527676797E-04
 -3.27292886596425856E-04 -3.31409723820722229E-04 -3.35578344463846069E-04
 -3.39799399880306768E-04 -3.44073549617618531E-04 -3.48401461519352927E-04
 -3.52783811829490202E-04 -3.57221285298082265E-04 -3.61714575288244193E-04
 -3.66264383884493626E-04 -3.70871422002448984E-04 -3.75536409499911293E-04
 -3.80260075289341162E-04 -3.85043157451750429E-04 -3.89886403352028793E-04
 -3.94790569755716625E-04 -3.99756422947250382E-04 -4.04784738849693821E-04
 -4.09876303145974893E-04 -4.15031911401649251E-04 -4.20252369189204355E-04
 -4.25538492213931171E-04 -4.30891106441376470E-04 -4.36311048226398397E-04
 -4.41799164443847580E-04 -4.47356312620887772E-04 -4.52983361070984645E-04
 -4.58681189029578023E-04 -4.64450686791460766E-04 -4.70292755849886670E-04
 -4.76208309037425850E-04 -4.82198270668592933E-04 -4.88263576684270660E-04
 -4.94405174797947337E-04 -5.00624024643796088E-04 -5.06921097926613887E-04
 -5.13297378573649116E-04 -5.19753862888336815E-04 -5.26291559705968984E-04
 -5.32911490551323148E-04 -5.39614689798269612E-04 -5.46402204831392276E-04
 -5.53275096209636602E-04 -5.60234437832020046E-04 -5.67281317105425569E-04
 -5.74416835114502085E-04 -5.81642106793707394E-04 -5.88958261101510958E-04
 -5.96366441196789689E-04 -6.03867804617442563E-04 -6.11463523461247787E-04
 -6.19154784569000494E-04 -6.26942789709950227E-04 -6.34828755769570557E-04
 -6.42813914939693236E-04 -6.50899514911029643E-04 -6.59086819068115874E-04
 -6.67377106686710712E-04 -6.75771673133673616E-04 -6.84271830069360003E-04
 -6.92878905652557033E-04 -7.01594244748001751E-04 -7.10419209136506618E-04
 -7.19355177727728232E-04 -7.28403546775614340E-04 -7.37565730096554316E-04
 -7.46843159290280041E-04 -7.56237283963540714E-04 -7.65749571956593337E-04
 -7.75381509572540856E-04 -7.85134601809551786E-04 -7.95010372596005339E-04
 -8.05010365028589921E-04 -8.15136141613397817E-04 -8.25389284510050984E-04
 -8.35771395778900339E-04 -8.46284097631326950E-04 -8.56929032683197709E-04
 -8.67707864211506074E-04 -8.78622276414239064E-04 -8.89673974673516272E-04
 -9.00864685822032113E-04 -9.12196158412853790E-04 -9.23670162992610319E-04
 -9.35288492378116842E-04 -9.47052961936480650E-04 -9.58965409868722612E-04
 -9.71027697496973656E-04 -9.83241709555276880E-04 -9.95609354484050134E-04
 -1.00813256472825105E-03 -1.02081329703928810E-03 -1.03365353278073169E-03
 -1.04665527823787096E-03 -1.05982056493115736E-03 -1.07315144993359868E-03
 -1.08665001619213269E-03 -1.10031837285305256E-03 -1.11415865559151908E-03
 -1.12817302694521505E-03 -1.14236367665220386E-03 -1.15673282199302177E-03
 -1.17128270813708440E-03 -1.18601560849344477E-03 -1.20093382506595843E-03
 -1.21603968881292394E-03 -1.23133556001122995E-03 -1.24682382862509626E-03
 -1.26250691467944226E-03 -1.27838726863795343E-03 -1.29446737178590164E-03
 -1.31074973661777345E-03 -1.32723690722977967E-03 -1.34393145971729443E-03
 -1.36083600257729236E-03 -1.37795317711585075E-03 -1.39528565786076393E-03
 -1.41283615297935379E-03 -1.43060740470153159E-03 -1.44860218974817703E-03
 -1.46682331976490522E-03 -1.48527364176128133E-03 -1.50395603855556074E-03
 -1.52287342922502499E-03 -1.54202876956196491E-03 -1.56142505253541630E-03
 -1.58106530875867638E-03 -1.60095260696271609E-03 -1.62109005447553492E-03
 -1.64148079770754115E-03 -1.66212802264303927E-03 -1.68303495533788424E-03
 -1.70420486242340067E-03 -1.72564105161663434E-03 -1.74734687223701037E-03
 -1.76932571572949887E-03 -1.79158101619433688E-03 -1.81411625092342435E-03
 -1.83693494094345350E-03 -1.86004065156586580E-03 -1.88343699294372686E-03
 -1.90712762063558199E-03 -1.93111623617641791E-03 -1.95540658765578756E-03
 -1.98000247030320287E-03 -2.00490772708088920E-03 -2.03012624928397079E-03
 -2.05566197714822027E-03 -2.08151890046542973E-03 -2.10770105920651428E-03
 -2.13421254415245782E-03 -2.16105749753316449E-03 -2.18824011367435567E-03
 -2.21576463965258205E-03 -2.24363537595846912E-03 -2.27185667716830108E-03
 -2.30043295262402506E-03 -2.32936866712180838E-03 -2.35866834160924866E-03
 -2.38833655389132779E-03 -2.41837793934525066E-03 -2.44879719164424470E-03
 -2.47959906349045668E-03 -2.51078836735706004E-03 -2.54236997623967032E-03
 -2.57434882441721566E-03 -2.60672990822233015E-03 -2.63951828682145286E-03
 -2.67271908300470472E-03 -2.70633748398568493E-03 -2.74037874221132139E-03
 -2.77484817618186197E-03 -2.80975117128118594E-03 -2.84509318061752520E-03
 -2.88087972587474251E-03 -2.91711639817429950E-03 -2.95380885894802646E-03
 -2.99096284082186765E-03 -3.02858414851070543E-03 -3.06667865972441072E-03
 -3.10525232608528092E-03 -3.14431117405696231E-03 -3.18386130588505087E-03
 -3.22390890054947976E-03 -3.26446021472886821E-03 -3.30552158377695002E-03
 -3.34709942271126928E-03 -3.38920022721425759E-03 -3.43183057464687986E-03
 -3.47499712507499904E-03 -3.51870662230857828E-03 -3.56296589495396204E-03
 -3.60778185747930285E-03 -3.65316151129338029E-03 -3.69911194583792636E-03
 -3.74564033969364794E-03 -3.79275396170011261E-03 -3.84046017208966237E-03
 -3.88876642363554601E-03 -3.93768026281444278E-03 -3.98720933098352121E-03
 -4.03736136557229178E-03 -4.08814420128933691E-03 -4.13956577134419988E-03
 -4.19163410868455405E-03 -4.24435734724885536E-03 -4.29774372323470880E-03
 -4.35180157638308512E-03 -4.40653935127862956E-03 -4.46196559866624334E-03
 -4.51808897678413098E-03 -4.57491825271355308E-03 -4.63246230374543631E-03
 -4.69073011876409724E-03 -4.74973079964827790E-03 -4.80947356268968899E-03
 -4.86996774002930628E-03 -4.93122278111160234E-03 -4.99324825415698326E-03
 -5.05605384765262216E-03 -5.11964937186189847E-03 -5.18404476035274307E-03
 -5.24925007154502642E-03 -5.31527549027730785E-03 -5.38213132939315345E-03
 -5.44982803134721593E-03 -5.51837616983143556E-03 -5.58778645142146268E-03
 -5.65806971724367499E-03 -5.72923694466298972E-03 -5.80129924899169206E-03
 -5.87426788521962229E-03 -5.94815424976589350E-03 -6.02296988225246507E-03
 -6.09872646729983734E-03 -6.17543583634506694E-03 -6.25310996948248623E-03
 -6.33176099732730372E-03 -6.41140120290242376E-03 -6.49204302354876132E-03
 -6.57369905285929562E-03 -6.65638204263722510E-03 -6.74010490487843544E-03
 -6.82488071377863621E-03 -6.91072270776545410E-03 -6.99764429155574734E-03
 -7.08565903823850200E-03 -7.17478069138356971E-03 -7.26502316717659961E-03
 -7.35640055658046479E-03 -7.44892712752347544E-03 -7.54261732711475688E-03
 -7.63748578388707619E-03 -7.73354731006744341E-03 -7.83081690387588646E-03
 -7.92930975185261733E-03 -8.02904123121407978E-03 -8.13002691223806487E-03
 -8.23228256067838962E-03 -8.33582414020938092E-03 -8.44066781490057823E-03
 -8.54682995172198999E-03 -8.65432712308027499E-03 -8.76317610938621983E-03
 -8.87339390165387508E-03 -8.98499770413172145E-03 -9.09800493696624225E-03
 -9.21243323889831857E-03 -9.32830046999275422E-03 -9.44562471440143873E-03
 -9.56442428316038769E-03 -9.68471771702121044E-03 -9.80652378931731218E-03
 -9.92986150886524845E-03 -1.00547501229016709E-02 -1.01812091200562463E-02
 -1.03092582333609573E-02 -1.04389174432962962E-02 -1.05702069808745764E-02
 -1.07031473307610502E-02 -1.08377592344330465E-02 -1.09740636933776357E-02
 -1.11120819723283595E-02 -1.12518356025412686E-02 -1.13933463851109227E-02
 -1.15366363943266263E-02 -1.16817279810694872E-02 -1.18286437762506989E-02
 -1.19774066942914745E-02 -1.21280399366451731E-02 -1.22805669953620251E-02
 -1.24350116566969530E-02 -1.25913980047609939E-02 -1.27497504252166924E-02
 -1.29100936090181251E-02 -1.30724525561958464E-02 -1.32368525796874009E-02
 -1.34033193092138181E-02 -1.35718786952025525E-02 -1.37425570127575076E-02
 -1.39153808656764435E-02 -1.40903771905164458E-02 -1.42675732607079036E-02
 -1.44469966907174192E-02 -1.46286754402603671E-02 -1.48126378185633283E-02
 -1.49989124886772355E-02 -1.51875284718415091E-02 -1.53785151518997607E-02
 -1.55719022797677024E-02 -1.57677199779536099E-02 -1.59659987451319756E-02
 -1.61667694607709328E-02 -1.63700633898137687E-02 -1.65759121874153072E-02
 -1.67843479037335166E-02 -1.69954029887769281E-02 -1.72091102973084761E-02
 -1.74255030938061210E-02 -1.76446150574809391E-02 -1.78664802873531557E-02
 -1.80911333073866323E-02 -1.83186090716824027E-02 -1.85489429697316653E-02
 -1.87821708317289469E-02 -1.90183289339457447E-02 -1.92574540041653454E-02
 -1.94995832271793179E-02 -1.97447542503460076E-02 -1.99930051892118939E-02
 -2.02443746331959669E-02 -2.04989016513378690E-02 -2.07566257981102419E-02
 -2.10175871192956921E-02 -2.12818261579289895E-02 -2.15493839603049138E-02
 -2.18203020820522085E-02 -2.20946225942742942E-02 -2.23723880897568200E-02
 -2.26536416892430224E-02 -2.29384270477768354E-02 -2.32267883611145844E-02
 -2.35187703722054657E-02 -2.38144183777412588E-02 -2.41137782347757915E-02
 -2.44168963674143806E-02 -2.47238197735737755E-02 -2.50345960318128502E-02
 -2.53492733082344573E-02 -2.56679003634588156E-02 -2.59905265596685857E-02
 -2.63172018677261463E-02 -2.66479768743631482E-02 -2.69829027894427260E-02
 -2.73220314532945929E-02 -2.76654153441231419E-02 -2.80131075854888473E-02
 -2.83651619538630648E-02 -2.87216328862563396E-02 -2.90825754879204743E-02
 -2.94480455401242257E-02 -2.98180995080028176E-02 -3.01927945484812034E-02
 -3.05721885182712455E-02 -3.09563399819423185E-02 -3.13453082200658151E-02
 -3.17391532374329335E-02 -3.21379357713457992E-02 -3.25417172999817039E-02
 -3.29505600508300800E-02 -3.33645270092019358E-02 -3.37836819268114777E-02
 -3.42080893304292921E-02 -3.46378145306068808E-02 -3.50729236304716877E-02
 -3.55134835345922786E-02 -3.59595619579129860E-02 -3.64112274347570056E-02
 -3.68685493278975915E-02 -3.73315978376961358E-02 -3.78004440113062015E-02
 -3.82751597519427958E-02 -3.87558178282152027E-02 -3.92424918835228981E-02
 -3.97352564455124707E-02 -4.02341869355948359E-02 -4.07393596785208881E-02
 -4.12508519120138931E-02 -4.17687417964574537E-02 -4.22931084246365857E-02
 -4.28240318315304125E-02 -4.33615930041542155E-02 -4.39058738914488156E-02
 -4.44569574142147511E-02 -4.50149274750890407E-02 -4.55798689685617681E-02
 -4.61518677910297132E-02 -4.67310108508842206E-02 -4.73173860786303066E-02
 -4.79110824370334587E-02 -4.85121899312909305E-02 -4.91207996192240121E-02
 -4.97370036214871067E-02 -5.03608951317900330E-02 -5.09925684271290147E-02
 -5.16321188780220416E-02 -5.22796429587440575E-02 -5.29352382575567354E-02
 -5.35990034869281221E-02 -5.42710384937364343E-02 -5.49514442694524485E-02
 -5.56403229602945165E-02 -5.63377778773499760E-02 -5.70439135066564754E-02
 -5.77588355192362110E-02 -5.84826507810760551E-02 -5.92154673630459968E-02
 -5.99573945507479653E-02 -6.07085428542869718E-02 -6.14690240179557451E-02
 -6.22389510298240745E-02 -6.30184381312231534E-02 -6.38076008261155014E-02
 -6.46065558903396037E-02 -6.54154213807191243E-02 -6.62343166440250014E-02
 -6.70633623257789191E-02 -6.79026803788857075E-02 -6.87523940720823346E-02
 -6.96126279981894996E-02 -7.04835080821523685E-02 -7.13651615888558216E-02
 -7.22577171306989924E-02 -7.31613046749131635E-02 -7.40760555506070062E-02
 -7.50021024555212468E-02 -7.59395794624755649E-02 -7.68886220254886010E-02
 -7.78493669855516296E-02 -7.88219525760359974E-02 -7.98065184277126777E-02
 -8.08032055733623744E-02 -8.18121564519528610E-02 -8.28335149123601566E-02
 -8.38674262166082957E-02 -8.49140370426019753E-02 -8.59734954863251022E-02
 -8.70459510634773309E-02 -8.81315547105191860E-02 -8.92304587850958619E-02
 -9.03428170658073376E-02 -9.14687847512929281E-02 -9.26085184585952736E-02
 -9.37621762207687393E-02 -9.49299174836950727E-02 -9.61119031020675335E-02
 -9.73082953345045104E-02 -9.85192578377498962E-02 -9.97449556599177417E-02
 -1.00985555232736182E-01 -1.02241224362743577E-01 -1.03512132221389289E-01
 -1.04798449333987534E-01 -1.06100347567472844E-01 -1.07418000116902418E-01
 -1.08751581490648702E-01 -1.10101267494223914E-01 -1.11467235212675320E-01
 -1.12849662991487645E-01 -1.14248730415927549E-01 -1.15664618288761317E-01
 -1.17097508606275200E-01 -1.18547584532525063E-01 -1.20015030371738288E-01
 -1.21500031538789424E-01 -1.23002774527666961E-01 -1.24523446877845903E-01
 -1.26062237138477973E-01 -1.27619334830306602E-01 -1.29194930405212072E-01
 -1.30789215203288373E-01 -1.32402381407348196E-01 -1.34034621994750525E-01
 -1.35686130686439893E-01 -1.37357101893083811E-01 -1.39047730658188678E-01
 -1.40758212598072391E-01 -1.42488743838565857E-01 -1.44239520948310246E-01
 -1.46010740868514594E-01 -1.47802600839031378E-01 -1.49615298320603080E-01
 -1.51449030913127780E-01 -1.53303996269785331E-01 -1.55180392006862344E-01
 -1.57078415609104460E-01 -1.58998264330423883E-01 -1.60940135089778058E-01
 -1.62904224362032057E-01 -1.64890728063611519E-01 -1.66899841432744139E-01
 -1.68931758904082213E-01 -1.70986673977489984E-01 -1.73064779080773973E-01
 -1.75166265426124373E-01 -1.77291322860030853E-01 -1.79440139706425944E-01
 -1.81612902602799359E-01 -1.83809796329019559E-01 -1.86031003628592512E-01
 -1.88276705022075247E-01 -1.90547078612351900E-01 -1.92842299881474222E-01
 -1.95162541478753893E-01 -1.97507972999787063E-01 -1.99878760756081408E-01
 -2.02275067534943620E-01 -2.04697052349269742E-01 -2.07144870176878992E-01
 -2.09618671689016461E-01 -2.12118602967635128E-01 -2.14644805211059192E-01
 -2.17197414427616253E-01 -2.19776561116814123E-01 -2.22382369937626112E-01
 -2.25014959363437267E-01 -2.27674441323179128E-01 -2.30360920828176857E-01
 -2.33074495584223718E-01 -2.35815255588373573E-01 -2.38583282709930539E-01
 -2.41378650255101718E-01 -2.44201422514762068E-01 -2.47051654294766360E-01
 -2.49929390428234505E-01 -2.52834665269206060E-01 -2.55767502167040917E-01
 -2.58727912920957481E-01 -2.61715897214058080E-01 -2.64731442026180874E-01
 -2.67774521024903178E-01 -2.70845093934002468E-01 -2.73943105878666493E-01
 -2.77068486706734618E-01 -2.80221150285233533E-01 -2.83400993771410037E-01
 -2.86607896857525968E-01 -2.89841720988621154E-01 -2.93102308552435575E-01
 -2.96389482040671948E-01 -2.99703043180764350E-01 -3.03042772037303010E-01
 -3.06408426082261043E-01 -3.09799739233165283E-01 -3.13216420858253575E-01
 -3.16658154747765097E-01 -3.20124598050463505E-01 -3.23615380174459955E-01
 -3.27130101651407990E-01 -3.30668332963132194E-01 -3.34229613329749931E-01
 -3.37813449458346127E-01 -3.41419314251294737E-01 -3.45046645473158275E-01
 -3.48694844375275259E-01 -3.52363274277126270E-01 -3.56051259103517037E-01
 -3.59758081876644931E-01 -3.63482983162133844E-01 -3.67225159468130613E-01
 -3.70983761596591188E-01 -3.74757892945968896E-01 -3.78546607764281673E-01
 -3.82348909351813149E-01 -3.86163748212774549E-01 -3.89990020155143613E-01
 -3.93826564338000562E-01 -3.97672161265727631E-01 -4.01525530728502222E-01
 -4.05385329688589591E-01 -4.09250150112140609E-01 -4.13118516745820952E-01
 -4.16988884838095375E-01 -4.20859637805181264E-01 -4.24729084841518667E-01
 -4.28595458474819835E-01 -4.32456912065883992E-01 -4.36311517253510195E-01
 -4.40157261345016870E-01 -4.43992044653257256E-01 -4.47813677780392994E-01
 -4.51619878849630507E-01 -4.55408270686452010E-01 -4.59176377950651193E-01
 -4.62921624220878292E-01 -4.66641329033681773E-01 -4.70332704879300845E-01
 -4.73992854156839671E-01 -4.77618766092118840E-01 -4.81207313620402199E-01
 -4.84755250238089352E-01 -4.88259206827795555E-01 -4.91715688461031364E-01
 -4.95121071183397987E-01 -4.98471598787704806E-01 -5.01763379580944302E-01
 -5.04992383151731783E-01 -5.08154437145915350E-01 -5.11245224056117609E-01
 -5.14260278034727292E-01 -5.17194981739800608E-01 -5.20044563223315048E-01
 -5.22804092872373838E-01 -5.25468480414783445E-01 -5.28032472001309094E-01
 -5.30490647378155544E-01 -5.32837417164694904E-01 -5.35067020248295555E-01
 -5.37173521315146174E-01 -5.39150808534593073E-01 -5.40992591415135560E-01
 -5.42692398851926217E-01 -5.44243577386905875E-01 -5.45639289704060726E-01
 -5.46872513384506376E-01 -5.47936039947285458E-01 -5.48822474197632193E-01
 -5.49524233916123928E-01 -5.50033549918086728E-01 -5.50342466514528450E-01
 -5.50442842408091160E-01 -5.50326352059313795E-01 -5.49984487560329027E-01
 -5.49408561056924039E-01 -5.48589707758571521E-01 -5.47518889573219592E-01
 -5.46186899419563665E-01 -5.44584366261558706E-01 -5.42701760913541165E-01
 -5.40529402666766523E-01 -5.38057466790150984E-01 -5.35275992960092539E-01
 -5.32174894679995569E-01 -5.28743969741728881E-01 -5.24972911785487883E-01
 -5.20851323030104174E-01 -5.16368728233715824E-01 -5.11514589949512488E-01
 -5.06278325142806573E-01 -5.00649323236726285E-01 -4.94616965655216345E-01
 -4.88170646938446806E-01 -4.81299797483821179E-01 -4.73993907985712115E-01
 -4.66242555650943913E-01 -4.58035432252213492E-01 -4.49362374084735783E-01
 -4.40213393889337112E-01 -4.30578714802361373E-01 -4.20448806391184982E-01
 -4.09814422834815395E-01 -3.98666643270016385E-01 -3.86996914363016531E-01
 -3.74797095142980430E-01 -3.62059504117590192E-01 -3.48776968685770794E-01
 -3.34942876851365201E-01 -3.20551231228859812E-01 -3.05596705322841000E-01
 -2.90074702042310839E-01 -2.73981414364235065E-01 -2.57313888100593746E-01
 -2.40070086663636661E-01 -2.22248957702991495E-01 -2.03850501464599820E-01
 -1.84875840692480004E-01 -1.65327291863052561E-01 -1.45208437514552147E-01
 -1.24524199377653327E-01 -1.03280911978069267E-01 -8.14863963745185299E-02
 -5.91500336164176507E-02 -3.62828374676623377E-02 -1.28975258951360399E-02
  1.09914092299340290E-02  3.53676348217379088E-02  6.02129123199966546E-02
  8.55070371968352644E-02  1.11227782982057960E-01  1.37350850622034670E-01
  1.63849824038294262E-01  1.90696132793346074E-01  2.17859022809521685E-01
  2.45305536116751738E-01  2.73000500630438514E-01  3.00906530986399245E-01
  3.28984041350484702E-01  3.57191271191135529E-01  3.85484324920623289E-01
  4.13817226194757415E-01  4.42141987536174896E-01  4.70408695764728491E-01
  4.98565613479822922E-01  5.26559296572080338E-01  5.54334727315925480E-01
  5.81835461931206277E-01  6.09003791267914929E-01  6.35780912326781356E-01
  6.62107107468391520E-01  6.87921927116938781E-01  7.13164370496608857E-01
  7.37773057431305390E-01  7.61686382535873285E-01  7.84842640724994767E-01
  8.07180110602792489E-01  8.28637079666339260E-01  8.49151791497746111E-01
  8.68662291260474895E-01  8.87106150816018513E-01  9.04420285002767943E-01
  9.20541031298785839E-01  9.35404275437580646E-01  9.48945588865115375E-01
  9.61100378999463101E-01  9.71804052998095247E-01  9.80992195619998730E-01
  9.88600761814108941E-01  9.94566284659375355E-01  9.98826099270081480E-01
  1.00131858330467893E+00  1.00198341467699770E+00  1.00076184672614699E+00
  9.97597001623825252E-01  9.92434182421622180E-01  9.85221204088168712E-01
  9.75908743837372361E-01  9.64450710955872537E-01  9.50804636230181077E-01
  9.34932081043818197E-01  9.16799065815603553E-01  8.96376517285790264E-01
  8.73640734419351639E-01  8.48573872056092471E-01  8.21164441289386482E-01
  7.91407825293579004E-01  7.59306809017711415E-01  7.24872120846140944E-01
  6.88122984066642074E-01  6.49087675120839869E-01  6.07804085722587262E-01
  5.64320285441146430E-01  5.18695080622220916E-01  4.70998565110621215E-01
  4.21312657708727945E-01  3.69731620752551338E-01  3.16362553643985744E-01
  2.61325854558232151E-01  2.04755642761515505E-01  1.46800133885653661E-01
  8.76219595837673809E-02  2.73984224555190378E-02 -3.36783233712996885E-02
 -9.54011761135875325E-02 -1.57548085222547735E-01 -2.19882156354997971E-01
 -2.82151873690637323E-01 -3.44091450761451090E-01 -4.05421321673648860E-01
 -4.65848784323564247E-01 -5.25068807104384749E-01 -5.82765010336390055E-01
 -6.38610833212699625E-01 -6.92270896481742115E-01 -7.43402570810523411E-01
 -7.91657757869324019E-01 -8.36684891325470192E-01 -8.78131163960067851E-01
 -9.15644984226974490E-01 -9.48878663791282828E-01 -9.77491335177279930E-01
 -1.00115209591659871E+00 -1.01954337290467967E+00 -1.03236449750864900E+00
 -1.03933547407526783E+00 -1.04020092662450869E+00 -1.03473420102462499E+00
 -1.02274159477747117E+00 -1.00406668169546287E+00 -9.78594693184540065E-01
 -9.46256911998839101E-01 -9.07035029321585307E-01 -8.60965406945618406E-01
 -8.08143179333404738E-01 -7.48726130109090282E-01 -6.82938265685712254E-01
 -6.11073003661492642E-01 -5.33495887906491162E-01 -4.50646736892432898E-01
 -3.63041127244769168E-01 -2.71271111145387156E-01 -1.76005060512283651E-01
 -7.79865346063416953E-02  2.19679329605225182E-02  1.22972230926347209E-01
  2.24075348035714328E-01  3.24267421213362328E-01  4.22487233140656004E-01
  5.17631224840434223E-01  6.08564072517197019E-01  6.94130848317981219E-01
  7.73170767964234562E-01  8.44532495793479110E-01  9.07090942217251395E-01
  9.59765450181522151E-01  1.00153922403815487E+00  1.03147980709561971E+00
  1.04876036794900407E+00  1.05268149140309952E+00  1.04269310975665563E+00
  1.01841617777072058E+00  9.79663618593184182E-01  9.26460016621541538E-01
  8.59059482607803515E-01  7.77961070983197667E-01  6.83921093095360089E-01
  5.77961647814779211E-01  4.61374656845840003E-01  3.35720726701530803E-01
  2.02822179770117378E-01  6.47496348093549029E-02 -7.61984022015599477E-02
 -2.17523370798923810E-01 -3.56562209510450812E-01 -4.90530759525371840E-01
 -6.16574948568030301E-01 -7.31829418216755401E-01 -8.33483012454227179E-01
 -9.18850241575645987E-01 -9.85447506070478263E-01 -1.03107252359925927E+00
 -1.05388505190778581E+00 -1.05248665462630231E+00 -1.02599694593722290E+00
 -9.74123410655914568E-01 -8.97221658558021717E-01 -7.96342889594524816E-01
 -6.73265208881352217E-01 -5.30505498249039698E-01 -3.71308747972142972E-01
 -1.99612110217398386E-01 -1.99814741886080553E-02  1.62480915371594231E-01
  3.42258349200322831E-01  5.13570421792244547E-01  6.70550781052028033E-01
  8.07448497137983168E-01  9.18848097754604076E-01  9.99901674079446412E-01
  1.04656483150817925E+00  1.05582675447826269E+00  1.02592331759494826E+00
  9.56521006462374812E-01  8.48859157890904381E-01  7.05837895523253600E-01
  5.32039847522781773E-01  3.33675254078432126E-01  1.18442457083689390E-01
 -1.04700934718063382E-01 -3.25856728309352028E-01 -5.34590179998371551E-01
 -7.20409005413158221E-01 -8.73300933955613923E-01 -9.84307108169323541E-01
 -1.04610259334110656E+00 -1.05355001716473118E+00 -1.00418842080122928E+00
 -8.98617359078575539E-01 -7.40736707434156427E-01 -5.37805519408100619E-01
 -3.00290549802133433E-01 -4.14850506733573376E-02  2.23108084973802495E-01
  4.76617978178671353E-01  7.01842291129547768E-01  8.82428385536442428E-01
  1.00412891512759583E+00  1.05604366597944965E+00  1.03174508950455279E+00
  9.30178670624154824E-01  7.56230160486825342E-01  5.20863207529057681E-01
  2.40753897811116446E-01 -6.26167259591409037E-02 -3.64405936038922795E-01
 -6.38328966273107312E-01 -8.58937816659089193E-01 -1.00408477964248011E+00
 -1.05734827905099249E+00 -1.01016479726839625E+00 -8.63399190181854848E-01
 -6.28102929602500470E-01
                              </PP_CHI.2>
 <PP_CHI.3 type="real" size="   961" l="1" occupation=" 6.0000" columns="3" label= "2P">
  1.13774011749039875E-08  1.16654214550672953E-08  1.19607330032423640E-08
  1.22635203987528689E-08  1.25739728935701004E-08  1.28922845306014660E-08
  1.32186542649737448E-08  1.35532860883864595E-08  1.38963891566131932E-08
  1.42481779202309469E-08  1.46088722586585661E-08  1.49786976175884647E-08
  1.53578851498976016E-08  1.57466718601254988E-08  1.61453007526097969E-08
  1.65540209833716917E-08  1.69730880158467431E-08  1.74027637805576338E-08
  1.78433168388292590E-08  1.82950225506484723E-08  1.87581632467726670E-08
  1.92330284051958225E-08  1.97199148320817102E-08  2.02191268472771486E-08
  2.07309764745220162E-08  2.12557836364739955E-08  2.17938763546706316E-08
  2.23455909545535117E-08  2.29112722756824334E-08  2.34912738872713924E-08
  2.40859583091807747E-08  2.46956972385038854E-08  2.53208717818897650E-08
  2.59618726937471881E-08  2.66191006204787758E-08  2.72929663508979575E-08
  2.79838910729852020E-08  2.86923066371442260E-08  2.94186558261223734E-08
  3.01633926317642711E-08  3.09269825387712712E-08  3.17099028156443870E-08
  3.25126428129926979E-08  3.33357042693931112E-08  3.41796016249934188E-08
  3.50448623430537066E-08  3.59320272396279823E-08  3.68416508215919165E-08
  3.77743016332270327E-08  3.87305626115799536E-08  3.97110314508160186E-08
  4.07163209757980636E-08  4.17470595251213038E-08  4.28038913438454073E-08
  4.38874769861684923E-08  4.49984937282945042E-08  4.61376359917527602E-08
  4.73056157774339440E-08  4.85031631106131822E-08  4.97310264972399371E-08
  5.09899733917775436E-08  5.22807906768875426E-08  5.36042851552562320E-08
  5.49612840538725092E-08  5.63526355410713071E-08  5.77792092566659198E-08
  5.92418968555006979E-08  6.07416125647643371E-08  6.22792937554105204E-08
  6.38559015280457898E-08  6.54724213136472452E-08  6.71298634894890101E-08
  6.88292640106603781E-08  7.05716850575704078E-08  7.23582156998457832E-08
  7.41899725770327471E-08  7.60681005965334967E-08  7.79937736492095412E-08
  7.99681953431008442E-08  8.19925997557200688E-08  8.40682522053890351E-08
  8.61964500421041724E-08  8.83785234584212888E-08  9.06158363208677234E-08
  9.29097870224036486E-08  9.52618093564607579E-08  9.76733734131094235E-08
  1.00145986497911818E-07  1.02681194074035451E-07  1.05280580728217081E-07
  1.07945771161179367E-07  1.10678431203120296E-07  1.13480268854909984E-07
  1.16353035355645223E-07  1.19298526277229850E-07  1.22318582646662821E-07
  1.25415092096739055E-07  1.28589990045879545E-07  1.31845260907828198E-07
  1.35182939331974279E-07  1.38605111475070732E-07  1.42113916305149083E-07
  1.45711546938440742E-07  1.49400252010143870E-07  1.53182337079891916E-07
  1.57060166072798880E-07  1.61036162756987593E-07  1.65112812258520342E-07
  1.69292662614680293E-07  1.73578326366575252E-07  1.77972482192055591E-07
  1.82477876579972566E-07  1.87097325546818834E-07  1.91833716396826305E-07
  1.96690009526621959E-07  2.01669240275565759E-07  2.06774520822932454E-07
  2.12009042133120224E-07  2.17376075950101433E-07  2.22878976842364564E-07
  2.28521184299621273E-07  2.34306224882594248E-07  2.40237714427225371E-07
  2.46319360304684269E-07  2.52554963738589991E-07  2.58948422180889305E-07
  2.65503731747885329E-07  2.72224989717930810E-07  2.79116397092351824E-07
  2.86182261221202477E-07  2.93426998495486921E-07  3.00855137107538400E-07
  3.08471319881276295E-07  3.16280307174110401E-07  3.24286979852307475E-07
  3.32496342341680873E-07  3.40913525755502913E-07  3.49543791101606346E-07
  3.58392532570670708E-07  3.67465280907750888E-07  3.76767706869159084E-07
  3.86305624766852151E-07  3.96084996102550227E-07  4.06111933293849916E-07
  4.16392703494664220E-07  4.26933732512380034E-07  4.37741608824170744E-07
  4.48823087694989679E-07  4.60185095399804675E-07  4.71834733552721371E-07
  4.83779283545697960E-07  4.96026211099621234E-07  5.08583170930597542E-07
  5.21458011534370054E-07  5.34658780091848460E-07  5.48193727498831263E-07
  5.62071313523040623E-07  5.76300212091720453E-07  5.90889316713082336E-07
  6.05847746034994814E-07  6.21184849544396514E-07  6.36910213410976980E-07
  6.53033666478801761E-07  6.69565286409606795E-07  6.86515405981611120E-07
  7.03894619547789983E-07  7.21713789657621506E-07  7.39984053846479171E-07
  7.58716831596886118E-07  7.77923831475995294E-07  7.97617058453756437E-07
  8.17808821406330758E-07  8.38511740809465786E-07  8.59738756626618015E-07
  8.81503136396760919E-07  9.03818483526944337E-07  9.26698745794759745E-07
  9.50158224066058401E-07  9.74211581233352181E-07  9.98873851380480838E-07
  1.02416044917929323E-06  1.05008717952418664E-06  1.07667024741055111E-06
  1.10392626806328726E-06  1.13187227732170612E-06  1.16052574228734761E-06
  1.18990457224131280E-06  1.22002712983798453E-06  1.25091224258211037E-06
  1.28257921459641410E-06  1.31504783868711652E-06  1.34833840871486241E-06
  1.38247173227884139E-06  1.41746914372198056E-06  1.45335251746536451E-06
  1.49014428168022139E-06  1.52786743230597925E-06  1.56654554742320741E-06
  1.60620280199039525E-06  1.64686398295377526E-06  1.68855450473966342E-06
  1.73130042513894369E-06  1.77512846159369404E-06  1.82006600789607868E-06
  1.86614115130996525E-06  1.91338269012597441E-06  1.96182015166089951E-06
  2.01148381071279269E-06  2.06240470848321967E-06  2.11461467197850560E-06
  2.16814633390214206E-06  2.22303315305070087E-06  2.27930943522610481E-06
  2.33701035467724975E-06  2.39617197608439118E-06  2.45683127710009747E-06
  2.51902617146072886E-06  2.58279553268302530E-06  2.64817921836052529E-06
  2.71521809507501743E-06  2.78395406393862883E-06  2.85443008678244310E-06
  2.92669021300807925E-06  3.00077960711899453E-06  3.07674457694868202E-06
  3.15463260260348486E-06  3.23449236613797887E-06  3.31637378198163685E-06
  3.40032802813563825E-06  3.48640757815943484E-06  3.57466623396698431E-06
  3.66515915945317475E-06  3.75794291497145073E-06  3.85307549268421970E-06
  3.95061635280805582E-06  4.05062646077644765E-06  4.15316832534319878E-06
  4.25830603765038677E-06  4.36610531128529160E-06  4.47663352335121649E-06
  4.58995975657804007E-06  4.70615484249863668E-06  4.82529140571825116E-06
  4.94744390930451193E-06  5.07268870132633653E-06  5.20110406257091013E-06
  5.33277025546853394E-06  5.46776957425583141E-06  5.60618639640882129E-06
  5.74810723537784378E-06  5.89362079465732344E-06  6.04281802322428398E-06
  6.19579217238000865E-06  6.35263885403061821E-06  6.51345610044284997E-06
  6.67834442551231917E-06  6.84740688758274678E-06  7.02074915385516052E-06
  7.19847956642748692E-06  7.38070921000576710E-06  7.56755198132921159E-06
  7.75912466035259192E-06  7.95554698323031691E-06  8.15694171714798197E-06
  8.36343473704791618E-06  8.57515510429676504E-06  8.79223514734441290E-06
  9.01481054442432432E-06  9.24302040834718840E-06  9.47700737344086331E-06
  9.71691768469077175E-06  9.96290128913659069E-06  1.02151119295821846E-05
  1.04737072406775224E-05  1.07388488474324716E-05  1.10107024662238714E-05
  1.12894380083593966E-05  1.15752296862624227E-05  1.18682561223445995E-05
  1.21687004606339665E-05  1.24767504812282321E-05  1.27925987176450999E-05
  1.31164425771424736E-05  1.34484844640839762E-05  1.37889319064268425E-05
  1.41379976854109626E-05  1.44958999685304979E-05  1.48628624458705835E-05
  1.52391144698947033E-05  1.56248911987699069E-05  1.60204337433192451E-05
  1.64259893176935252E-05  1.68418113938560449E-05  1.72681598599771587E-05
  1.77053011828374530E-05  1.81535085743409019E-05  1.86130621622421128E-05
  1.90842491651940812E-05  1.95673640722259775E-05  2.00627088267629021E-05
  2.05705930153024939E-05  2.10913340608664176E-05  2.16252574213471919E-05
  2.21726967928743901E-05  2.27339943183273108E-05  2.33095008011238744E-05
  2.38995759244197736E-05  2.45045884758542461E-05  2.51249165779830598E-05
  2.57609479245425347E-05  2.64130800226917499E-05  2.70817204413847996E-05
  2.77672870660273723E-05  2.84702083595771946E-05  2.91909236302512510E-05
  2.99298833060062136E-05  3.06875492159645291E-05  3.14643948789605126E-05
  3.22609057993875490E-05  3.30775797705306721E-05  3.39149271855734160E-05
  3.47734713564736963E-05  3.56537488409071492E-05  3.65563097774821832E-05
  3.74817182294359159E-05  3.84305525370249936E-05  3.94034056788318313E-05
  4.04008856422111653E-05  4.14236158031078874E-05  4.24722353154838235E-05
  4.35473995105951263E-05  4.46497803063707389E-05  4.57800666271461344E-05
  4.69389648340144512E-05  4.81271991660636616E-05  4.93455121927743480E-05
  5.05946652778605554E-05  5.18754390548432435E-05  5.31886339146515582E-05
  5.45350705055576762E-05  5.59155902457551609E-05  5.73310558489015029E-05
  5.87823518629520175E-05  6.02703852226204285E-05  6.17960858158116805E-05
  6.33604070643780715E-05  6.49643265195624155E-05  6.66088464724984416E-05
  6.82949945801479286E-05  7.00238245070663442E-05  7.17964165833947620E-05
  7.36138784794893898E-05  7.54773458976081457E-05  7.73879832810846295E-05
  7.93469845414322765E-05  8.13555738038298864E-05  8.34150061714537832E-05
  8.55265685091319495E-05  8.76915802468074550E-05  8.99113942033123134E-05
  9.21873974309625873E-05  9.45210120815026398E-05  9.69136962939349432E-05
  9.93669451047887926E-05  1.01882291381394935E-04  1.04461306778743821E-04
  1.07105602720525994E-04  1.09816831404962109E-04  1.12596686836047608E-04
  1.15446905880855726E-04  1.18369269353552610E-04  1.21365603126800009E-04
  1.24437779271236896E-04  1.27587717223744476E-04  1.30817384985224341E-04
  1.34128800348630673E-04  1.37524032158019608E-04  1.41005201599399103E-04
  1.44574483524177120E-04  1.48234107806033215E-04  1.51986360732052226E-04
  1.55833586428985040E-04  1.59778188325521099E-04  1.63822630651476697E-04
  1.67969439974833168E-04  1.72221206777572539E-04  1.76580587071291747E-04
  1.81050304053593538E-04  1.85633149806280841E-04  1.90331987036407242E-04
  1.95149750861259980E-04  2.00089450638381105E-04  2.05154171841761044E-04
  2.10347077985361113E-04  2.15671412595159931E-04  2.21130501230938392E-04
  2.26727753559056706E-04  2.32466665477503961E-04  2.38350821294528933E-04
  2.44383895962205938E-04  2.50569657366306320E-04  2.56911968673895078E-04
  2.63414790740099005E-04  2.70082184575530689E-04  2.76918313875891336E-04
  2.83927447615310601E-04  2.91113962705023301E-04  2.98482346719017679E-04
  3.06037200688337528E-04  3.13783241965756338E-04  3.21725307162585271E-04
  3.29868355159422901E-04  3.38217470192698664E-04  3.46777865018902580E-04
  3.55554884158451915E-04  3.64554007221179607E-04  3.73780852315490526E-04
  3.83241179543274764E-04  3.92940894582720173E-04  4.02886052361224167E-04
  4.13082860820647782E-04  4.23537684777224434E-04  4.34257049878478964E-04
  4.45247646659584293E-04  4.56516334701626025E-04  4.68070146894324188E-04
  4.79916293805808395E-04  4.92062168162115017E-04  5.04515349439139276E-04
  5.17283608569838404E-04  5.30374912769551363E-04  5.43797430482378420E-04
  5.57559536451617075E-04  5.71669816917353009E-04  5.86137074944340802E-04
  6.00970335883429184E-04  6.16178852969827468E-04  6.31772113061611568E-04
  6.47759842521944385E-04  6.64152013248565866E-04  6.80958848854196740E-04
  6.98190831001593609E-04  7.15858705897069953E-04  7.33973490946407403E-04
  7.52546481577152601E-04  7.71589258231416219E-04  7.91113693533369053E-04
  8.11131959635741947E-04  8.31656535749739881E-04  8.52700215862872354E-04
  8.74276116649326919E-04  8.96397685577614485E-04  9.19078709220320857E-04
  9.42333321770929622E-04  9.66176013772787178E-04  9.90621641065390565E-04
  1.01568543395333410E-03  1.04138300660333973E-03  1.06773036667495149E-03
  1.09474392519058280E-03  1.12244050665074669E-03  1.15083735940045106E-03
  1.17995216625284565E-03  1.20980305537639115E-03  1.24040861145192200E-03
  1.27178788710615820E-03  1.30396041462835796E-03  1.33694621797693803E-03
  1.37076582508309226E-03  1.40544028045853833E-03  1.44099115811474284E-03
  1.47744057480111231E-03  1.51481120356980166E-03  1.55312628767498165E-03
  1.59240965481456643E-03  1.63268573172259618E-03  1.67397955912064944E-03
  1.71631680703683044E-03  1.75972379050110396E-03  1.80422748562588525E-03
  1.84985554608105350E-03  1.89663631997269845E-03  1.94459886713513937E-03
  1.99377297684601336E-03  2.04418918597433757E-03  2.09587879757174239E-03
  2.14887389991724482E-03  2.20320738602617803E-03  2.25891297363411958E-03
  2.31602522566687341E-03  2.37457957120777632E-03  2.43461232697390071E-03
  2.49616071931286739E-03  2.55926290673228526E-03  2.62395800297405115E-03
  2.69028610064609179E-03  2.75828829542421093E-03  2.82800671083703820E-03
  2.89948452364736584E-03  2.97276598984336140E-03  3.04789647125344818E-03
  3.12492246279888431E-03  3.20389162039834766E-03  3.28485278953909946E-03
  3.36785603452955436E-03  3.45295266844832839E-03  3.54019528380532028E-03
  3.62963778393039739E-03  3.72133541510558715E-03  3.81534479945704009E-03
  3.91172396862323087E-03  4.01053239821624018E-03  4.11183104309309141E-03
  4.21568237345458074E-03  4.32215041178911526E-03  4.43130077067947162E-03
  4.54320069149057645E-03  4.65791908395704873E-03  4.77552656668899823E-03
  4.89609550861500910E-03  5.01970007138160656E-03  5.14641625272875894E-03
  5.27632193086112131E-03  5.40949690983505253E-03  5.54602296598168728E-03
  5.68598389538649447E-03  5.82946556244591171E-03  5.97655594952224874E-03
  6.12734520771829414E-03  6.28192570879232155E-03  6.44039209823544199E-03
  6.60284134953282101E-03  6.76937281963078952E-03  6.94008830563180596E-03
  7.11509210273942542E-03  7.29449106347559214E-03  7.47839465819228905E-03
  7.66691503690019021E-03  7.86016709243760048E-03  8.05826852500111240E-03
  8.26133990806081700E-03  8.46950475568248803E-03  8.68288959127928167E-03
  8.90162401781510737E-03  9.12584078948203668E-03  9.35567588487359186E-03
  9.59126858167544394E-03  9.83276153289517132E-03  1.00803008446539166E-02
  1.03340361555590045E-02  1.05941207176785124E-02  1.08607114791378565E-02
  1.11339691683581682E-02  1.14140583799551883E-02  1.17011476623172465E-02
  1.19954096068798158E-02  1.22970209391125643E-02  1.26061626112360659E-02
  1.29230198966848644E-02  1.32477824863278301E-02  1.35806445864598141E-02
  1.39218050185760875E-02  1.42714673209400119E-02  1.46298398519525800E-02
  1.49971358953311634E-02  1.53735737671027075E-02  1.57593769244131973E-02
  1.61547740761597419E-02  1.65599992954433076E-02  1.69752921338370000E-02
  1.74008977374660277E-02  1.78370669648915577E-02  1.82840565067879483E-02
  1.87421290073996223E-02  1.92115531877607923E-02  1.96926039706562389E-02
  2.01855626072987016E-02  2.06907168057037481E-02  2.12083608607209831E-02
  2.17387957856871941E-02  2.22823294456607340E-02  2.28392766921913307E-02
  2.34099594995739353E-02  2.39947071025294230E-02  2.45938561352489517E-02
  2.52077507717273705E-02  2.58367428673226193E-02  2.64811921014534851E-02
  2.71414661213390182E-02  2.78179406866847917E-02  2.85109998152089511E-02
  2.92210359288927191E-02  2.99484500008300389E-02  3.06936517025412567E-02
  3.14570595515994908E-02  3.22391010594201763E-02  3.30402128790588598E-02
  3.38608409528161694E-02  3.47014406594631369E-02  3.55624769608815713E-02
  3.64444245478983339E-02  3.73477679850779051E-02  3.82730018542215139E-02
  3.92206308962990066E-02  4.01911701515242220E-02  4.11851450973058156E-02
  4.22030917837156461E-02  4.32455569661356065E-02  4.43130982347230140E-02
  4.54062841403070488E-02  4.65256943163069245E-02  4.76719195962373582E-02
  4.88455621263369222E-02  5.00472354728161428E-02  5.12775647232711976E-02
  5.25371865816762970E-02  5.38267494563751392E-02  5.51469135404749622E-02
  5.64983508840033108E-02  5.78817454571531262E-02  5.92977932039055952E-02
  6.07472020852772437E-02  6.22306921113738587E-02  6.37489953615048704E-02
  6.53028559914436285E-02  6.68930302268893606E-02  6.85202863421874447E-02
  7.01854046232951029E-02  7.18891773139308937E-02  7.36324085437942977E-02
  7.54159142376811670E-02  7.72405220042257368E-02  7.91070710031018115E-02
  8.10164117892963054E-02  8.29694061329972060E-02  8.49669268136567096E-02
  8.70098573866952829E-02  8.90990919212408528E-02  9.12355347072277417E-02
  9.34200999301006418E-02  9.56537113112345266E-02  9.79373017123291723E-02
  1.00271812701748481E-01  1.02658194080654921E-01  1.05097403366842826E-01
  1.07590405234042036E-01  1.10138170904374402E-01  1.12741677491557696E-01
  1.15401907292351738E-01  1.18119847023568300E-01  1.20896487002196656E-01
  1.23732820265783638E-01  1.26629841630086420E-01  1.29588546681098732E-01
  1.32609930698391526E-01  1.35694987506611797E-01  1.38844708251886051E-01
  1.42060080099768005E-01  1.45342084851171061E-01  1.48691697473087442E-01
  1.52109884540305468E-01  1.55597602584298306E-01  1.59155796345574641E-01
  1.62785396925620246E-01  1.66487319834482866E-01  1.70262462929986369E-01
  1.74111704244467258E-01  1.78035899694776956E-01  1.82035880671813116E-01
  1.86112451505066473E-01  1.90266386797875192E-01  1.94498428629221176E-01
  1.98809283617825572E-01  2.03199619844314283E-01  2.07670063627262952E-01
  2.12221196148942054E-01  2.16853549926622508E-01  2.21567605125946115E-01
  2.26363785712112769E-01  2.31242455435225591E-01  2.36203913646372360E-01
  2.41248390941182916E-01  2.46376044627851176E-01  2.51586954016913611E-01
  2.56881115530383286E-01  2.62258437628295815E-01  2.67718735551363662E-01
  2.73261725878365502E-01  2.78887020897874705E-01  2.84594122794503857E-01
  2.90382417650495883E-01  2.96251169264257153E-01  3.02199512788277391E-01
  3.08226448189894753E-01  3.14330833539362253E-01  3.20511378130344471E-01
  3.26766635439799280E-01  3.33094995935280358E-01  3.39494679739129279E-01
  3.45963729160597755E-01  3.52500001108624894E-01  3.59101159399836833E-01
  3.65764666978902364E-01  3.72487778069153119E-01  3.79267530273485975E-01
  3.86100736650245746E-01  3.92983977789564232E-01  3.99913593918759358E-01
  4.06885677068372031E-01  4.13896063333530184E-01  4.20940325268788551E-01
  4.28013764459826862E-01  4.35111404313230754E-01  4.42227983113888667E-01
  4.49357947405566227E-01  4.56495445750791595E-01  4.63634322931712417E-01
  4.70768114658180359E-01  4.77890042854075159E-01  4.84993011598639168E-01
  4.92069603807359646E-01  4.99112078726934083E-01  5.06112370342683748E-01
  5.13062086796571504E-01  5.19952510915753008E-01  5.26774601958638677E-01
  5.33518998690603818E-01  5.40176023906498437E-01  5.46735690525590790E-01
  5.53187709387401139E-01  5.59521498857921573E-01  5.65726196400993753E-01
  5.71790672249238519E-01  5.77703545312522992E-01  5.83453201465352844E-01
  5.89027814355153945E-01  5.94415368872968974E-01  5.99603687436722543E-01
  6.04580459210033450E-01  6.09333272367162393E-01  6.13849649560473054E-01
  6.18117086693406370E-01  6.22123095098697121E-01  6.25855247207597443E-01
  6.29301225777347151E-01  6.32448876723643583E-01  6.35286265597578392E-01
  6.37801737647988420E-01  6.39983981432263205E-01  6.41822095919194147E-01
  6.43305660934550327E-01  6.44424810762877720E-01  6.45170310660660773E-01
  6.45533635970277020E-01  6.45507053457652469E-01  6.45083704428077165E-01
  6.44257688987331489E-01  6.43024150862528843E-01  6.41379362034284584E-01
  6.39320806302080769E-01  6.36847260798211967E-01  6.33958874339387801E-01
  6.30657241372929112E-01  6.26945470148697170E-01  6.22828243584487851E-01
  6.18311871121474232E-01  6.13404329844513319E-01  6.08115292922182360E-01
  6.02456143318626403E-01  5.96439970634878858E-01  5.90081548863918504E-01
  5.83397292805485246E-01  5.76405190878282792E-01  5.69124712155982149E-01
  5.61576685644706419E-01  5.53783149998132718E-01  5.45767172260219313E-01
  5.37552634746541580E-01  5.29163989880143570E-01  5.20625983729022357E-01
  5.11963350183625154E-01  5.03200479165882175E-01  4.94361064534147021E-01
  4.85467739424131572E-01  4.76541709738496244E-01  4.67602400279299668E-01
  4.58667132414212919E-01  4.49750857554758798E-01  4.40865977226775896E-01
  4.32022288290827727E-01  4.23227101328727373E-01  4.14485591665672504E-01
  4.05801455756585439E-01  3.97177839116721276E-01  3.88617785718130826E-01
  3.80124251745770858E-01  3.71700103743498711E-01  3.63348116722729209E-01
  3.55070972412605934E-01  3.46871257681553025E-01  3.38751463143896814E-01
  3.30713981956821057E-01  3.22761108820412146E-01  3.14895039189268533E-01
  3.07117868702102614E-01  2.99431592833747151E-01  2.91838106772026651E-01
  2.84339205520785454E-01  2.76936584225745630E-01  2.69631838717218408E-01
  2.62426466264383651E-01  2.55321866532146946E-01  2.48319342729419579E-01
  2.41420102935647807E-01  2.34625261590464207E-01  2.27935841131005068E-01
  2.21352773760748744E-01  2.14876903319246831E-01  2.08508987240850319E-01
  2.02249698580832749E-01  1.96099628085965594E-01  1.90059286287545343E-01
  1.84129105595118775E-01  1.78309442369729648E-01  1.72600578960935336E-01
  1.67002725682801556E-01  1.61516022702093642E-01  1.56140541838534458E-01
  1.50876288258712854E-01  1.45723202051868284E-01  1.40681159679048401E-01
  1.35749975289965213E-01  1.30929401905599846E-01  1.26219132473991996E-01
  1.21618800783671210E-01  1.17127982248485266E-01  1.12746194582372117E-01
  1.08472898370282955E-01  1.04307497549377765E-01  1.00249339816812971E-01
  9.62977169821540996E-02  9.24518652866308382E-02  8.87109657131293916E-02
  8.50741442834496570E-02  8.15404723867006465E-02  7.81089671569701050E-02
  7.47785919167334029E-02  7.15482567043515538E-02  6.84168189025197854E-02
  6.53830839827874016E-02  6.24458063857030454E-02  5.96036905384682431E-02
  5.68553920064673798E-02  5.41995188078715495E-02  5.16346328870948418E-02
  4.91592517473718391E-02  4.67718502414024295E-02  4.44708625168470303E-02
  4.22546841123583594E-02  4.01216742056329650E-02  3.80701579812089894E-02
  3.60984291179617806E-02  3.42047523958362715E-02  3.23873664023008670E-02
  3.06444863251035607E-02  2.89743068174342470E-02  2.73750049211816740E-02
  2.58447430370877251E-02  2.43816719307136109E-02  2.29839337325194216E-02
  2.16496649447550198E-02  2.03769994380937174E-02  1.91640714211664710E-02
  1.80090183701443578E-02  1.69099839061695699E-02  1.58651206092611519E-02
  1.48725927648200532E-02  1.39305790222331669E-02  1.30372749460360288E-02
  1.21908954748703707E-02  1.13896772723888415E-02  1.06318809626533457E-02
  9.91579324437831186E-03  9.23972887922951298E-03  8.60203255113371930E-03
  8.00108060054026925E-03  7.43528260978720563E-03  6.90308284961610712E-03
  6.40296159409964663E-03  5.93343629767329427E-03  5.49306263468406827E-03
  5.08043540258528055E-03  4.69418929049609645E-03  4.33299951793014986E-03
  3.99558234766867176E-03  3.68069545797737596E-03  3.38713819792597947E-03
  3.11375172638355324E-03  2.85941903685763433E-03  2.62306487290815682E-03
  2.40365553913917404E-03  2.20019861309982611E-03  2.01174256734114104E-03
  1.83737630009161491E-03  1.67622857682573788E-03  1.52746740069779853E-03
  1.39029931268174010E-03  1.26396862686503977E-03  1.14775660678747833E-03
  1.04098058868485298E-03  9.42993057893790933E-04  8.53180686809556967E-04
  7.70963330547961342E-04  6.95792992317557858E-04  6.27152766177665653E-04
  5.64555759795663456E-04  5.07544002139792322E-04  4.55687340865936798E-04
  4.08582333941658884E-04  3.65851140726848893E-04  3.27140416395915756E-04
  2.92120208379985835E-04  2.60482865120599267E-04  2.31941958832125914E-04
  2.06231224693309719E-04  1.83103519271403029E-04  1.62329800722275442E-04
  1.43698133084441354E-04  1.27012717614313075E-04  1.12092950859055905E-04
  9.87725109051406177E-05  8.68984756939890487E-05  7.63304731817382947E-05
  6.69398641006935225E-05  5.86089579531147062E-05  5.12302626663278725E-05
  4.47057682451071104E-05  3.89462648650073032E-05  3.38706936134433256E-05
  2.94055310760801297E-05  2.54842075254166767E-05  2.20465577546750859E-05
  1.90383039023862134E-05  1.64105695107670135E-05  1.41194239689961239E-05
  1.21254565374440337E-05  1.03933788387884902E-05  8.89165424821603658E-06
  7.59215392280965450E-06  6.46983806211581363E-06  5.50246117016203466E-06
  4.67030014160148950E-06  3.95590398718495881E-06  3.34386401848221162E-06
  2.82060339125006854E-06  2.37418463641535471E-06  1.99413410736171848E-06
  1.67128240694102132E-06  1.39761959469422683E-06  1.16616411997942983E-06
  9.70844470182586256E-07
                              </PP_CHI.3>
 <PP_CHI.4 type="real" size="   961" l="1" occupation=" 0.0000" columns="3" label= "0P">
 -3.82614899983280794E-09 -3.92300842126549915E-09 -4.02231985054145896E-09
 -4.12414536053046605E-09 -4.22854859548425334E-09 -4.33559481081617791E-09
 -4.44535091388805440E-09 -4.55788550582937760E-09 -4.67326892441516346E-09
 -4.79157328802946119E-09 -4.91287254074161618E-09 -5.03724249852362099E-09
 -5.16476089663763586E-09 -5.29550743822303594E-09 -5.42956384411338861E-09
 -5.56701390391459316E-09 -5.70794352837619012E-09 -5.85244080308821756E-09
 -6.00059604353757756E-09 -6.15250185155824508E-09 -6.30825317321018483E-09
 -6.46794735812380962E-09 -6.63168422034668481E-09 -6.79956610073035201E-09
 -6.97169793089680803E-09 -7.14818729882408487E-09 -7.32914451609210106E-09
 -7.51468268683109727E-09 -7.70491777841523355E-09 -7.89996869394593413E-09
 -8.09995734657021987E-09 -8.30500873568019258E-09 -8.51525102504175262E-09
 -8.73081562290108224E-09 -8.95183726411889434E-09 -9.17845409438417026E-09
 -9.41080775655949076E-09 -9.64904347921244816E-09 -9.89331016738813892E-09
 -1.01437604956795044E-08 -1.04005510036539487E-08 -1.06638421936953614E-08
 -1.09337986313234496E-08 -1.12105890480522585E-08 -1.14943864468528757E-08
 -1.17853682102857221E-08 -1.20837162113702176E-08 -1.23896169272614468E-08
 -1.27032615558039470E-08 -1.30248461350368856E-08 -1.33545716657235713E-08
 -1.36926442369837147E-08 -1.40392751551053588E-08 -1.43946810756182212E-08
 -1.47590841387101472E-08 -1.51327121080717837E-08 -1.55157985132560144E-08
 -1.59085827956414693E-08 -1.63113104580907067E-08 -1.67242332183975718E-08
 -1.71476091666183557E-08 -1.75817029263865564E-08 -1.80267858203106898E-08
 -1.84831360395597022E-08 -1.89510388177409739E-08 -1.94307866091804758E-08
 -1.99226792717155891E-08 -2.04270242541160377E-08 -2.09441367882485323E-08
 -2.14743400861070369E-08 -2.20179655418299144E-08 -2.25753529388317956E-08
 -2.31468506621788795E-08 -2.37328159163400934E-08 -2.43336149484515810E-08
 -2.49496232772318296E-08 -2.55812259276930210E-08 -2.62288176717933819E-08
 -2.68928032751817591E-08 -2.75735977501890795E-08 -2.82716266152232071E-08
 -2.89873261607315508E-08 -2.97211437218959172E-08 -3.04735379582303805E-08
 -3.12449791402581768E-08 -3.20359494434445815E-08 -3.28469432495714763E-08
 -3.36784674557412851E-08 -3.45310417912027589E-08 -3.54051991421977660E-08
 -3.63014858850313757E-08 -3.72204622275733678E-08 -3.81627025594052546E-08
 -3.91287958108311198E-08 -4.01193458209769078E-08 -4.11349717152075600E-08
 -4.21763082920993967E-08 -4.32440064202080972E-08 -4.43387334448807440E-08
 -4.54611736053669745E-08 -4.66120284624884229E-08 -4.77920173371353564E-08
 -4.90018777598631007E-08 -5.02423659318706900E-08 -5.15142571976491228E-08
 -5.28183465295937858E-08 -5.41554490248857735E-08 -5.55264004149513944E-08
 -5.69320575878185892E-08 -5.83732991236971467E-08 -5.98510258441160130E-08
 -6.13661613749631919E-08 -6.29196527237783427E-08 -6.45124708716595565E-08
 -6.61456113801546011E-08 -6.78200950135145645E-08 -6.95369683767006837E-08
 -7.12973045695420792E-08 -7.31022038574531567E-08 -7.49527943591306175E-08
 -7.68502327516585440E-08 -7.87957049934640571E-08 -8.07904270655738609E-08
 -8.28356457316359023E-08 -8.49326393171812521E-08 -8.70827185086115831E-08
 -8.92872271724141655E-08 -9.15475431951146252E-08 -9.38650793444929277E-08
 -9.62412841526013028E-08 -9.86776428211345611E-08 -1.01175678149720791E-07
 -1.03736951487710909E-07 -1.06363063710062824E-07 -1.09055656217929524E-07
 -1.11816411964577836E-07 -1.14647056507275974E-07 -1.17549359085811486E-07
 -1.20525133728310674E-07 -1.23576240385051084E-07 -1.26704586090977508E-07
 -1.29912126157644888E-07 -1.33200865395336153E-07 -1.36572859366117424E-07
 -1.40030215668613136E-07 -1.43575095255306438E-07 -1.47209713783184051E-07
 -1.50936342998574625E-07 -1.54757312157042192E-07 -1.58675009479224391E-07
 -1.62691883643525061E-07 -1.66810445316591821E-07 -1.71033268722538943E-07
 -1.75362993251893974E-07 -1.79802325111272891E-07 -1.84354039014818808E-07
 -1.89020979918454301E-07 -1.93806064798039214E-07 -1.98712284472540263E-07
 -2.03742705473352228E-07 -2.08900471960942612E-07 -2.14188807690011119E-07
 -2.19611018024399716E-07 -2.25170492003006128E-07 -2.30870704457996182E-07
 -2.36715218186638346E-07 -2.42707686178112610E-07 -2.48851853896694284E-07
 -2.55151561622732167E-07 -2.61610746852887246E-07 -2.68233446761133398E-07
 -2.75023800722052287E-07 -2.81986052898008262E-07 -2.89124554891812866E-07
 -2.96443768466538266E-07 -3.03948268334184232E-07 -3.11642745014932564E-07
 -3.19532007768784921E-07 -3.27620987601411338E-07 -3.35914740346086370E-07
 -3.44418449823646363E-07 -3.53137431082431548E-07 -3.62077133720249161E-07
 -3.71243145290425318E-07 -3.80641194794076701E-07 -3.90277156260790994E-07
 -4.00157052419938558E-07 -4.10287058464925186E-07 -4.20673505912731446E-07
 -4.31322886561150394E-07 -4.42241856546198109E-07 -4.53437240502228290E-07
 -4.64916035827362116E-07 -4.76685417056883199E-07 -4.88752740347341708E-07
 -5.01125548074172225E-07 -5.13811573545681397E-07 -5.26818745836370287E-07
 -5.40155194742607679E-07 -5.53829255863735829E-07 -5.67849475811811511E-07
 -5.82224617553206271E-07 -5.96963665885428077E-07 -6.12075833052581407E-07
 -6.27570564502962005E-07 -6.43457544792403773E-07 -6.59746703637050111E-07
 -6.76448222119335939E-07 -6.93572539051075380E-07 -7.11130357497595077E-07
 -7.29132651467034167E-07 -7.47590672768947510E-07 -7.66515958046529809E-07
 -7.85920335986846465E-07 -8.05815934713553544E-07 -8.26215189366779839E-07
 -8.47130849874829709E-07 -8.68575988922645637E-07 -8.90564010121941606E-07
 -9.13108656388156921E-07 -9.36224018529440927E-07 -9.59924544053041628E-07
 -9.84225046194596339E-07 -1.00914071317598675E-06 -1.03468711769749900E-06
 -1.06088022667028209E-06 -1.08773641119510412E-06 -1.11527245679373379E-06
 -1.14350557389924547E-06 -1.17245340861189276E-06 -1.20213405372718675E-06
 -1.23256606004313429E-06 -1.26376844795364652E-06 -1.29576071933542067E-06
 -1.32856286973565464E-06 -1.36219540086826520E-06 -1.39667933342637584E-06
 -1.43203622021909386E-06 -1.46828815964080723E-06 -1.50545780948134762E-06
 -1.54356840108574300E-06 -1.58264375387230555E-06 -1.62270829021818250E-06
 -1.66378705072168572E-06 -1.70590570985085042E-06 -1.74909059198809101E-06
 -1.79336868788092684E-06 -1.83876767150902510E-06 -1.88531591737819323E-06
 -1.93304251825200822E-06 -1.98197730333221625E-06 -2.03215085689929809E-06
 -2.08359453742470807E-06 -2.13634049716688585E-06 -2.19042170226318285E-06
 -2.24587195333021936E-06 -2.30272590658566373E-06 -2.36101909550450241E-06
 -2.42078795302335143E-06 -2.48206983430674702E-06 -2.54490304008954112E-06
 -2.60932684060999724E-06 -2.67538150014857133E-06 -2.74310830218768968E-06
 -2.81254957520817287E-06 -2.88374871913845117E-06 -2.95675023247316711E-06
 -3.03159974007793023E-06 -3.10834402169767846E-06 -3.18703104118649335E-06
 -3.26770997647700602E-06 -3.35043125030816689E-06 -3.43524656173050914E-06
 -3.52220891840868014E-06 -3.61137266974130134E-06 -3.70279354081878885E-06
 -3.79652866724049796E-06 -3.89263663081276359E-06 -3.99117749615020573E-06
 -4.09221284820306724E-06 -4.19580583073404372E-06 -4.30202118576867874E-06
 -4.41092529404382130E-06 -4.52258621647943048E-06 -4.63707373669963699E-06
 -4.75445940462954250E-06 -4.87481658119505073E-06 -4.99822048415343667E-06
 -5.12474823508339293E-06 -5.25447890756384705E-06 -5.38749357657154488E-06
 -5.52387536912829211E-06 -5.66370951622931456E-06 -5.80708340608523269E-06
 -5.95408663871083292E-06 -6.10481108189465594E-06 -6.25935092858432867E-06
 -6.41780275572335230E-06 -6.58026558457610100E-06 -6.74684094257860482E-06
 -6.91763292675369146E-06 -7.09274826873004758E-06 -7.27229640140562014E-06
 -7.45638952729701052E-06 -7.64514268861742574E-06 -7.83867383912679033E-06
 -8.03710391779893610E-06 -8.24055692435165287E-06 -8.44915999668666894E-06
 -8.66304349028789538E-06 -8.88234105962717923E-06 -9.10718974162858376E-06
 -9.33773004124284138E-06 -9.57410601918555556E-06 -9.81646538189368715E-06
 -1.00649595737561683E-05 -1.03197438716764033E-05 -1.05809774820251554E-05
 -1.08488236400444375E-05 -1.11234497117642047E-05 -1.14050272984951176E-05
 -1.16937323439627043E-05 -1.19897452441492607E-05 -1.22932509599120539E-05
 -1.26044391324477611E-05 -1.29235042016749314E-05 -1.32506455276082216E-05
 -1.35860675147998099E-05 -1.39299797399251971E-05 -1.42825970825930930E-05
 -1.46441398594601650E-05 -1.50148339617345568E-05 -1.53949109961532006E-05
 -1.57846084295206360E-05 -1.61841697368992520E-05 -1.65938445535427097E-05
 -1.70138888306671496E-05 -1.74445649951568959E-05 -1.78861421133034499E-05
 -1.83388960586799834E-05 -1.88031096842548659E-05 -1.92790729988515005E-05
 -1.97670833480638351E-05 -2.02674455997393522E-05 -2.07804723341453451E-05
 -2.13064840389353768E-05 -2.18458093090377191E-05 -2.23987850515890689E-05
 -2.29657566960405077E-05 -2.35470784095662544E-05 -2.41431133179081295E-05
 -2.47542337317928048E-05 -2.53808213790618943E-05 -2.60232676426583154E-05
 -2.66819738046165925E-05 -2.73573512962075531E-05 -2.80498219543924500E-05
 -2.87598182847448106E-05 -2.94877837310025855E-05 -3.02341729514172484E-05
 -3.09994521020701220E-05 -3.17840991273315052E-05 -3.25886040576413299E-05
 -3.34134693147952104E-05 -3.42592100249246827E-05 -3.51263543393635916E-05
 -3.60154437635997192E-05 -3.69270334945134582E-05 -3.78616927661111889E-05
 -3.88200052039672461E-05 -3.98025691885913157E-05 -4.08099982279457938E-05
 -4.18429213393421438E-05 -4.29019834409502247E-05 -4.39878457531622918E-05
 -4.51011862100574449E-05 -4.62426998812193266E-05 -4.74130994041662963E-05
 -4.86131154276586052E-05 -4.98434970661552348E-05 -5.11050123656981662E-05
 -5.23984487815097252E-05 -5.37246136675958812E-05 -5.50843347786536614E-05
 -5.64784607845915032E-05 -5.79078617979751181E-05 -5.93734299147225984E-05
 -6.08760797683779496E-05 -6.24167490983011506E-05 -6.39963993321220184E-05
 -6.56160161828115638E-05 -6.72766102607353348E-05 -6.89792177010612844E-05
 -7.07249008069022519E-05 -7.25147487085861677E-05 -7.43498780394516006E-05
 -7.62314336285812937E-05 -7.81605892108920423E-05 -8.01385481550110712E-05
 -8.21665442093806429E-05 -8.42458422670410014E-05 -8.63777391495543781E-05
 -8.85635644105432849E-05 -9.08046811593276254E-05 -9.31024869051571478E-05
 -9.54584144225474737E-05 -9.78739326382404158E-05 -1.00350547540320985E-04
 -1.02889803110037278E-04 -1.05493282276882466E-04 -1.08162607897509456E-04
 -1.10899443759065515E-04 -1.13705495607545844E-04 -1.16582512201779433E-04
 -1.19532286393676955E-04 -1.22556656235382397E-04 -1.25657506113987925E-04
 -1.28836767914485619E-04 -1.32096422211645749E-04 -1.35438499491527851E-04
 -1.38865081403346608E-04 -1.42378302042432621E-04 -1.45980349265043382E-04
 -1.49673466035801030E-04 -1.53459951808545956E-04 -1.57342163941419317E-04
 -1.61322519147002281E-04 -1.65403494978360005E-04 -1.69587631351859750E-04
 -1.73877532107648351E-04 -1.78275866608698766E-04 -1.82785371379353220E-04
 -1.87408851784312129E-04 -1.92149183749042152E-04 -1.97009315522591558E-04
 -2.01992269483833618E-04 -2.07101143992171303E-04 -2.12339115283766529E-04
 -2.17709439414378838E-04 -2.23215454249919929E-04 -2.28860581505857980E-04
 -2.34648328836630404E-04 -2.40582291976247279E-04 -2.46666156931295473E-04
 -2.52903702227574552E-04 -2.59298801211631149E-04 -2.65855424408474898E-04
 -2.72577641936796284E-04 -2.79469625983027909E-04 -2.86535653335621369E-04
 -2.93780107980939941E-04 -3.01207483762199954E-04 -3.08822387102915632E-04
 -3.16629539796341218E-04 -3.24633781862427510E-04 -3.32840074473842991E-04
 -3.41253502952640982E-04 -3.49879279839191250E-04 -3.58722748035017838E-04
 -3.67789384021217534E-04 -3.77084801154171402E-04 -3.86614753040293827E-04
 -3.96385136991590618E-04 -4.06401997563841401E-04 -4.16671530179243738E-04
 -4.27200084835400128E-04 -4.37994169902558908E-04 -4.49060456011051389E-04
 -4.60405780030909812E-04 -4.72037149145673751E-04 -4.83961745022441889E-04
 -4.96186928080259910E-04 -5.08720241858951643E-04 -5.21569417490551834E-04
 -5.34742378275526622E-04 -5.48247244366010036E-04 -5.62092337558311637E-04
 -5.76286186196983685E-04 -5.90837530192783646E-04 -6.05755326156878879E-04
 -6.21048752653694056E-04 -6.36727215574819298E-04 -6.52800353636425195E-04
 -6.69278044002711886E-04 -6.86170408037885108E-04 -7.03487817189197098E-04
 -7.21240899003642959E-04 -7.39440543280905243E-04 -7.58097908365189710E-04
 -7.77224427578596415E-04 -7.96831815798705514E-04 -8.16932076183087431E-04
 -8.37537507043442024E-04 -8.58660708872103725E-04 -8.80314591523651446E-04
 -9.02512381554475360E-04 -9.25267629722996204E-04 -9.48594218653339119E-04
 -9.72506370665261223E-04 -9.97018655773123427E-04 -1.02214599985670689E-03
 -1.04790369300665639E-03 -1.07430739804733537E-03 -1.10137315923985904E-03
 -1.12911741116803930E-03 -1.15755698780992860E-03 -1.18670913179781050E-03
 -1.21659150386922016E-03 -1.24722219251158337E-03 -1.27861972380308598E-03
 -1.31080307145230732E-03 -1.34379166703909214E-03 -1.37760541045905700E-03
 -1.41226468057407376E-03 -1.44779034607096205E-03 -1.48420377653050929E-03
 -1.52152685370881527E-03 -1.55978198303319531E-03 -1.59899210531420661E-03
 -1.63918070867546234E-03 -1.68037184070280658E-03 -1.72259012081421559E-03
 -1.76586075285159764E-03 -1.81020953789549520E-03 -1.85566288730347451E-03
 -1.90224783597274538E-03 -1.94999205582716321E-03 -1.99892386952896196E-03
 -2.04907226441513246E-03 -2.10046690665749046E-03 -2.15313815564575385E-03
 -2.20711707859242486E-03 -2.26243546535790600E-03 -2.31912584349388195E-03
 -2.37722149350253886E-03 -2.43675646430879193E-03 -2.49776558894190901E-03
 -2.56028450042280553E-03 -2.62434964785332545E-03 -2.68999831270153207E-03
 -2.75726862527760378E-03 -2.82619958139402770E-03 -2.89683105920308243E-03
 -2.96920383620375783E-03 -3.04335960640954003E-03 -3.11934099766753882E-03
 -3.19719158911822019E-03 -3.27695592878452999E-03 -3.35867955127938872E-03
 -3.44240899561642968E-03 -3.52819182310974613E-03 -3.61607663534683522E-03
 -3.70611309221767710E-03 -3.79835192998131217E-03 -3.89284497935002936E-03
 -3.98964518356955712E-03 -4.08880661647131188E-03 -4.19038450047289849E-03
 -4.29443522450156240E-03 -4.40101636180947626E-03 -4.51018668765105265E-03
 -4.62200619678959819E-03 -4.73653612079829710E-03 -4.85383894511806809E-03
 -4.97397842583240449E-03 -5.09701960611640397E-03 -5.22302883231289417E-03
 -5.35207376959155341E-03 -5.48422341713808437E-03 -5.61954812281666768E-03
 -5.75811959724869399E-03 -5.90001092724592741E-03 -6.04529658853254163E-03
 -6.19405245768631096E-03 -6.34635582322499309E-03 -6.50228539575823262E-03
 -6.66192131712150908E-03 -6.82534516841160153E-03 -6.99263997682252406E-03
 -7.16389022118475976E-03 -7.33918183610400392E-03 -7.51860221458905062E-03
 -7.70224020905205600E-03 -7.89018613055779069E-03 -8.08253174619106424E-03
 -8.27937027440009063E-03 -8.48079637818173124E-03 -8.68690615595105534E-03
 -8.89779712992800134E-03 -9.11356823187347079E-03 -9.33431978599480114E-03
 -9.56015348883088728E-03 -9.79117238591685306E-03 -1.00274808450174849E-02
 -1.02691845257020034E-02 -1.05163903450327979E-02 -1.07692064391333043E-02
 -1.10277421203579772E-02 -1.12921078297977175E-02 -1.15624150848352321E-02
 -1.18387764214493030E-02 -1.21213053309515238E-02 -1.24101161908231113E-02
 -1.27053241892975503E-02 -1.30070452433191982E-02 -1.33153959095238805E-02
 -1.36304932878069107E-02 -1.39524549170585970E-02 -1.42813986626256044E-02
 -1.46174425950316381E-02 -1.49607048594683299E-02 -1.53113035355438142E-02
 -1.56693564867478527E-02 -1.60349811990569170E-02 -1.64082946081415756E-02
 -1.67894129145226174E-02 -1.71784513860261216E-02 -1.75755241468706809E-02
 -1.79807439526807195E-02 -1.83942219506881138E-02 -1.88160674243507131E-02
 -1.92463875215783883E-02 -1.96852869657005609E-02 -2.01328677483670476E-02
 -2.05892288034294352E-02 -2.10544656608245735E-02 -2.15286700794794505E-02
 -2.20119296581979922E-02 -2.25043274234472609E-02 -2.30059413929152544E-02
 -2.35168441136626022E-02 -2.40371021736096695E-02 -2.45667756851836380E-02
 -2.51059177397695947E-02 -2.56545738315495202E-02 -2.62127812493310221E-02
 -2.67805684348886991E-02 -2.73579543062849734E-02 -2.79449475445816206E-02
 -2.85415458422911411E-02 -2.91477351118122723E-02 -2.97634886522160635E-02
 -3.03887662725181550E-02 -3.10235133694865862E-02 -3.16676599580811916E-02
 -3.23211196525229755E-02 -3.29837885959296875E-02 -3.36555443363934920E-02
 -3.43362446473096453E-02 -3.50257262896444127E-02 -3.57238037140181972E-02
 -3.64302677001762248E-02 -3.71448839313470378E-02 -3.78673915010723228E-02
 -3.85975013499905845E-02 -3.93348946300088181E-02 -4.00792209932515561E-02
 -4.08300968031263950E-02 -4.15871032647412223E-02 -4.23497844721933414E-02
 -4.31176453698686526E-02 -4.38901496249167883E-02 -4.46667174081987542E-02
 -4.54467230809459735E-02 -4.62294927843799885E-02 -4.70143019295647391E-02
 -4.78003725847812311E-02 -4.85868707577125705E-02 -4.93729035701199331E-02
 -5.01575163223173456E-02 -5.09396894450075133E-02 -5.17183353362509202E-02
 -5.24922950814308217E-02 -5.32603350542426232E-02 -5.40211433969302462E-02
 -5.47733263782013285E-02 -5.55154046275160781E-02 -5.62458092448886379E-02
 -5.69628777853373805E-02 -5.76648501176900627E-02 -5.83498641578641328E-02
 -5.90159514771740126E-02 -5.96610327867260967E-02 -6.02829132995265290E-02
 -6.08792779725919470E-02 -6.14476866320883205E-02 -6.19855689849268809E-02
 -6.24902195214741135E-02 -6.29587923148232781E-02 -6.33882957230316596E-02
 -6.37755870018231197E-02 -6.41173668364301702E-02 -6.44101738025298354E-02
 -6.46503787678983782E-02 -6.48341792475637391E-02 -6.49575937259217057E-02
 -6.50164559630427574E-02 -6.50064093030444101E-02 -6.49229010045792171E-02
 -6.47611766157173557E-02 -6.45162744178315872E-02 -6.41830199656165945E-02
 -6.37560207540663337E-02 -6.32296610436471757E-02 -6.25980968779938779E-02
 -6.18552513354683545E-02 -6.09948100560512851E-02 -6.00102170893899931E-02
 -5.88946711137232001E-02 -5.76411220794439058E-02 -5.62422683355476780E-02
 -5.46905543041722592E-02 -5.29781687646387056E-02 -5.10970438200773411E-02
 -4.90388546274491341E-02 -4.67950199717830917E-02 -4.43567037726373126E-02
 -4.17148176165455520E-02 -3.88600244150902052E-02 -3.57827432954527652E-02
 -3.24731558399811646E-02 -2.89212137776688437E-02 -2.51166482616617982E-02
 -2.10489808657107098E-02 -1.67075364342653999E-02 -1.20814579295906773E-02
 -7.15972342540269636E-03 -1.93116540243580006E-03  3.61550748848764964E-03
  9.49168602737415074E-03  1.57088332454216467E-02  2.22784542640609810E-02
  2.92120629783441839E-02  3.65211454063766178E-02  4.42171195228482222E-02
  5.23112913947343383E-02  6.08148074384997489E-02  6.97386026086912469E-02
  7.90933443616341214E-02  8.88893722532897584E-02  9.91366329767666143E-02
  1.09844610710676388E-01  1.21022252654750667E-01  1.32677889647522834E-01
  1.44819151784842365E-01  1.57452878984628619E-01  1.70585026455104649E-01
  1.84220565141477555E-01  1.98363377203509578E-01  2.13016146604261797E-01
  2.28180245002839011E-01  2.43855613192350579E-01  2.60040638397934842E-01
  2.76732027832494953E-01  2.93924678992591948E-01  3.11611547265841504E-01
  3.29783511639991700E-01  3.48429239266427715E-01  3.67535049828563165E-01
  3.87084780825972696E-01  4.07059655022016575E-01  4.27438151463044536E-01
  4.48195881645755467E-01  4.69305472575110960E-01  4.90736458660384400E-01
  5.12455184599994840E-01  5.34424721481859266E-01  5.56604798588339666E-01
  5.78951753541733671E-01  6.01418503565551932E-01  6.23954540753549503E-01
  6.46505954317899700E-01  6.69015482848277165E-01  6.91422599521025250E-01
  7.13663633027612265E-01  7.35671926876838911E-01  7.57378039285970917E-01
  7.78709985342674216E-01  7.99593522371248477E-01  8.19952478432354304E-01
  8.39709122592324664E-01  8.58784574032624981E-01  8.77099244427400837E-01
  8.94573305839478583E-01  9.11127173057991513E-01  9.26681985015690879E-01
  9.41160065002490165E-01  9.54485333324297303E-01  9.66583638717862903E-01
  9.77382966066708048E-01  9.86813467251698828E-01  9.94807248768241892E-01
  1.00129783505834991E+00  1.00621934480351571E+00  1.00950621699356780E+00
  1.01109344218329600E+00  1.01091683264586707E+00  1.00891331498152437E+00
  1.00502124591670472E+00  9.99180751922904675E-01  9.91334093198363187E-01
  9.81426052871816723E-01  9.69404351802280018E-01  9.55220089283330132E-01
  9.38828209798046154E-01  9.20187995770129108E-01  8.99263586042974183E-01
  8.76024519684196812E-01  8.50446303873250709E-01  8.22511004860225325E-01
  7.92207860619963733E-01  7.59533913137104499E-01  7.24494657917024165E-01
  6.87104707834510942E-01  6.47388467908297960E-01  6.05380817087253442E-01
  5.61127792528640534E-01  5.14687270686488119E-01  4.66129639836251886E-01
  4.15538457427587549E-01  3.63011084946523843E-01  3.08659292303009480E-01
  2.52609823025519986E-01  1.95004910808996040E-01  1.36002737273218960E-01
  7.57778198775609368E-02  1.45213184120959841E-02 -4.75587519191608965E-02
 -1.10237413745218504E-01 -1.73272740446002493E-01 -2.36406002509141677E-01
 -2.99361961431428958E-01 -3.61849325514836118E-01 -4.23561382275535747E-01
 -4.84176821319325101E-01 -5.43360761681851212E-01 -6.00765997624752579E-01
 -6.56034475737174549E-01 -7.08799015377613473E-01 -7.58685283296535506E-01
 -8.05314031781250383E-01 -8.48303608131884546E-01 -8.87272741381886387E-01
 -9.21843606457556475E-01 -9.51645167468113673E-01 -9.76316796470218518E-01
 -9.95512159889316406E-01 -1.00890336067976238E+00 -1.01618531943498125E+00
 -1.01708037229687309E+00 -1.01134305878716457E+00 -9.98765063690807420E-01
 -9.79180269160948469E-01 -9.52469872386965788E-01 -9.18567511210339971E-01
 -8.77464333035539723E-01 -8.29213934227449156E-01 -7.73937088726852296E-01
 -7.11826176318839599E-01 -6.43149213901416883E-01 -5.68253379272698034E-01
 -4.87567916379044453E-01 -4.01606304145026960E-01 -3.10967562321969371E-01
 -2.16336565174311463E-01 -1.18483231732435385E-01 -1.82604614207489066E-02
  8.33993135566998695E-02  1.85489083057098464E-01  2.86933833816818362E-01
  3.86598843186548968E-01  4.83299775655116837E-01  5.75814643018492056E-01
  6.62897661573835784E-01  7.43295006934239333E-01  8.15762428690952945E-01
  8.79084646719021201E-01  9.32096393903006692E-01  9.73704909137902308E-01
  1.00291364353308410E+00  1.01884686426835502E+00  1.02077477427312657E+00
  1.00813869548758595E+00  9.80575791902815852E-01  9.37942739076207621E-01
  8.80337685996855579E-01  8.08119765422911418E-01  7.21925389106867210E-01
  6.22680524393828594E-01  5.11608111237779495E-01  3.90229781784268093E-01
  2.60361066656621787E-01  1.24099322482101385E-01 -1.61963019369895829E-02
 -1.57933429792206925E-01 -2.98323955167126731E-01 -4.34430669618989740E-01
 -5.63222982115854309E-01 -6.81641408040843055E-01 -7.86670174886815121E-01
 -8.75416928210728251E-01 -9.45198127167619195E-01 -9.93628319157205286E-01
 -1.01871102091563337E+00 -1.01892850173925020E+00 -9.93327447253770868E-01
 -9.41597075998941047E-01 -8.64136012798256359E-01 -7.62104042571058016E-01
 -6.37454811447894287E-01 -4.92945640797004869E-01 -3.32120901294456761E-01
 -1.59265816320356801E-01  2.06716194133784344E-02  2.02192010303168468E-01
  3.79389457774181371E-01  5.46128784046534199E-01  6.96252243800881132E-01
  8.23811079309353711E-01  9.23315376977402624E-01  9.89993736433362082E-01
  1.02005222211378888E+00  1.01092060658150440E+00  9.61472459252077583E-01
  8.72204733528459397E-01  7.45362250872189436E-01  5.84992994857032267E-01
  3.96921556349456195E-01  1.88630527465172726E-01 -3.09569372660209036E-02
 -2.51795398202055876E-01 -4.63132585703721955E-01 -6.54012023357797401E-01
 -8.13845690115028275E-01 -9.33032294976205989E-01 -1.00358969730294900E+00
 -1.01976380837900038E+00 -9.78571638198133087E-01 -8.80233062803595034E-01
 -7.28446656243259438E-01 -5.30468515297805809E-01 -2.96960336116046719E-01
 -4.15846636524279667E-02  2.19659141381369105E-01  4.69345484784708500E-01
  6.89745140373819621E-01  8.64102222778109330E-01  9.77984663664717924E-01
  1.02060793768583058E+00  9.86017083803711225E-01  8.74005134839992093E-01
  6.90649436228978675E-01  4.48362832902852726E-01  1.65385434226846206E-01
 -1.35315512692349760E-01 -4.27716960765998244E-01 -6.84899299242403448E-01
 -8.81545567566887733E-01 -9.96571726104717892E-01 -1.01562905923957958E+00
 -9.33189951000119700E-01
                              </PP_CHI.4>
                             </PP_PSWFC> 
<PP_FULL_WFC number_of_wfc=" 4">
 <PP_AEWFC.1 type="real" size="   961" l="0" columns="3" label= "2S">
 -1.34423472186038216E-03 -1.36108142911274045E-03 -1.37813906736595462E-03
 -1.39541027274941781E-03 -1.41289771407674693E-03 -1.43060409327065035E-03
 -1.44853214606148169E-03 -1.46668464225989110E-03 -1.48506438591904208E-03
 -1.50367421611076056E-03 -1.52251700735625507E-03 -1.54159566971104507E-03
 -1.56091314948176370E-03 -1.58047242978582030E-03 -1.60027653065163925E-03
 -1.62032850965830567E-03 -1.64063146258040587E-03 -1.66118852351237263E-03
 -1.68200286548943179E-03 -1.70307770116306695E-03 -1.72441628293579794E-03
 -1.74602190363422512E-03 -1.76789789715652988E-03 -1.79004763861889335E-03
 -1.81247454513577583E-03 -1.83518207636285775E-03 -1.85817373471852286E-03
 -1.88145306626279728E-03 -1.90502366106244268E-03 -1.92888915362808533E-03
 -1.95305322376369676E-03 -1.97751959678570382E-03 -2.00229204427939712E-03
 -2.02737438470315884E-03 -2.05277048371624218E-03 -2.07848425509730332E-03
 -2.10451966103773888E-03 -2.13088071288740442E-03 -2.15757147179154035E-03
 -2.18459604909823765E-03 -2.21195860727604367E-03 -2.23966336021653089E-03
 -2.26771457413212562E-03 -2.29611656803277615E-03 -2.32487371441033458E-03
 -2.35399043997127581E-03 -2.38347122612253548E-03 -2.41332060988446112E-03
 -2.44354318428701605E-03 -2.47414359934540430E-03 -2.50512656247656781E-03
 -2.53649683945025546E-03 -2.56825925488398743E-03 -2.60041869314108333E-03
 -2.63298009890994235E-03 -2.66594847806017480E-03 -2.69932889828620017E-03
 -2.73312648994717723E-03 -2.76734644674805777E-03 -2.80199402659093294E-03
 -2.83707455226789827E-03 -2.87259341234811453E-03 -2.90855606186199217E-03
 -2.94496802324106365E-03 -2.98183488698309553E-03 -3.01916231264759373E-03
 -3.05695602951133738E-03 -3.09522183759563651E-03 -3.13396560835388317E-03
 -3.17319328567600189E-03 -3.21291088667032378E-03 -3.25312450258669148E-03
 -3.29384029973747326E-03 -3.33506452032231388E-03 -3.37680348346569700E-03
 -3.41906358601490974E-03 -3.46185130358138329E-03 -3.50517319144495179E-03
 -3.54903588548971180E-03 -3.59344610325534062E-03 -3.63841064481870485E-03
 -3.68393639386178527E-03 -3.73003031866605411E-03 -3.77669947307541923E-03
 -3.82395099760378951E-03 -3.87179212042295696E-03 -3.92023015840808464E-03
 -3.96927251825492620E-03 -4.01892669750155557E-03 -4.06920028562722871E-03
 -4.12010096518987921E-03 -4.17163651289549110E-03 -4.22381480072942135E-03
 -4.27664379712746484E-03 -4.33013156809968196E-03 -4.38428627838238511E-03
 -4.43911619264847086E-03 -4.49462967669000610E-03 -4.55083519859520759E-03
 -4.60774132998903376E-03 -4.66535674727132019E-03 -4.72369023284785732E-03
 -4.78275067637853445E-03 -4.84254707606952307E-03 -4.90308853995996292E-03
 -4.96438428721401957E-03 -5.02644364942862222E-03 -5.08927607197710158E-03
 -5.15289111535401079E-03 -5.21729845653197064E-03 -5.28250789032738872E-03
 -5.34852933079469836E-03 -5.41537281263551606E-03 -5.48304849261742940E-03
 -5.55156665100825075E-03 -5.62093769302273154E-03 -5.69117215029004038E-03
 -5.76228068234002459E-03 -5.83427407810127412E-03 -5.90716325741529654E-03
 -5.98095927256703502E-03 -6.05567330983127622E-03 -6.13131669103530487E-03
 -6.20790087514157349E-03 -6.28543745984532550E-03 -6.36393818318869466E-03
 -6.44341492519200087E-03 -6.52387970950229698E-03 -6.60534470505934161E-03
 -6.68782222777907984E-03 -6.77132474225475550E-03 -6.85586486347569603E-03
 -6.94145535856428766E-03 -7.02810914853109394E-03 -7.11583931004786032E-03
 -7.20465907723887456E-03 -7.29458184349069966E-03 -7.38562116328054640E-03
 -7.47779075402331059E-03 -7.57110449793744512E-03 -7.66557644392982292E-03
 -7.76122080949960894E-03 -7.85805198266140495E-03 -7.95608452388768886E-03
 -8.05533316807072880E-03 -8.15581282650409099E-03 -8.25753858888377337E-03
 -8.36052572532924171E-03 -8.46478968842434565E-03 -8.57034611527831072E-03
 -8.67721082960691385E-03 -8.78539984383386666E-03 -8.89492936121266675E-03
 -9.00581577796882339E-03 -9.11807568546252507E-03 -9.23172587237237191E-03
 -9.34678332689977374E-03 -9.46326523899431067E-03 -9.58118900260004555E-03
 -9.70057221792290127E-03 -9.82143269371933691E-03 -9.94378844960615467E-03
 -1.00676577183917114E-02 -1.01930589484274439E-02 -1.03200108059819627E-02
 -1.04485321776375348E-02 -1.05786421727075072E-02 -1.07103601256754305E-02
 -1.08437055986559880E-02 -1.09786983838763702E-02 -1.11153585061791529E-02
 -1.12537062255508059E-02 -1.13937620396705810E-02 -1.15355466864810342E-02
 -1.16790811467790828E-02 -1.18243866468271570E-02 -1.19714846609930998E-02
 -1.21203969144098034E-02 -1.22711453856556973E-02 -1.24237523094523766E-02
 -1.25782401793910707E-02 -1.27346317506830640E-02 -1.28929500429283694E-02
 -1.30532183428999273E-02 -1.32154602073592808E-02 -1.33796994658959903E-02
 -1.35459602237812931E-02 -1.37142668648395760E-02 -1.38846440543569215E-02
 -1.40571167420041384E-02 -1.42317101647701783E-02 -1.44084498499323973E-02
 -1.45873616180484805E-02 -1.47684715859530899E-02 -1.49518061697894548E-02
 -1.51373920880672145E-02 -1.53252563647200343E-02 -1.55154263322014995E-02
 -1.57079296346040315E-02 -1.59027942307753377E-02 -1.61000483974817893E-02
 -1.62997207325801148E-02 -1.65018401581962966E-02 -1.67064359239535096E-02
 -1.69135376101881493E-02 -1.71231751312023277E-02 -1.73353787385385170E-02
 -1.75501790242484357E-02 -1.77676069242162747E-02 -1.79876937214620974E-02
 -1.82104710494910144E-02 -1.84359708956457133E-02 -1.86642256044717916E-02
 -1.88952678811187408E-02 -1.91291307947243951E-02 -1.93658477818549925E-02
 -1.96054526499155127E-02 -1.98479795806188776E-02 -2.00934631334264979E-02
 -2.03419382490406669E-02 -2.05934402528746494E-02 -2.08480048585661971E-02
 -2.11056681714735135E-02 -2.13664666922094258E-02 -2.16304373201583362E-02
 -2.18976173570308470E-02 -2.21680445103965805E-02 -2.24417568972582020E-02
 -2.27187930475959039E-02 -2.29991919079581830E-02 -2.32829928450154836E-02
 -2.35702356491618477E-02 -2.38609605380786099E-02 -2.41552081603371958E-02
 -2.44530195989765796E-02 -2.47544363750956675E-02 -2.50595004514465453E-02
 -2.53682542360094618E-02 -2.56807405855952048E-02 -2.59970028094071125E-02
 -2.63170846726326971E-02 -2.66410304000066385E-02 -2.69688846793700969E-02
 -2.73006926652372035E-02 -2.76364999823220971E-02 -2.79763527290849308E-02
 -2.83202974812473626E-02 -2.86683812952897195E-02 -2.90206517119541811E-02
 -2.93771567597030901E-02 -2.97379449581740458E-02 -3.01030653216184073E-02
 -3.04725673622954669E-02 -3.08465010938642203E-02 -3.12249170347427656E-02
 -3.16078662114242515E-02 -3.19954001617840170E-02 -3.23875709383454405E-02
 -3.27844311114992987E-02 -3.31860337727052646E-02 -3.35924325376475985E-02
 -3.40036815493375416E-02 -3.44198354811869472E-02 -3.48409495400341176E-02
 -3.52670794691088765E-02 -3.56982815509534410E-02 -3.61346126102956716E-02
 -3.65761300168552031E-02 -3.70228916880866177E-02 -3.74749560918727076E-02
 -3.79323822491457602E-02 -3.83952297364332854E-02 -3.88635586883361514E-02
 -3.93374297999370889E-02 -3.98169043291239921E-02 -4.03020440988259773E-02
 -4.07929114991708239E-02 -4.12895694895537013E-02 -4.17920816006085508E-02
 -4.23005119360780751E-02 -4.28149251745878409E-02 -4.33353865713166780E-02
 -4.38619619595539342E-02 -4.43947177521400310E-02 -4.49337209427898149E-02
 -4.54790391072972880E-02 -4.60307404046099364E-02 -4.65888935777688459E-02
 -4.71535679547090275E-02 -4.77248334489215470E-02 -4.83027605599681484E-02
 -4.88874203738407995E-02 -4.94788845631620802E-02 -5.00772253872194331E-02
 -5.06825156918328176E-02 -5.12948289090466789E-02 -5.19142390566387224E-02
 -5.25408207374399305E-02 -5.31746491384593456E-02 -5.38158000298078198E-02
 -5.44643497634164434E-02 -5.51203752715395817E-02 -5.57839540650351337E-02
 -5.64551642314165408E-02 -5.71340844326676395E-02 -5.78207939028135762E-02
 -5.85153724452428456E-02 -5.92179004297686065E-02 -5.99284587894223161E-02
 -6.06471290169718208E-02 -6.13739931611546677E-02 -6.21091338226186854E-02
 -6.28526341495602159E-02 -6.36045778330531497E-02 -6.43650491020573701E-02
 -6.51341327180962604E-02 -6.59119139695957396E-02 -6.66984786658733064E-02
 -6.74939131307675522E-02 -6.82983041958972886E-02 -6.91117391935402170E-02
 -6.99343059491205760E-02 -7.07660927732937789E-02 -7.16071884536167019E-02
 -7.24576822457923542E-02 -7.33176638644764955E-02 -7.41872234736352110E-02
 -7.50664516764396883E-02 -7.59554395046860703E-02 -7.68542784077280300E-02
 -7.77630602409074834E-02 -7.86818772534720046E-02 -7.96108220759633861E-02
 -8.05499877070635917E-02 -8.14994674998844315E-02 -8.24593551476853898E-02
 -8.34297446690055872E-02 -8.44107303921941554E-02 -8.54024069393231056E-02
 -8.64048692094680354E-02 -8.74182123613388429E-02 -8.84425317952454021E-02
 -8.94779231343807990E-02 -9.05244822054042525E-02 -9.15823050183084270E-02
 -9.26514877455506952E-02 -9.37321267004319475E-02 -9.48243183147042257E-02
 -9.59281591153875041E-02 -9.70437457007776727E-02 -9.81711747156252257E-02
 -9.93105428254656558E-02 -1.00461946690080697E-01 -1.01625482936069836E-01
 -1.02801248128512199E-01 -1.03989338741695969E-01 -1.05189851128894854E-01
 -1.06402881491169651E-01 -1.07628525845171463E-01 -1.08866879989925225E-01
 -1.10118039472569151E-01 -1.11382099553027789E-01 -1.12659155167594144E-01
 -1.13949300891396779E-01 -1.15252630899727676E-01 -1.16569238928204894E-01
 -1.17899218231746747E-01 -1.19242661542329584E-01 -1.20599661025503832E-01
 -1.21970308235643615E-01 -1.23354694069900225E-01 -1.24752908720834402E-01
 -1.26165041627699953E-01 -1.27591181426348843E-01 -1.29031415897732510E-01
 -1.30485831914968597E-01 -1.31954515388944815E-01 -1.33437551212431699E-01
 -1.34935023202672616E-01 -1.36447014042423875E-01 -1.37973605219411904E-01
 -1.39514876964179302E-01 -1.41070908186288202E-01 -1.42641776408848731E-01
 -1.44227557701342907E-01 -1.45828326610711073E-01 -1.47444156090669853E-01
 -1.49075117429229131E-01 -1.50721280174374472E-01 -1.52382712057885145E-01
 -1.54059478917251441E-01 -1.55751644615661211E-01 -1.57459270960020853E-01
 -1.59182417616977573E-01 -1.60921142026909797E-01 -1.62675499315851624E-01
 -1.64445542205317791E-01 -1.66231320919996178E-01 -1.68032883093271579E-01
 -1.69850273670550278E-01 -1.71683534810348065E-01 -1.73532705783110558E-01
 -1.75397822867729952E-01 -1.77278919245726030E-01 -1.79176024893056368E-01
 -1.81089166469523555E-01 -1.83018367205745047E-01 -1.84963646787652647E-01
 -1.86925021238489641E-01 -1.88902502798271810E-01 -1.90896099800680841E-01
 -1.92905816547357556E-01 -1.94931653179564790E-01 -1.96973605547186736E-01
 -1.99031665075036363E-01 -2.01105818626440003E-01 -2.03196048364069404E-01
 -2.05302331607993438E-01 -2.07424640690920703E-01 -2.09562942810606695E-01
 -2.11717199879397799E-01 -2.13887368370888675E-01 -2.16073399163665775E-01
 -2.18275237382117598E-01 -2.20492822234285013E-01 -2.22726086846733784E-01
 -2.24974958096427591E-01 -2.27239356439583012E-01 -2.29519195737491133E-01
 -2.31814383079287673E-01 -2.34124818601659290E-01 -2.36450395305472905E-01
 -2.38790998869317816E-01 -2.41146507459951365E-01 -2.43516791539642341E-01
 -2.45901713670406058E-01 -2.48301128315129183E-01 -2.50714881635584030E-01
 -2.53142811287334901E-01 -2.55584746211539038E-01 -2.58040506423651395E-01
 -2.60509902799041237E-01 -2.62992736855537645E-01 -2.65488800532914404E-01
 -2.67997875969335941E-01 -2.70519735274785678E-01 -2.73054140301500936E-01
 -2.75600842411446278E-01 -2.78159582240855352E-01 -2.80730089461878551E-01
 -2.83312082541376853E-01 -2.85905268496906562E-01 -2.88509342649943101E-01
 -2.91123988376397635E-01 -2.93748876854483976E-01 -2.96383666809996171E-01
 -2.99028004259063618E-01 -3.01681522248466616E-01 -3.04343840593581161E-01
 -3.07014565614034451E-01 -3.09693289867164379E-01 -3.12379591879375695E-01
 -3.15073035875495067E-01 -3.17773171506229690E-01 -3.20479533573845288E-01
 -3.23191641756181647E-01 -3.25909000329133114E-01 -3.28631097887726986E-01
 -3.31357407065941578E-01 -3.34087384255403408E-01 -3.36820469323131422E-01
 -3.39556085328501178E-01 -3.42293638239579479E-01 -3.45032516649017962E-01
 -3.47772091489691737E-01 -3.50511715750284947E-01 -3.53250724191023546E-01
 -3.55988433059774512E-01 -3.58724139808735631E-01 -3.61457122811946363E-01
 -3.64186641083867446E-01 -3.66911933999275963E-01 -3.69632221014723150E-01
 -3.72346701391890744E-01 -3.75054553923083733E-01 -3.77754936659155272E-01
 -3.80446986640175677E-01 -3.83129819629164647E-01 -3.85802529849218201E-01
 -3.88464189724366638E-01 -3.91113849624520060E-01 -3.93750537614864227E-01
 -3.96373259210085205E-01 -3.98980997133793314E-01 -4.01572711083539424E-01
 -4.04147337501941761E-01 -4.06703789354247558E-01 -4.09240955912787141E-01
 -4.11757702548780358E-01 -4.14252870531965300E-01 -4.16725276838528169E-01
 -4.19173713967827932E-01 -4.21596949768423268E-01 -4.23993727273922094E-01
 -4.26362764549177486E-01 -4.28702754547313103E-01 -4.31012364978340723E-01
 -4.33290238189822874E-01 -4.35534991060132159E-01 -4.37745214904950386E-01
 -4.39919475397622994E-01 -4.42056312504004789E-01 -4.44154240432437175E-01
 -4.46211747599520481E-01 -4.48227296612351001E-01 -4.50199324267873069E-01
 -4.52126241569973109E-01 -4.54006433765379303E-01 -4.55838260398796435E-01
 -4.57620055388024694E-01 -4.59350127119854512E-01 -4.61026758567504247E-01
 -4.62648207430370384E-01 -4.64212706296878941E-01 -4.65718462831233138E-01
 -4.67163659984858537E-01 -4.68546456233184860E-01 -4.69864985838895910E-01
 -4.71117359142609382E-01 -4.72301662881410234E-01 -4.73415960536249902E-01
 -4.74458292709085905E-01 -4.75426677530618347E-01 -4.76319111099502368E-01
 -4.77133567953905657E-01 -4.77868001576289891E-01 -4.78520344932100272E-01
 -4.79088511043361032E-01 -4.79570393598741374E-01 -4.79963867600104566E-01
 -4.80266790046643299E-01 -4.80477000657528797E-01 -4.80592322633949465E-01
 -4.80610563461407125E-01 -4.80529515753129577E-01 -4.80346958135452473E-01
 -4.80060656175717360E-01 -4.79668363353648874E-01 -4.79167822078130912E-01
 -4.78556764748819641E-01 -4.77832914863701885E-01 -4.76993988173449124E-01
 -4.76037693883301749E-01 -4.74961735903201732E-01 -4.73763814146856643E-01
 -4.72441625880384464E-01 -4.70992867120577030E-01 -4.69415234084156918E-01
 -4.67706424689541433E-01 -4.65864140109805813E-01 -4.63886086377925833E-01
 -4.61769976044790142E-01 -4.59513529890355377E-01 -4.57114478688271597E-01
 -4.54570565024240147E-01 -4.51879545168200392E-01 -4.49039190999444060E-01
 -4.46047291987430539E-01 -4.42901657227273982E-01 -4.39600117528572865E-01
 -4.36140527558197877E-01 -4.32520768036826431E-01 -4.28738747988917535E-01
 -4.24792407045733178E-01 -4.20679717800917286E-01 -4.16398688217286594E-01
 -4.11947364084078449E-01 -4.07323831527835745E-01 -4.02526219571704313E-01
 -3.97552702742972330E-01 -3.92401503728102508E-01 -3.87070896074020288E-01
 -3.81559206934304396E-01 -3.75864819858802934E-01 -3.69986177624844648E-01
 -3.63921785106255335E-01 -3.57670212183701874E-01 -3.51230096692213056E-01
 -3.44600147401293244E-01 -3.37779147026865900E-01 -3.30765955272678436E-01
 -3.23559511898637797E-01 -3.16158839813412473E-01 -3.08563048188457367E-01
 -3.00771335588331135E-01 -2.92782993116982471E-01 -2.84597407580969353E-01
 -2.76214064658872160E-01 -2.67632552075799612E-01 -2.58852562779679662E-01
 -2.49873898115581666E-01 -2.40696470994177847E-01 -2.31320309050313033E-01
 -2.21745557785879149E-01 -2.11972483691768854E-01 -2.02001477354945530E-01
 -1.91833056535251650E-01 -1.81467869208826071E-01 -1.70906696574202488E-01
 -1.60150456015891896E-01 -1.49200204020006028E-01 -1.38057139036230792E-01
 -1.26722604279035783E-01 -1.15198090458135699E-01 -1.03485238446039018E-01
 -9.15858418646653405E-02 -7.95018495824303117E-02 -6.72353681161819566E-02
 -5.47886639294340519E-02 -4.21641656177017751E-02 -2.93644659711217622E-02
 -1.63923239029257761E-02 -3.25066622697232173E-03  1.00574107109290857E-02
  2.35286395700054080E-02  3.71595807380261448E-02  5.09466212512962383E-02
  6.48859739252600903E-02  7.89736767099201709E-02  9.32055922838908313E-02
  1.07577407900783836E-01  1.22084635506230693E-01  1.36722612115828340E-01
  1.51486500467575586E-01  1.66371289958554436E-01  1.81371797856258815E-01
  1.96482670773568457E-01  2.11698386388697923E-01  2.27013255382934542E-01
  2.42421423560744281E-01  2.57916874115102723E-01  2.73493429963451329E-01
  2.89144756102444223E-01  3.04864361928365413E-01  3.20645603452135552E-01
  3.36481685347912396E-01  3.52365662783109213E-01  3.68290442991667744E-01
  3.84248786572614742E-01  4.00233308527221998E-01  4.16236479045150987E-01
  4.32250624114001336E-01  4.48267926057537680E-01  4.64280424120550705E-01
  4.80280015250950154E-01  4.96258455249404984E-01  5.12207360467586525E-01
  5.28118210236911523E-01  5.43982350203263687E-01  5.59790996686446718E-01
  5.75535242180614581E-01  5.91206062057565540E-01  6.06794322466970071E-01
  6.22290789378028397E-01  6.37686138656447743E-01  6.52970967029975036E-01
  6.68135803770766645E-01  6.83171122917814566E-01  6.98067355833598691E-01
  7.12814903952755041E-01  7.27404151594333026E-01  7.41825478732716648E-01
  7.56069273661662655E-01  7.70125945517196264E-01  7.83985936651238724E-01
  7.97639734869810546E-01  8.11077885564376322E-01  8.24291003742505857E-01
  8.37269786013487338E-01  8.50005022557397960E-01  8.62487609097862484E-01
  8.74708558895443855E-01  8.86659014770571519E-01  8.98330261156856547E-01
  9.09713736180332022E-01  9.20801043750274384E-01  9.31583965627673316E-01
  9.42054473465026021E-01  9.52204740784476589E-01  9.62027154860834122E-01
  9.71514328475710065E-01  9.80659111507774073E-01  9.89454602323560306E-01
  9.97894158933951503E-01  1.00597140987850930E+00  1.01368026480342466E+00
  1.02101492470564348E+00  1.02796989180898990E+00  1.03453997904214967E+00
  1.04072031909039464E+00  1.04650637299474725E+00  1.05189393827392563E+00
  1.05687915654209164E+00  1.06145852060600032E+00  1.06562888102937992E+00
  1.06938745213764652E+00  1.07273181744973667E+00  1.07565993452344766E+00
  1.07817013920215765E+00  1.08026114925245409E+00  1.08193206738289094E+00
  1.08318238362515795E+00  1.08401197709812180E+00  1.08442111714573075E+00
  1.08441046383065998E+00  1.08398106779069558E+00  1.08313436945904895E+00
  1.08187219765121001E+00  1.08019676752248683E+00  1.07811067789784021E+00
  1.07561690796619169E+00  1.07271881340226383E+00  1.06942012188825708E+00
  1.06572492804060337E+00  1.06163768776371858E+00  1.05716321204500097E+00
  1.05230666020652563E+00  1.04707353263007374E+00  1.04146966296173704E+00
  1.03550120981229643E+00  1.02917464803870717E+00  1.02249675955683017E+00
  1.01547462371954733E+00  1.00811560728877181E+00  1.00042735402412908E+00
  9.92417773911630108E-01  9.84095032055704366E-01  9.75467537236226923E-01
  9.66543930187376055E-01  9.57333071659263957E-01  9.47844030212827371E-01
  9.38086069798234834E-01  9.28068637144421893E-01  9.17801348984280119E-01
  9.07293979139857210E-01  8.96556445489136600E-01  8.85598796809093480E-01
  8.74431199592058728E-01  8.63063924834927443E-01  8.51507334778509373E-01
  8.39771869643991753E-01  8.27868034388286600E-01  8.15806385498685782E-01
  8.03597517846521781E-01  7.91252051611495144E-01  7.78780619274242580E-01
  7.66193852787689700E-01  7.53502370865183346E-01  7.40716766399392990E-01
  7.27847594043110835E-01  7.14905357966168276E-01  7.01900499801830335E-01
  6.88843386795707335E-01  6.75744300154542565E-01  6.62613423615385333E-01
  6.49460832307004132E-01  6.36296481831166272E-01  6.23130197595251123E-01
  6.09971664411483872E-01  5.96830416371693762E-01  5.83715827006147325E-01
  5.70637099734007891E-01  5.57603258595101625E-01  5.44623139310287163E-01
  5.31705380682585216E-01  5.18858416299391112E-01  5.06090466565555674E-01
  4.93409531076940022E-01  4.80823381342891099E-01  4.68339553866418179E-01
  4.55965343588897454E-01  4.43707797697159734E-01  4.31573709846626630E-01
  4.19569614778462885E-01  4.07701783332322543E-01  3.95976217876643166E-01
  3.84398648167611656E-01  3.72974527647944643E-01  3.61709030196571302E-01
  3.50607047337151367E-01  3.39673185917307774E-01  3.28911766287356744E-01
  3.18326820961224388E-01  3.07922093774608496E-01  2.97701039550273439E-01
  2.87666824276143263E-01  2.77822325800263004E-01  2.68170135044863978E-01
  2.58712557740468918E-01  2.49451616680642280E-01  2.40389054487673476E-01
  2.31526336882242001E-01  2.22864656449883208E-01  2.14404936892559683E-01
  2.06147837751065072E-01  1.98093759581487283E-01  1.90242849567518718E-01
  1.82595007555437422E-01  1.75149892469688984E-01  1.67906929088122575E-01
  1.60865315159773592E-01  1.54024028832361687E-01  1.47381836359936957E-01
  1.40937300060342913E-01  1.34688786491532236E-01  1.28634474820407657E-01
  1.22772365359456542E-01  1.17100288200156444E-01  1.11615911948483165E-01
  1.06316752530158348E-01  1.01200182032446864E-01  9.62634375550474458E-02
  9.15036300440856404E-02  8.69177530849899738E-02  8.25026916446191111E-02
  7.82552307243891410E-02  7.41720638810326321E-02  7.02498016432272915E-02
  6.64849797942088233E-02  6.28740675053498649E-02  5.94134753094160903E-02
  5.60995629039701751E-02  5.29286467788930223E-02  4.98970076789974834E-02
  4.70008978489254645E-02  4.42365480766543778E-02  4.16001745553736951E-02
  3.90879855469194112E-02  3.66961878445718828E-02  3.44209930335943048E-02
  3.22586235479799047E-02  3.02053185280329629E-02  2.82573394841561382E-02
  2.64109757115819563E-02  2.46625495060682869E-02  2.30084211717913462E-02
  2.14449938110135678E-02  1.99687178916465452E-02  1.85760955884608989E-02
  1.72636848935627286E-02  1.60281035033661007E-02  1.48660324592920865E-02
  1.37742195168837692E-02  1.27494822825986454E-02  1.17887110984301480E-02
  1.08888716687221779E-02  1.00470074260733937E-02  9.26024163399291264E-03
  8.52577922620480037E-03  7.84090839400914709E-03  7.20300188698019383E-03
  6.60951804653690453E-03  6.05800159048767127E-03  5.54608414154743410E-03
  5.07148450473734330E-03  4.63200869991563149E-03  4.22554975678501605E-03
  3.85008728433175636E-03  3.50368682680723227E-03  3.18449898774423841E-03
  2.89075836423949078E-03  2.62078229854214272E-03  2.37296945540728908E-03
  2.14579823810409978E-03  1.93782505636334716E-03  1.74768245992945300E-03
  1.57407715655680388E-03  1.41578791925512856E-03  1.27166339021056755E-03
  1.14061981335636018E-03  1.02163870171085506E-03  9.13764451861739718E-04
  8.16101918365137583E-04  7.27813960380904366E-04  6.48118972834085360E-04
  5.76288416769268506E-04  5.11644347975318925E-04  4.53556961326136295E-04
  4.01442163899391356E-04  3.54759181919843348E-04  3.13008209333537086E-04
  2.75728105136238406E-04  2.42494145842643056E-04  2.12915839615959512E-04
  1.86634807093170483E-04  1.63322727147398208E-04  1.42679358611916876E-04
  1.24430639167809039E-04  1.08326862768625835E-04  9.41409372122739238E-05
  8.16667228950674289E-05  7.07174532646041615E-05  6.11242377665833380E-05
  5.27346450811877875E-05  4.54113653754474703E-05  3.90309529702527629E-05
  3.34826465173393073E-05  2.86672646599773563E-05  2.44961749930030464E-05
  2.08903339124539325E-05  1.77793948168929144E-05  1.51008822182869826E-05
  1.27994276253835767E-05  1.08260652917383594E-05  9.13758502486942370E-06
  7.69593862952557010E-06  6.46769692627639617E-06  5.42355430696410147E-06
  4.53787782581286504E-06  3.78829794672409604E-06  3.15533802936787899E-06
  2.62207941621366674E-06  2.17385996923749195E-06  1.79800330108179711E-06
  1.48357617502506767E-06  1.22117172148074548E-06  1.00271624245395566E-06
  8.21297502975502560E-07  6.71012568613071511E-07  5.46833250224369092E-07
  4.44487454547030720E-07  3.60354940578667440E-07  2.91375942005616043E-07
  2.34971291249468240E-07  1.88972796493187668E-07  1.51562730157116530E-07
  1.21221390979903124E-07  9.66818019913175565E-08  7.68906587124122145E-08
  6.09747936722521243E-08  4.82124659929383772E-08  3.80088495409733889E-08
  2.98751699512764835E-08  2.34110024889978290E-08  1.82892989897726580E-08
  1.42437643572018796E-08  1.10582467822852900E-08  8.55784565386102684E-09
  6.60148995936572902E-09  5.07576222993538403E-09  3.88977568253805603E-09
  2.97093931179198971E-09  2.26146897732157476E-09  1.71552301568922423E-09
  1.29685904456097574E-09  9.76923166971727791E-10  7.33297662557034951E-10
  5.48444955402960692E-10  4.08694670867235988E-10  3.03429736292595505E-10
  2.24434855363266872E-10
                              </PP_AEWFC.1>
 <PP_AEWFC.2 type="real" size="   961" l="0" columns="3" label= "0S">
  1.02448948667180502E-03  1.03732896747182456E-03  1.05032920629326743E-03
  1.06349221222322757E-03  1.07682001925852493E-03  1.09031468662951431E-03
  1.10397829933254771E-03  1.11781296833773631E-03  1.13182083071251805E-03
  1.14600405021326817E-03  1.16036481761356376E-03  1.17490535076883256E-03
  1.18962789516271019E-03  1.20453472433360020E-03  1.21962813995099713E-03
  1.23491047230301601E-03  1.25038408078788094E-03  1.26605135400862756E-03
  1.28191471024637050E-03  1.29797659797513333E-03  1.31423949596450452E-03
  1.33070591379261510E-03  1.34737839233964448E-03  1.36425950389935198E-03
  1.38135185277379305E-03  1.39865807568711684E-03  1.41618084195431720E-03
  1.43392285415115195E-03  1.45188684839236580E-03  1.47007559466482318E-03
  1.48849189747496608E-03  1.50713859601575790E-03  1.52601856474318892E-03
  1.54513471383678296E-03  1.56448998944937212E-03  1.58408737440718199E-03
  1.60392988843335404E-03  1.62402058871629782E-03  1.64436257039511386E-03
  1.66495896687010895E-03  1.68581295050216663E-03  1.70692773284330471E-03
  1.72830656532096559E-03  1.74995273960128032E-03  1.77186958811065558E-03
  1.79406048459421078E-03  1.81652884448602731E-03  1.83927812560495782E-03
  1.86231182845655614E-03  1.88563349697665303E-03  1.90924671884875425E-03
  1.93315512622889755E-03  1.95736239612285742E-03  1.98187225107057099E-03
  2.00668845958761012E-03  2.03181483681766795E-03  2.05725524502305438E-03
  2.08301359422483415E-03  2.10909384272186563E-03  2.13549999773964211E-03
  2.16223611595832985E-03  2.18930630418882628E-03  2.21671471989418577E-03
  2.24446557190592600E-03  2.27256312093091330E-03  2.30101168031007124E-03
  2.32981561651796672E-03  2.35897934994571583E-03  2.38850735542496919E-03
  2.41840416299343546E-03  2.44867435849075495E-03  2.47932258426202413E-03
  2.51035353985971368E-03  2.54177198267222740E-03  2.57358272871465506E-03
  2.60579065323690660E-03  2.63840069151734333E-03  2.67141783955192943E-03
  2.70484715476746471E-03  2.73869375682281747E-03  2.77296282828080757E-03
  2.80765961542209447E-03  2.84278942900300508E-03  2.87835764498940933E-03
  2.91436970540081544E-03  2.95083111906324896E-03  2.98774746240603080E-03
  3.02512438031322982E-03  3.06296758690233466E-03  3.10128286636171362E-03
  3.14007607381751102E-03  3.17935313614863078E-03  3.21912005284893119E-03
  3.25938289691970811E-03  3.30014781572617088E-03  3.34142103187538278E-03
  3.38320884413867342E-03  3.42551762835289651E-03  3.46835383831740722E-03
  3.51172400673953637E-03  3.55563474617817937E-03  3.60009274998200710E-03
  3.64510479324068378E-03  3.69067773376964645E-03  3.73681851309069736E-03
  3.78353415741668067E-03  3.83083177864811716E-03  3.87871857539719448E-03
  3.92720183401265317E-03  3.97628892961384046E-03  4.02598732713153017E-03
  4.07630458237046370E-03  4.12724834308326755E-03  4.17882635005171078E-03
  4.23104643817974902E-03  4.28391653759605060E-03  4.33744467477235364E-03
  4.39163897365614595E-03  4.44650765681232386E-03  4.50205904657712853E-03
  4.55830156622454540E-03  4.61524374114480242E-03  4.67289420003525434E-03
  4.73126167610651502E-03  4.79035500829998098E-03  4.85018314251791684E-03
  4.91075513286663799E-03  4.97208014291284500E-03  5.03416744695321921E-03
  5.09702643129738599E-03  5.16066659556428317E-03  5.22509755399201258E-03
  5.29032903676155547E-03  5.35637089133429375E-03  5.42323308380317573E-03
  5.49092570025786451E-03  5.55945894816386923E-03  5.62884315775590265E-03
  5.69908878344545060E-03  5.77020640524267270E-03  5.84220673019280289E-03
  5.91510059382701660E-03  5.98889896162797288E-03  6.06361293051008166E-03
  6.13925373031457954E-03  6.21583272531955802E-03  6.29336141576492328E-03
  6.37185143939253320E-03  6.45131457300147058E-03  6.53176273401862018E-03
  6.61320798208461357E-03  6.69566252065516548E-03  6.77913869861801899E-03
  6.86364901192539241E-03  6.94920610524199945E-03  7.03582277360914436E-03
  7.12351196412451971E-03  7.21228677763799397E-03  7.30216047046335862E-03
  7.39314645610611703E-03  7.48525830700748265E-03  7.57850975630451878E-03
  7.67291469960650844E-03  7.76848719678687599E-03  7.86524147379222272E-03
  7.96319192446847540E-03  8.06235311240295800E-03  8.16273977278298042E-03
  8.26436681427104511E-03  8.36724932089564014E-03  8.47140255395836296E-03
  8.57684195396061534E-03  8.68358314254578587E-03  8.79164192445790540E-03
  8.90103428951595152E-03  9.01177641460345312E-03  9.12388466567996825E-03
  9.23737559980760889E-03  9.35226596719343148E-03  9.46857271324487611E-03
  9.58631298064715164E-03  9.70550411145888400E-03  9.82616364922163192E-03
  9.94830934108123337E-03  1.00719591399330930E-02  1.01971312065855697E-02
  1.03238439119341767E-02  1.04521158391493521E-02  1.05819657858924436E-02
  1.07134127665426925E-02  1.08464760144321697E-02  1.09811749841086746E-02
  1.11175293536152006E-02  1.12555590267729034E-02  1.13952841354907197E-02
  1.15367250420949329E-02  1.16799023416585390E-02  1.18248368643597591E-02
  1.19715496778580576E-02  1.21200620896682321E-02  1.22703956495702690E-02
  1.24225721520254354E-02  1.25766136385978798E-02  1.27325424004135317E-02
  1.28903809806098918E-02  1.30501521768135974E-02  1.32118790436347288E-02
  1.33755848951568126E-02  1.35412933074680678E-02  1.37090281211775661E-02
  1.38788134439661870E-02  1.40506736531400937E-02  1.42246333981938984E-02
  1.44007176034009182E-02  1.45789514703908232E-02  1.47593604807695466E-02
  1.49419703987164806E-02  1.51268072736265181E-02  1.53138974427301094E-02
  1.55032675337528174E-02  1.56949444675577518E-02  1.58889554608210547E-02
  1.60853280286939009E-02  1.62840899874935573E-02  1.64852694573811992E-02
  1.66888948650683530E-02  1.68949949465066543E-02  1.71035987496088657E-02
  1.73147356369472878E-02  1.75284352884873852E-02  1.77447277042929522E-02
  1.79636432072677564E-02  1.81852124458681680E-02  1.84094663968454239E-02
  1.86364363679685022E-02  1.88661540007581952E-02  1.90986512732216930E-02
  1.93339605025731713E-02  1.95721143479750531E-02  1.98131458132483271E-02
  2.00570882496053787E-02  2.03039753583607527E-02  2.05538411936388929E-02
  2.08067201650873508E-02  2.10626470405595456E-02  2.13216569488119123E-02
  2.15837853821775685E-02  2.18490681992257740E-02  2.21175416274257929E-02
  2.23892422657764045E-02  2.26642070874325703E-02  2.29424734423193666E-02
  2.32240790597118343E-02  2.35090620508127644E-02  2.37974609113054958E-02
  2.40893145238733966E-02  2.43846621607122817E-02  2.46835434860111329E-02
  2.49859985583970566E-02  2.52920678333662559E-02  2.56017921656798916E-02
  2.59152128117188831E-02  2.62323714318164793E-02  2.65533100925540305E-02
  2.68780712690100503E-02  2.72066978469752974E-02  2.75392331251310025E-02
  2.78757208171756601E-02  2.82162050539033725E-02  2.85607303852436663E-02
  2.89093417822459779E-02  2.92620846390061265E-02  2.96190047745408074E-02
  2.99801484346083093E-02  3.03455622934640512E-02  3.07152934555487526E-02
  3.10893894571163780E-02  3.14678982677937327E-02  3.18508682920652444E-02
  3.22383483706799451E-02  3.26303877819844948E-02  3.30270362431767661E-02
  3.34283439114721886E-02  3.38343613851807001E-02  3.42451397046933323E-02
  3.46607303533778346E-02  3.50811852583738717E-02  3.55065567912852820E-02
  3.59368977687647972E-02  3.63722614529925631E-02  3.68127015520412423E-02
  3.72582722201220476E-02  3.77090280577083228E-02  3.81650241115315883E-02
  3.86263158744494239E-02  3.90929592851783705E-02  3.95650107278859992E-02
  4.00425270316380200E-02  4.05255654696951642E-02  4.10141837586557242E-02
  4.15084400574401227E-02  4.20083929661100378E-02  4.25141015245162207E-02
  4.30256252107708084E-02  4.35430239395375243E-02  4.40663580601341753E-02
  4.45956883544439270E-02  4.51310760346259471E-02  4.56725827406205820E-02
  4.62202705374423414E-02  4.67742019122541902E-02  4.73344397712165618E-02
  4.79010474361040578E-02  4.84740886406841362E-02  4.90536275268494970E-02
  4.96397286404959559E-02  5.02324569271397417E-02  5.08318777272658215E-02
  5.14380567713997455E-02  5.20510601748942828E-02  5.26709544324237208E-02
  5.32978064121771358E-02  5.39316833497416048E-02  5.45726528416667148E-02
  5.52207828387015487E-02  5.58761416386944487E-02  5.65387978791474025E-02
  5.72088205294141033E-02  5.78862788825326158E-02  5.85712425466827571E-02
  5.92637814362572610E-02  5.99639657625379296E-02  6.06718660239642729E-02
  6.13875529959846053E-02  6.21110977204786530E-02  6.28425714947399572E-02
  6.35820458600067917E-02  6.43295925895298604E-02  6.50852836761643683E-02
  6.58491913194748923E-02  6.66213879123396524E-02  6.74019460270422061E-02
  6.81909384008372865E-02  6.89884379209770859E-02  6.97945176091854941E-02
  7.06092506055655128E-02  7.14327101519262597E-02  7.22649695745152948E-02
  7.31061022661414067E-02  7.39561816676734124E-02  7.48152812488994678E-02
  7.56834744887319305E-02  7.65608348547417578E-02  7.74474357820064685E-02
  7.83433506512559857E-02  7.92486527662990131E-02  8.01634153307138331E-02
  8.10877114237865682E-02  8.20216139756784063E-02  8.29651957418057751E-02
  8.39185292764139529E-02  8.48816869053271444E-02  8.58547406978556193E-02
  8.68377624378416646E-02  8.78308235938248666E-02  8.88339952883072242E-02
  8.98473482660991363E-02  9.08709528617253626E-02  9.19048789658707815E-02
  9.29491959908466947E-02  9.40039728350543224E-02  9.50692778464268112E-02
  9.61451787848269512E-02  9.72317427833788717E-02  9.83290363087123420E-02
  9.94371251200971557E-02  1.00556074227444239E-01  1.01685947848152089E-01
  1.02826809362774066E-01  1.03978721269484140E-01  1.05141745137316514E-01
  1.06315941558156171E-01  1.07501370097455778E-01  1.08698089243654164E-01
  1.09906156356272586E-01  1.11125627612662925E-01  1.12356557953383729E-01
  1.13599001026178217E-01  1.14853009128528666E-01  1.16118633148762210E-01
  1.17395922505680997E-01  1.18684925086691817E-01  1.19985687184408565E-01
  1.21298253431700628E-01  1.22622666735162186E-01  1.23958968206973816E-01
  1.25307197095131273E-01  1.26667390712014660E-01  1.28039584361269193E-01
  1.29423811262973837E-01  1.30820102477067546E-01  1.32228486825008595E-01
  1.33648990809639129E-01  1.35081638533227300E-01  1.36526451613661837E-01
  1.37983449098770361E-01  1.39452647378736333E-01  1.40934060096586988E-01
  1.42427698056726393E-01  1.43933569131487193E-01  1.45451678165675335E-01
  1.46982026879081434E-01  1.48524613766934099E-01  1.50079433998269118E-01
  1.51646479312190580E-01  1.53225737911999088E-01  1.54817194357163429E-01
  1.56420829453111088E-01  1.58036620138816308E-01  1.59664539372161990E-01
  1.61304556013054157E-01  1.62956634704267356E-01  1.64620735750000663E-01
  1.66296814992125813E-01  1.67984823684106305E-01  1.69684708362571351E-01
  1.71396410716526532E-01  1.73119867454184978E-01  1.74855010167405095E-01
  1.76601765193719229E-01  1.78360053475941749E-01  1.80129790419344182E-01
  1.81910885746387946E-01  1.83703243349004786E-01  1.85506761138418519E-01
  1.87321330892501470E-01  1.89146838100661768E-01  1.90983161806258517E-01
  1.92830174446545793E-01  1.94687741690142468E-01  1.96555722272035743E-01
  1.98433967826120466E-01  2.00322322715283607E-01  2.02220623859042298E-01
  2.04128700558747517E-01  2.06046374320367459E-01  2.07973458674867523E-01
  2.09909758996207840E-01  2.11855072316978948E-01  2.13809187141702467E-01
  2.15771883257823677E-01  2.17742931544429474E-01  2.19722093778724648E-01
  2.21709122440304690E-01  2.23703760513268957E-01  2.25705741286215400E-01
  2.27714788150167158E-01  2.29730614394491300E-01  2.31752923000859645E-01
  2.33781406435313088E-01  2.35815746438496787E-01  2.37855613814136974E-01
  2.39900668215832669E-01  2.41950557932243904E-01  2.44004919670759268E-01
  2.46063378339734851E-01  2.48125546829397636E-01  2.50191025791514976E-01
  2.52259403417936845E-01  2.54330255218115919E-01  2.56403143795732813E-01
  2.58477618624557925E-01  2.60553215823663809E-01  2.62629457932132160E-01
  2.64705853683397940E-01  2.66781897779382993E-01  2.68857070664574704E-01
  2.70930838300216803E-01  2.73002651938783591E-01  2.75071947898916813E-01
  2.77138147341014440E-01  2.79200656043662621E-01  2.81258864181102131E-01
  2.83312146101987627E-01  2.85359860109624996E-01  2.87401348243916888E-01
  2.89435936065258914E-01  2.91462932440635536E-01  2.93481629332172145E-01
  2.95491301588408972E-01  2.97491206738573155E-01  2.99480584790135895E-01
  3.01458658029948312E-01  3.03424630829252417E-01  3.05377689452873191E-01
  3.07317001872997819E-01  3.09241717587802667E-01  3.11150967445288584E-01
  3.13043863472690698E-01  3.14919498711833612E-01  3.16776947060814662E-01
  3.18615263122406900E-01  3.20433482059589103E-01  3.22230619458617029E-01
  3.24005671200056911E-01  3.25757613338174934E-01  3.27485401989279945E-01
  3.29187973229394581E-01  3.30864243001703418E-01  3.32513107034295041E-01
  3.34133440768698164E-01  3.35724099299727186E-01  3.37283917327161176E-01
  3.38811709119795690E-01  3.40306268492418185E-01  3.41766368796241449E-01
  3.43190762923317683E-01  3.44578183325781107E-01  3.45927342050298403E-01
  3.47236930788348996E-01  3.48505620942989203E-01  3.49732063712738961E-01
  3.50914890193236073E-01  3.52052711497319260E-01  3.53144118894209824E-01
  3.54187683968467448E-01  3.55181958799285380E-01  3.56125476161048393E-01
  3.57016749745963535E-01  3.57854274409174278E-01  3.58636526437213943E-01
  3.59361963840545140E-01  3.60029026670938945E-01  3.60636137364450216E-01
  3.61181701110756981E-01  3.61664106249637407E-01  3.62081724695215101E-01
  3.62432912388850614E-01  3.62716009781965276E-01  3.62929342348957129E-01
  3.63071221131167798E-01  3.63139943312741187E-01  3.63133792829177626E-01
  3.63051041009388842E-01  3.62889947252058809E-01  3.62648759737110749E-01
  3.62325716172868184E-01  3.61919044579802340E-01  3.61426964112481153E-01
  3.60847685919496730E-01  3.60179414042393509E-01  3.59420346354432874E-01
  3.58568675539952808E-01  3.57622590115071193E-01  3.56580275490464005E-01
  3.55439915076931234E-01  3.54199691434009756E-01  3.52857787462901751E-01
  3.51412387645085755E-01  3.49861679325898511E-01  3.48203854044143113E-01
  3.46437108908360991E-01  3.44559648020311027E-01  3.42569683946180814E-01
  3.40465439236010248E-01  3.38245147991685091E-01  3.35907057483124938E-01
  3.33449429815038612E-01  3.30870543643783044E-01  3.28168695943652444E-01
  3.25342203823369369E-01  3.22389406392948552E-01  3.19308666681030473E-01
  3.16098373602727800E-01  3.12756943977955060E-01  3.09282824599581119E-01
  3.05674494351182657E-01  3.01930466377141271E-01  2.98049290301526326E-01
  2.94029554495993106E-01  2.89869888396502351E-01  2.85568964868297415E-01
  2.81125502618495948E-01  2.76538268655558195E-01  2.71806080794632865E-01
  2.66927810206297411E-01  2.61902384011733214E-01  2.56728787921589874E-01
  2.51406068915460634E-01  2.45933337961774662E-01  2.40309772776693270E-01
  2.34534620620478002E-01  2.28607201129690296E-01  2.22526909183444421E-01
  2.16293217800188869E-01  2.09905681065134742E-01  2.03363937089429736E-01
  1.96667710993277539E-01  1.89816817912503405E-01  1.82811166026380673E-01
  1.75650759604182943E-01  1.68335702067803850E-01  1.60866199067664667E-01
  1.53242561567751040E-01  1.45465208936034235E-01  1.37534672045143802E-01
  1.29451596371745858E-01  1.21216745092406430E-01  1.12831002173081660E-01
  1.04295375448372071E-01  9.56109996864478173E-02  8.67791396353211619E-02
  7.78011930449964556E-02  6.86786936577488960E-02  5.94133141725234973E-02
  5.00068691694279671E-02  4.04613179874787968E-02  3.07787675510170812E-02
  2.09614751378820012E-02  1.10118510818719966E-02  9.32461401480452279E-04
 -9.27396965442234961E-03 -1.96045571575554113E-02 -3.00562531446153976E-02
 -4.06258443728541516E-02 -5.13099502016481010E-02 -6.21050206084172232E-02
 -7.30073343504930028E-02 -8.40129972845750084E-02 -9.51179408550732186E-02
 -1.06317920762480936E-01 -1.17608515826541304E-01 -1.28985127036612662E-01
 -1.40442976799982494E-01 -1.51977108395866367E-01 -1.63582385627385946E-01
 -1.75253492662679089E-01 -1.86984934050244911E-01 -1.98771034886985581E-01
 -2.10605941111107836E-01 -2.22483619891169715E-01 -2.34397860052874357E-01
 -2.46342272504272403E-01 -2.58310290619999383E-01 -2.70295170531597850E-01
 -2.82289991280129438E-01 -2.94287654795411857E-01 -3.06280885678468895E-01
 -3.18262230780882560E-01 -3.30224058600767756E-01 -3.42158558512292710E-01
 -3.54057739897777501E-01 -3.65913431276048473E-01 -3.77717279529705130E-01
 -3.89460749359182290E-01 -4.01135123105849756E-01 -4.12731501093318576E-01
 -4.24240802635015180E-01 -4.35653767849661033E-01 -4.46960960377090599E-01
 -4.58152771085711230E-01 -4.69219422818697440E-01 -4.80150976170733823E-01
 -4.90937336248485900E-01 -5.01568260328843052E-01 -5.12033366298352055E-01
 -5.22322141739708257E-01 -5.32423953530170135E-01 -5.42328057791799822E-01
 -5.52023610090895955E-01 -5.61499675795069875E-01 -5.70745240514874519E-01
 -5.79749220589201530E-01 -5.88500473598558616E-01 -5.96987808910786510E-01
 -6.05199998281139240E-01 -6.13125786540319240E-01 -6.20753902380057676E-01
 -6.28073069292812258E-01 -6.35072016696462072E-01 -6.41739491267300233E-01
 -6.48064268502428487E-01 -6.54035164526204915E-01 -6.59641048149020914E-01
 -6.64870853183472277E-01 -6.69713591014873488E-01 -6.74158363401908156E-01
 -6.78194375516586234E-01 -6.81810949205269190E-01 -6.84997536452859102E-01
 -6.87743733032948668E-01 -6.90039292326109388E-01 -6.91874139288424450E-01
 -6.93238384554811682E-01 -6.94122338656751214E-01 -6.94516526333913697E-01
 -6.94411700936290233E-01 -6.93798858899708604E-01 -6.92669254282622826E-01
 -6.91014413354305357E-01 -6.88826149226220874E-01 -6.86096576519994561E-01
 -6.82818126065880548E-01 -6.78983559627907796E-01 -6.74585984657865012E-01
 -6.69618869076375911E-01 -6.64076056081931765E-01 -6.57951778990778280E-01
 -6.51240676111976668E-01 -6.43937805663364116E-01 -6.36038660734944306E-01
 -6.27539184301294295E-01 -6.18435784306717307E-01 -6.08725348832578894E-01
 -5.98405261349608475E-01 -5.87473416072205157E-01 -5.75928233428945058E-01
 -5.63768675664313212E-01 -5.50994262587475414E-01 -5.37605087481831112E-01
 -5.23601833181855270E-01 -5.08985788371407066E-01 -4.93758864096844496E-01
 -4.77923610508073804E-01 -4.61483233851299912E-01 -4.44441613731006435E-01
 -4.26803320658160235E-01 -4.08573633900912447E-01 -3.89758559644331537E-01
 -3.70364849470520174E-01 -3.50400019221213888E-01 -3.29872368201293897E-01
 -3.08790998740384792E-01 -2.87165836122928730E-01 -2.65007648889456215E-01
 -2.42328069508430693E-01 -2.19139615413991184E-01 -1.95455710382145098E-01
 -1.71290706258122177E-01 -1.46659905048506900E-01 -1.21579581293174435E-01
 -9.60670047077533257E-02 -7.01404630627281284E-02 -4.38192852557863291E-02
 -1.71238645265230707E-02  9.92431824799511371E-03  3.73026712730522222E-02
  6.49874685797671298E-02  9.29538268976500270E-02  1.21175682797014489E-01
  1.49625770186439633E-01  1.78275598284642373E-01  2.07095430198952074E-01
  2.36054262255453340E-01  2.65119804247871294E-01  2.94258460804046107E-01
  3.23435313949806069E-01  3.52614107155499679E-01  3.81757231088687754E-01
  4.10825711289292961E-01  4.39779198017848594E-01  4.68575958543602566E-01
  4.97172872157490120E-01  5.25525428237081704E-01  5.53587727676415065E-01
  5.81312487914550258E-01  6.08651052047396113E-01  6.35553402369923526E-01
  6.61968178735051982E-01  6.87842702143563467E-01  7.13123003998347382E-01
  7.37753861476952877E-01  7.61678839544215336E-01  7.84840340003735260E-01
  8.07179658062168182E-01  8.28637047053421560E-01  8.49151791815820345E-01
  8.68662291276588117E-01  8.87106150816636685E-01  9.04420285002776048E-01
  9.20541031298784396E-01  9.35404275437580424E-01  9.48945588865115375E-01
  9.61100378999463101E-01  9.71804052998095247E-01  9.80992195619998730E-01
  9.88600761814108941E-01  9.94566284659375355E-01  9.98826099270081480E-01
  1.00131858330467893E+00  1.00198341467699770E+00  1.00076184672614699E+00
  9.97597001623825252E-01  9.92434182421622180E-01  9.85221204088168712E-01
  9.75908743837372361E-01  9.64450710955872537E-01  9.50804636230181077E-01
  9.34932081043818197E-01  9.16799065815603553E-01  8.96376517285790264E-01
  8.73640734419351639E-01  8.48573872056092471E-01  8.21164441289386482E-01
  7.91407825293579004E-01  7.59306809017711415E-01  7.24872120846140944E-01
  6.88122984066642074E-01  6.49087675120839869E-01  6.07804085722587262E-01
  5.64320285441146430E-01  5.18695080622220916E-01  4.70998565110621215E-01
  4.21312657708727945E-01  3.69731620752551338E-01  3.16362553643985744E-01
  2.61325854558232151E-01  2.04755642761515505E-01  1.46800133885653661E-01
  8.76219595837673809E-02  2.73984224555190378E-02 -3.36783233712996885E-02
 -9.54011761135875325E-02 -1.57548085222547735E-01 -2.19882156354997971E-01
 -2.82151873690637323E-01 -3.44091450761451090E-01 -4.05421321673648860E-01
 -4.65848784323564247E-01 -5.25068807104384749E-01 -5.82765010336390055E-01
 -6.38610833212699625E-01 -6.92270896481742115E-01 -7.43402570810523411E-01
 -7.91657757869324019E-01 -8.36684891325470192E-01 -8.78131163960067851E-01
 -9.15644984226974490E-01 -9.48878663791282828E-01 -9.77491335177279930E-01
 -1.00115209591659871E+00 -1.01954337290467967E+00 -1.03236449750864900E+00
 -1.03933547407526783E+00 -1.04020092662450869E+00 -1.03473420102462499E+00
 -1.02274159477747117E+00 -1.00406668169546287E+00 -9.78594693184540065E-01
 -9.46256911998839101E-01 -9.07035029321585307E-01 -8.60965406945618406E-01
 -8.08143179333404738E-01 -7.48726130109090282E-01 -6.82938265685712254E-01
 -6.11073003661492642E-01 -5.33495887906491162E-01 -4.50646736892432898E-01
 -3.63041127244769168E-01 -2.71271111145387156E-01 -1.76005060512283651E-01
 -7.79865346063416953E-02  2.19679329605225182E-02  1.22972230926347209E-01
  2.24075348035714328E-01  3.24267421213362328E-01  4.22487233140656004E-01
  5.17631224840434223E-01  6.08564072517197019E-01  6.94130848317981219E-01
  7.73170767964234562E-01  8.44532495793479110E-01  9.07090942217251395E-01
  9.59765450181522151E-01  1.00153922403815487E+00  1.03147980709561971E+00
  1.04876036794900407E+00  1.05268149140309952E+00  1.04269310975665563E+00
  1.01841617777072058E+00  9.79663618593184182E-01  9.26460016621541538E-01
  8.59059482607803515E-01  7.77961070983197667E-01  6.83921093095360089E-01
  5.77961647814779211E-01  4.61374656845840003E-01  3.35720726701530803E-01
  2.02822179770117378E-01  6.47496348093549029E-02 -7.61984022015599477E-02
 -2.17523370798923810E-01 -3.56562209510450812E-01 -4.90530759525371840E-01
 -6.16574948568030301E-01 -7.31829418216755401E-01 -8.33483012454227179E-01
 -9.18850241575645987E-01 -9.85447506070478263E-01 -1.03107252359925927E+00
 -1.05388505190778581E+00 -1.05248665462630231E+00 -1.02599694593722290E+00
 -9.74123410655914568E-01 -8.97221658558021717E-01 -7.96342889594524816E-01
 -6.73265208881352217E-01 -5.30505498249039698E-01 -3.71308747972142972E-01
 -1.99612110217398386E-01 -1.99814741886080553E-02  1.62480915371594231E-01
  3.42258349200322831E-01  5.13570421792244547E-01  6.70550781052028033E-01
  8.07448497137983168E-01  9.18848097754604076E-01  9.99901674079446412E-01
  1.04656483150817925E+00  1.05582675447826269E+00  1.02592331759494826E+00
  9.56521006462374812E-01  8.48859157890904381E-01  7.05837895523253600E-01
  5.32039847522781773E-01  3.33675254078432126E-01  1.18442457083689390E-01
 -1.04700934718063382E-01 -3.25856728309352028E-01 -5.34590179998371551E-01
 -7.20409005413158221E-01 -8.73300933955613923E-01 -9.84307108169323541E-01
 -1.04610259334110656E+00 -1.05355001716473118E+00 -1.00418842080122928E+00
 -8.98617359078575539E-01 -7.40736707434156427E-01 -5.37805519408100619E-01
 -3.00290549802133433E-01 -4.14850506733573376E-02  2.23108084973802495E-01
  4.76617978178671353E-01  7.01842291129547768E-01  8.82428385536442428E-01
  1.00412891512759583E+00  1.05604366597944965E+00  1.03174508950455279E+00
  9.30178670624154824E-01  7.56230160486825342E-01  5.20863207529057681E-01
  2.40753897811116446E-01 -6.26167259591409037E-02 -3.64405936038922795E-01
 -6.38328966273107312E-01 -8.58937816659089193E-01 -1.00408477964248011E+00
 -1.05734827905099249E+00 -1.01016479726839625E+00 -8.63399190181854848E-01
 -6.28102929602500470E-01
                              </PP_AEWFC.2>
 <PP_AEWFC.3 type="real" size="   961" l="1" columns="3" label= "2P">
  3.92900353166712642E-07  4.01720565769616741E-07  4.10741077545001618E-07
  4.19966506110255578E-07  4.29401580257800547E-07  4.39051142184185426E-07
  4.48920144752011963E-07  4.59013656936345166E-07  4.69336871533089845E-07
  4.79895101335858906E-07  4.90693782085903768E-07  5.01738482272034204E-07
  5.13034900865725981E-07  5.24588868291565030E-07  5.36406356576270541E-07
  5.48493479070626643E-07  5.60856490269233479E-07  5.73501796157386183E-07
  5.86435954840405116E-07  5.99665676297866607E-07  6.13197833226949335E-07
  6.27039461199202124E-07  6.41197759567215317E-07  6.55680102811484938E-07
  6.70494039110170350E-07  6.85647294039368059E-07  7.01147781140623827E-07
  7.17003599074839709E-07  7.33223039750430808E-07  7.49814595163932647E-07
  7.66786955839084832E-07  7.84149022842457900E-07  8.01909908639405527E-07
  8.20078941491275449E-07  8.38665676013905121E-07  8.57679891336146682E-07
  8.77131603037679849E-07  8.97031065550336978E-07  9.17388777258227254E-07
  9.38215490875048183E-07  9.59522212969639255E-07  9.81320217335173262E-07
  1.00362104551457592E-06  1.02643651702109074E-06  1.04977873522896501E-06
  1.07366009256655668E-06  1.09809328155286031E-06  1.12309129660594606E-06
  1.14866744786316710E-06  1.17483536224385900E-06  1.20160899760772516E-06
  1.22900264508081580E-06  1.25703094223946236E-06  1.28570887740077570E-06
  1.31505180170166884E-06  1.34507543515029645E-06  1.37579587807044466E-06
  1.40722961836613055E-06  1.43939354297429754E-06  1.47230494573783633E-06
  1.50598153949510570E-06  1.54044146402406162E-06  1.57570329928782414E-06
  1.61178607307564359E-06  1.64870927569169755E-06  1.68649286725553537E-06
  1.72515729364963149E-06  1.76472349408430107E-06  1.80521291734654622E-06
  1.84664753098135233E-06  1.88904983637476865E-06  1.93244288101553621E-06
  1.97685027135659515E-06  2.02229618862704731E-06  2.06880540004955449E-06
  2.11640327651677205E-06  2.16511580495294931E-06  2.21496960465103316E-06
  2.26599194350321940E-06  2.31821075204116890E-06  2.37165464233317373E-06
  2.42635292298231711E-06  2.48233561662882748E-06  2.53963347895761765E-06
  2.59827801484944344E-06  2.65830149823869913E-06  2.71973699130921702E-06
  2.78261836267307965E-06  2.84698030871469395E-06  2.91285837382301890E-06
  2.98028897047476375E-06  3.04930940185465908E-06  3.11995788378465108E-06
  3.19227356652558982E-06  3.26629655864720895E-06  3.34206795109845662E-06
  3.41962984073858232E-06  3.49902535550198650E-06  3.58029868066247265E-06
  3.66349508448153157E-06  3.74866094491298123E-06  3.83584377750195052E-06
  3.92509226389115183E-06  4.01645628028086449E-06  4.10998692710447574E-06
  4.20573655966720317E-06  4.30375881951245493E-06  4.40410866603267154E-06
  4.50684240921606602E-06  4.61201774328108507E-06  4.71969378129933985E-06
  4.82993109034313816E-06  4.94279172752109857E-06  5.05833927705940368E-06
  5.17663888830901048E-06  5.29775731477834733E-06  5.42176295401424921E-06
  5.54872588840735489E-06  5.67871792712380050E-06  5.81181264908538391E-06
  5.94808544702002566E-06  6.08761357262631952E-06  6.23047618287190787E-06
  6.37675438736624636E-06  6.52653129696434884E-06  6.67989207359503528E-06
  6.83692398133202695E-06  6.99771643873907569E-06  7.16236107252123491E-06
  7.33095177251498137E-06  7.50358474805086748E-06  7.68035858572673414E-06
  7.86137430861505625E-06  8.04673543694675644E-06  8.23654805031582837E-06
  8.43092085143656202E-06  8.62996523149142749E-06  8.83379533710971062E-06
  9.04252813901729381E-06  9.25628350239909511E-06  9.47518425901709154E-06
  9.69935628112731833E-06  9.92892855724065568E-06  1.01640332697733054E-05
  1.04048058746338540E-05  1.06513851827951835E-05  1.09039134439001670E-05
  1.11625364319520650E-05  1.14274035331411615E-05  1.16986678358606352E-05
  1.19764862229661866E-05  1.22610194663347992E-05  1.25524323237799851E-05
  1.28508936383834400E-05  1.31565764403051780E-05  1.34696580511223661E-05
  1.37903201907681612E-05  1.41187490871347196E-05  1.44551355884059708E-05
  1.47996752781867583E-05  1.51525685934980464E-05  1.55140209457092521E-05
  1.58842428444817393E-05  1.62634500248184593E-05  1.66518635772534764E-05
  1.70497100812614351E-05  1.74572217420017701E-05  1.78746365304645697E-05
  1.83021983271010987E-05  1.87401570690526564E-05  1.91887689010479138E-05
  1.96482963299714919E-05  2.01190083833106828E-05  2.06011807715457984E-05
  2.10950960546052696E-05  2.16010438124926814E-05  2.21193208200167516E-05
  2.26502312259099214E-05  2.31940867364200129E-05  2.37512068035522188E-05
  2.43219188178515315E-05  2.49065583059311988E-05  2.55054691329802867E-05
  2.61190037104150168E-05  2.67475232084947448E-05  2.73913977741824134E-05
  2.80510067545478280E-05  2.87267389257802328E-05  2.94189927275907600E-05
  3.01281765035590763E-05  3.08547087476374694E-05  3.15990183564731343E-05
  3.23615448879803754E-05  3.31427388266097031E-05  3.39430618549273319E-05
  3.47629871318301244E-05  3.56029995780091660E-05  3.64635961681616984E-05
  3.73452862303904457E-05  3.82485917533926964E-05  3.91740477007792613E-05
  4.01222023333601898E-05  4.10936175395983433E-05  4.20888691737246123E-05
  4.31085474027225780E-05  4.41532570615801409E-05  4.52236180172506402E-05
  4.63202655419848482E-05  4.74438506952767810E-05  4.85950407158313935E-05
  4.97745194227349142E-05  5.09829876267241914E-05  5.22211635516448634E-05
  5.34897832659815499E-05  5.47896011255091518E-05  5.61213902262162900E-05
  5.74859428690486680E-05  5.88840710354039595E-05  6.03166068749589942E-05
  6.17844032049013687E-05  6.32883340219519242E-05  6.48292950264922488E-05
  6.64082041599901748E-05  6.80260021552130627E-05  6.96836531003357110E-05
  7.13821450164795260E-05  7.31224904498422332E-05  7.49057270778707583E-05
  7.67329183308008988E-05  7.86051540278566690E-05  8.05235510296222959E-05
  8.24892539057703940E-05  8.45034356197020407E-05  8.65672982294285790E-05
  8.86820736059529865E-05  9.08490241690103367E-05  9.30694436407596262E-05
  9.53446578181020468E-05  9.76760253634445714E-05  1.00064938615236176E-04
  1.02512824417810790E-04  1.05021144971744864E-04  1.07591398704880506E-04
  1.10225121164344775E-04  1.12923885930659619E-04  1.15689305553684008E-04
  1.18523032511544607E-04  1.21426760192903254E-04  1.24402223902810727E-04
  1.27451201893313804E-04  1.30575516418862198E-04  1.33777034817256896E-04
  1.37057670617058927E-04  1.40419384671546839E-04  1.43864186320201187E-04
  1.47394134578472869E-04  1.51011339356058114E-04  1.54717962704722055E-04
  1.58516220096410591E-04  1.62408381731979503E-04  1.66396773881580289E-04
  1.70483780257509781E-04  1.74671843419952363E-04  1.78963466216595956E-04
  1.83361213257036835E-04  1.87867712422552520E-04  1.92485656412088717E-04
  1.97217804325495468E-04  2.02066983284808813E-04  2.07036090094263553E-04
  2.12128092940170709E-04  2.17346033131598040E-04  2.22693026882656031E-04
  2.28172267137348358E-04  2.33787025438117924E-04  2.39540653839079857E-04
  2.45436586864835509E-04  2.51478343515978541E-04  2.57669529322451948E-04
  2.64013838445849324E-04  2.70515055831663926E-04  2.77177059412688452E-04
  2.84003822364795088E-04  2.90999415416295611E-04  2.98168009212055620E-04
  3.05513876733554449E-04  3.13041395776295160E-04  3.20755051485817116E-04
  3.28659438953682239E-04  3.36759265874698457E-04  3.45059355266816011E-04
  3.53564648255158000E-04  3.62280206921603096E-04  3.71211217221434884E-04
  3.80362991968479934E-04  3.89740973890319049E-04  3.99350738755182872E-04
  4.09197998572102155E-04  4.19288604865978621E-04  4.29628552029231450E-04
  4.40223980751669008E-04  4.51081181530416119E-04  4.62206598261635055E-04
  4.73606831915862213E-04  4.85288644298812876E-04  4.97258961899539284E-04
  5.09524879827818805E-04  5.22093665842789491E-04  5.34972764474830973E-04
  5.48169801242716641E-04  5.61692586968117911E-04  5.75549122189607026E-04
  5.89747601678289714E-04  6.04296419057256170E-04  6.19204171527152009E-04
  6.34479664700119783E-04  6.50131917544470713E-04  6.66170167442448578E-04
  6.82603875363514906E-04  6.99442731155634073E-04  7.16696658957065953E-04
  7.34375822731200335E-04  7.52490631927083876E-04  7.71051747268286123E-04
  7.90070086672808392E-04  8.09556831306780696E-04  8.29523431774777152E-04
  8.49981614449576376E-04  8.70943387944284877E-04  8.92421049729801778E-04
  9.14427192900586772E-04  9.36974713091826179E-04  9.60076815551107578E-04
  9.83747022367762250E-04  1.00799917986311256E-03  1.03284746614487740E-03
  1.05830639882908734E-03  1.08439084293288491E-03  1.11111601894164132E-03
  1.13849751105391406E-03  1.16655127560776365E-03  1.19529364969206495E-03
  1.22474135994647833E-03  1.25491153155377912E-03  1.28582169742835393E-03
  1.31748980760468498E-03  1.34993423882972413E-03  1.38317380436312094E-03
  1.41722776398928770E-03  1.45211583424540770E-03  1.48785819886947004E-03
  1.52447551947256931E-03  1.56198894643965998E-03  1.60042013006309524E-03
  1.63979123191331107E-03  1.68012493645104352E-03  1.72144446288557767E-03
  1.76377357728355381E-03  1.80713660493288415E-03  1.85155844296646830E-03
  1.89706457325034428E-03  1.94368107554108039E-03  1.99143464091716378E-03
  2.04035258548926303E-03  2.09046286439427530E-03  2.14179408607807157E-03
  2.19437552687200884E-03  2.24823714586822564E-03  2.30340960009878942E-03
  2.35992426002394184E-03  2.41781322533450929E-03  2.47710934107379151E-03
  2.53784621408419857E-03  2.60005822978388564E-03  2.66378056927880696E-03
  2.72904922681553195E-03  2.79590102758022450E-03  2.86437364584928847E-03
  2.93450562349705305E-03  3.00633638886610693E-03  3.07990627600567999E-03
  3.15525654428371310E-03  3.23242939837809417E-03  3.31146800865262389E-03
  3.39241653192331625E-03  3.47532013262056476E-03  3.56022500435275576E-03
  3.64717839187692766E-03  3.73622861348194306E-03  3.82742508378982032E-03
  3.92081833698065211E-03  4.01646005044667409E-03  4.11440306888091658E-03
  4.21470142880585926E-03  4.31741038354752516E-03  4.42258642866026272E-03
  4.53028732780760141E-03  4.64057213910435556E-03  4.75350124192506183E-03
  4.86913636418398292E-03  4.98754061009148379E-03  5.10877848839182309E-03
  5.23291594108706536E-03  5.36002037265181659E-03  5.49016067974337271E-03
  5.62340728141167475E-03  5.75983214981339465E-03  5.89950884143423167E-03
  6.04251252882348835E-03  6.18892003284464941E-03  6.33880985544561619E-03
  6.49226221295201925E-03  6.64935906988681647E-03  6.81018417331912592E-03
  6.97482308774512085E-03  7.14336323050339742E-03  7.31589390772712130E-03
  7.49250635083481727E-03  7.67329375356151904E-03  7.85835130953161168E-03
  8.04777625037430937E-03  8.24166788438250933E-03  8.44012763571528810E-03
  8.64325908414385023E-03  8.85116800534042555E-03  9.06396241170936805E-03
  9.28175259375889350E-03  9.50465116201164827E-03  9.73277308945190954E-03
  9.96623575450635013E-03  1.02051589845551099E-02  1.04496650999693005E-02
  1.06998789586701983E-02  1.09559280012052132E-02  1.12179422963347361E-02
  1.14860545871234409E-02  1.17604003375288875E-02  1.20411177794796237E-02
  1.23283479604342303E-02  1.26222347914116770E-02  1.29229250954834216E-02
  1.32305686567155568E-02  1.35453182695488752E-02  1.38673297886047972E-02
  1.41967621789029184E-02  1.45337775664757009E-02  1.48785412893643141E-02
  1.52312219489788535E-02  1.55919914618052255E-02  1.59610251114393822E-02
  1.63385016009288120E-02  1.67246031054000301E-02  1.71195153249491978E-02
  1.75234275377719358E-02  1.79365326535072360E-02  1.83590272667689264E-02
  1.87911117108370621E-02  1.92329901114771940E-02  1.96848704408588253E-02
  2.01469645715399610E-02  2.06194883304833647E-02  2.11026615530687002E-02
  2.15967081370627145E-02  2.21018560965084467E-02  2.26183376154918160E-02
  2.31463891017430132E-02  2.36862512400274443E-02  2.42381690452792807E-02
  2.48023919154291041E-02  2.53791736838759607E-02  2.59687726715482833E-02
  2.65714517384960484E-02  2.71874783349616428E-02  2.78171245518677272E-02
  2.84606671706595718E-02  2.91183877124377433E-02  2.97905724863133728E-02
  3.04775126369169341E-02  3.11795041909883608E-02  3.18968481029730105E-02
  3.26298502995469100E-02  3.33788217229912462E-02  3.41440783733369391E-02
  3.49259413491808599E-02  3.57247368870927048E-02  3.65407963995232551E-02
  3.73744565111164273E-02  3.82260590933271929E-02  3.90959512972447396E-02
  3.99844855845158387E-02  4.08920197562613122E-02  4.18189169798750052E-02
  4.27655458135905928E-02  4.37322802287027634E-02  4.47194996293243108E-02
  4.57275888695304888E-02  4.67569382677861106E-02  4.78079436185205597E-02
  4.88810062007135337E-02  4.99765327833519568E-02  5.10949356276169941E-02
  5.22366324856534045E-02  5.34020465957728008E-02  5.45916066739364908E-02
  5.58057469013639729E-02  5.70449069081199467E-02  5.83095317524703408E-02
  5.96000718958657888E-02  6.09169831733894912E-02  6.22607267594853589E-02
  6.36317691287847376E-02  6.50305820118508154E-02  6.64576423456503945E-02
  6.79134322185643985E-02  6.93984388097412669E-02  7.09131543226039079E-02
  7.24580759123259754E-02  7.40337056069892419E-02  7.56405502222834980E-02
  7.72791212695342900E-02  7.89499348568324238E-02  8.06535115830484123E-02
  8.23903764245086795E-02  8.41610586141112865E-02  8.59660915126528313E-02
  8.78060124721389279E-02  8.96813626908881667E-02  9.15926870601224685E-02
  9.35405340017824993E-02  9.55254552974224569E-02  9.75480059079103790E-02
  9.96087437836887246E-02  1.01708229665353214E-01  1.03847026874306081E-01
  1.06025701093241789E-01  1.08244820136218764E-01  1.10504953708120107E-01
  1.12806673153233658E-01  1.15150551192549189E-01  1.17537161649733449E-01
  1.19967079165491625E-01  1.22440878900064443E-01  1.24959136223625741E-01
  1.27522426394346744E-01  1.30131324223898781E-01  1.32786403730167868E-01
  1.35488237777028731E-01  1.38237397700930770E-01  1.41034452923830378E-01
  1.43879970552581532E-01  1.46774514964508079E-01  1.49718647378953185E-01
  1.52712925414619893E-01  1.55757902632533973E-01  1.58854128064465139E-01
  1.62002145726658275E-01  1.65202494118868504E-01  1.68455705708393577E-01
  1.71762306398761999E-01  1.75122814983400210E-01  1.78537742584049253E-01
  1.82007592073843483E-01  1.85532857485000535E-01  1.89114023401078829E-01
  1.92751564333787706E-01  1.96445944084374963E-01  2.00197615089852787E-01
  2.04007017753479541E-01  2.07874579759799977E-01  2.11800715374620252E-01
  2.15785824729852638E-01  2.19830293093358747E-01  2.23934490123948837E-01
  2.28098769111720917E-01  2.32323466203949142E-01  2.36608899616936652E-01
  2.40955368834114753E-01  2.45363153789759952E-01  2.49832514039657505E-01
  2.54363687918873371E-01  2.58956891686927593E-01  2.63612318660786216E-01
  2.68330138336116020E-01  2.73110495497276951E-01  2.77953509316613334E-01
  2.82859272444067944E-01  2.87827850086434356E-01  2.92859279077360424E-01
  2.97953566939318182E-01  3.03110690937866523E-01  3.08330597128916251E-01
  3.13613199399748188E-01  3.18958378504574147E-01  3.24365981095482869E-01
  3.29835818750158993E-01  3.35367666996655323E-01  3.40961264335227887E-01
  3.46616311259983545E-01  3.52332469280884741E-01  3.58109359947202444E-01
  3.63946563873663198E-01  3.69843619770620191E-01  3.75800023479684497E-01
  3.81815227016734982E-01  3.87888637624194177E-01  3.94019616831953134E-01
  4.00207479531427324E-01  4.06451493064527603E-01  4.12750876329694261E-01
  4.19104798907621090E-01  4.25512380209582208E-01  4.31972688651571179E-01
  4.38484740858063105E-01  4.45047500900177806E-01  4.51659879569220046E-01
  4.58320733692895999E-01  4.65028865499689636E-01  4.71783022036566135E-01
  4.78581894646217088E-01  4.85424118510571601E-01  4.92308272267753644E-01
  4.99232877710310052E-01  5.06196399573958011E-01  5.13197245421085468E-01
  5.20233765629337319E-01  5.27304253494328745E-01  5.34406945452888582E-01
  5.41540021433088326E-01  5.48701605335755627E-01  5.55889765649927425E-01
  5.63102516201888337E-01  5.70337817035080352E-01  5.77593575407121640E-01
  5.84867646890793180E-01  5.92157836559333406E-01  5.99461900225477295E-01
  6.06777545696826182E-01  6.14102434001809860E-01  6.21434180532499436E-01
  6.28770356043656387E-01  6.36108487443709958E-01  6.43446058303886792E-01
  6.50780509019792341E-01  6.58109236565373457E-01  6.65429593785363149E-01
  6.72738888189363893E-01  6.80034380231586244E-01  6.87313281085854433E-01
  6.94572749955077451E-01  7.01809890987068141E-01  7.09021749896911579E-01
  7.16205310433040476E-01  7.23357490850697560E-01  7.30475140575890469E-01
  7.37555037257755286E-01  7.44593884410766349E-01  7.51588309839843927E-01
  7.58534865020076943E-01  7.65430025568839767E-01  7.72270192898629637E-01
  7.79051697084826911E-01  7.85770800920473134E-01  7.92423705067137107E-01
  7.99006554155441640E-01  8.05515443644714835E-01  8.11946427223524059E-01
  8.18295524524349172E-01  8.24558728937006435E-01  8.30732015323701112E-01
  8.36811347486038026E-01  8.42792685276625320E-01  8.48671991290763983E-01
  8.54445237116401857E-01  8.60108409155200926E-01  8.65657514053539301E-01
  8.71088583799728755E-01  8.76397680552496228E-01  8.81580901260797023E-01
  8.86634382142695188E-01  8.91554303077474186E-01  8.96336891955083148E-01
  9.00978429017600613E-01  9.05475251217110144E-01  9.09823756604802525E-01
  9.14020408757881375E-01  9.18061741242928719E-01  9.21944362107659954E-01
  9.25664958392407033E-01  9.29220300645750008E-01  9.32607247427009400E-01
  9.35822749777175056E-01  9.38863855639171185E-01  9.41727714208320354E-01
  9.44411580193488365E-01  9.46912817970881893E-01  9.49228905616653074E-01
  9.51357438800065625E-01  9.53296134523125449E-01  9.55042834693738185E-01
  9.56595509520649090E-01  9.57952260719721727E-01  9.59111324522238573E-01
  9.60071074474060038E-01  9.60830024023066831E-01  9.61386828892648482E-01
  9.61740289228675604E-01  9.61889351518293578E-01  9.61833110277460102E-01
  9.61570809504687651E-01  9.61101843899197283E-01  9.60425759841827542E-01
  9.59542256132149607E-01  9.58451184496335040E-01  9.57152549862931412E-01
  9.55646510399518756E-01  9.53933377316589337E-01  9.52013614441344136E-01
  9.49887837564566517E-01  9.47556813564287448E-01  9.45021459308523881E-01
  9.42282840334833449E-01  9.39342169338123756E-01  9.36200804453794166E-01
  9.32860247339681092E-01  9.29322141067931318E-01  9.25588267833978739E-01
  9.21660546490173482E-01  9.17541029912004258E-01  9.13231902199982293E-01
  9.08735475724794961E-01  9.04054188054079222E-01  8.99190598737787616E-01
  8.94147385967377084E-01  8.88927343121189373E-01  8.83533375205597715E-01
  8.77968495201580268E-01  8.72235820326237143E-01  8.66338568209157778E-01
  8.60280053007548173E-01  8.54063681485288551E-01  8.47692949032937015E-01
  8.41171435649173738E-01  8.34502801894029922E-01  8.27690784822683989E-01
  8.20739193908361586E-01  8.13651906961465610E-01  8.06432866040435403E-01
  7.99086073393283858E-01  7.91615587426728440E-01  7.84025518690351086E-01
  7.76320025892704768E-01  7.68503311955245350E-01  7.60579620109158694E-01
  7.52553230039577081E-01  7.44428454078039814E-01  7.36209633438028255E-01
  7.27901134534453931E-01  7.19507345358824768E-01  7.11032671907617542E-01
  7.02481534673095487E-01  6.93858365197133509E-01  6.85167602687141497E-01
  6.76413690693477232E-01  6.67601073840628390E-01  6.58734194613961654E-01
  6.49817490225601868E-01  6.40855389521432506E-01  6.31852309935025946E-01
  6.22812654487307049E-01  6.13740808827894724E-01  6.04641138313809834E-01
  5.95517985120726401E-01  5.86375665373989885E-01  5.77218466311963607E-01
  5.68050643479510842E-01  5.58876417926295277E-01  5.49699973415387899E-01
  5.40525453639260745E-01  5.31356959440179577E-01  5.22198546032711874E-01
  5.13054220225745539E-01  5.03927937637478895E-01  4.94823599925173885E-01
  4.85745052016363976E-01  4.76696079339579526E-01  4.67680405063929827E-01
  4.58701687352935872E-01  4.49763516639298477E-01  4.40869412928566795E-01
  4.32022823138949741E-01  4.23227118487681797E-01  4.14485591948500876E-01
  4.05801455776624465E-01  3.97177839117971776E-01  3.88617785718198605E-01
  3.80124251745773800E-01  3.71700103743498822E-01  3.63348116722729209E-01
  3.55070972412605934E-01  3.46871257681553025E-01  3.38751463143896814E-01
  3.30713981956821057E-01  3.22761108820412146E-01  3.14895039189268533E-01
  3.07117868702102614E-01  2.99431592833747151E-01  2.91838106772026651E-01
  2.84339205520785454E-01  2.76936584225745630E-01  2.69631838717218408E-01
  2.62426466264383651E-01  2.55321866532146946E-01  2.48319342729419579E-01
  2.41420102935647807E-01  2.34625261590464207E-01  2.27935841131005068E-01
  2.21352773760748744E-01  2.14876903319246831E-01  2.08508987240850319E-01
  2.02249698580832749E-01  1.96099628085965594E-01  1.90059286287545343E-01
  1.84129105595118775E-01  1.78309442369729648E-01  1.72600578960935336E-01
  1.67002725682801556E-01  1.61516022702093642E-01  1.56140541838534458E-01
  1.50876288258712854E-01  1.45723202051868284E-01  1.40681159679048401E-01
  1.35749975289965213E-01  1.30929401905599846E-01  1.26219132473991996E-01
  1.21618800783671210E-01  1.17127982248485266E-01  1.12746194582372117E-01
  1.08472898370282955E-01  1.04307497549377765E-01  1.00249339816812971E-01
  9.62977169821540996E-02  9.24518652866308382E-02  8.87109657131293916E-02
  8.50741442834496570E-02  8.15404723867006465E-02  7.81089671569701050E-02
  7.47785919167334029E-02  7.15482567043515538E-02  6.84168189025197854E-02
  6.53830839827874016E-02  6.24458063857030454E-02  5.96036905384682431E-02
  5.68553920064673798E-02  5.41995188078715495E-02  5.16346328870948418E-02
  4.91592517473718391E-02  4.67718502414024295E-02  4.44708625168470303E-02
  4.22546841123583594E-02  4.01216742056329650E-02  3.80701579812089894E-02
  3.60984291179617806E-02  3.42047523958362715E-02  3.23873664023008670E-02
  3.06444863251035607E-02  2.89743068174342470E-02  2.73750049211816740E-02
  2.58447430370877251E-02  2.43816719307136109E-02  2.29839337325194216E-02
  2.16496649447550198E-02  2.03769994380937174E-02  1.91640714211664710E-02
  1.80090183701443578E-02  1.69099839061695699E-02  1.58651206092611519E-02
  1.48725927648200532E-02  1.39305790222331669E-02  1.30372749460360288E-02
  1.21908954748703707E-02  1.13896772723888415E-02  1.06318809626533457E-02
  9.91579324437831186E-03  9.23972887922951298E-03  8.60203255113371930E-03
  8.00108060054026925E-03  7.43528260978720563E-03  6.90308284961610712E-03
  6.40296159409964663E-03  5.93343629767329427E-03  5.49306263468406827E-03
  5.08043540258528055E-03  4.69418929049609645E-03  4.33299951793014986E-03
  3.99558234766867176E-03  3.68069545797737596E-03  3.38713819792597947E-03
  3.11375172638355324E-03  2.85941903685763433E-03  2.62306487290815682E-03
  2.40365553913917404E-03  2.20019861309982611E-03  2.01174256734114104E-03
  1.83737630009161491E-03  1.67622857682573788E-03  1.52746740069779853E-03
  1.39029931268174010E-03  1.26396862686503977E-03  1.14775660678747833E-03
  1.04098058868485298E-03  9.42993057893790933E-04  8.53180686809556967E-04
  7.70963330547961342E-04  6.95792992317557858E-04  6.27152766177665653E-04
  5.64555759795663456E-04  5.07544002139792322E-04  4.55687340865936798E-04
  4.08582333941658884E-04  3.65851140726848893E-04  3.27140416395915756E-04
  2.92120208379985835E-04  2.60482865120599267E-04  2.31941958832125914E-04
  2.06231224693309719E-04  1.83103519271403029E-04  1.62329800722275442E-04
  1.43698133084441354E-04  1.27012717614313075E-04  1.12092950859055905E-04
  9.87725109051406177E-05  8.68984756939890487E-05  7.63304731817382947E-05
  6.69398641006935225E-05  5.86089579531147062E-05  5.12302626663278725E-05
  4.47057682451071104E-05  3.89462648650073032E-05  3.38706936134433256E-05
  2.94055310760801297E-05  2.54842075254166767E-05  2.20465577546750859E-05
  1.90383039023862134E-05  1.64105695107670135E-05  1.41194239689961239E-05
  1.21254565374440337E-05  1.03933788387884902E-05  8.89165424821603658E-06
  7.59215392280965450E-06  6.46983806211581363E-06  5.50246117016203466E-06
  4.67030014160148950E-06  3.95590398718495881E-06  3.34386401848221162E-06
  2.82060339125006854E-06  2.37418463641535471E-06  1.99413410736171848E-06
  1.67128240694102132E-06  1.39761959469422683E-06  1.16616411997942983E-06
  9.70844470182586256E-07
                              </PP_AEWFC.3>
 <PP_AEWFC.4 type="real" size="   961" l="1" columns="3" label= "0P">
 -3.70778629067059008E-07 -3.79102236641834727E-07 -3.87614866285116568E-07
 -3.96320875642745901E-07 -4.05224727276748871E-07 -4.14330990768939497E-07
 -4.23644340136884886E-07 -4.33169558973747533E-07 -4.42911547722787495E-07
 -4.52875320069367267E-07 -4.63066005724812489E-07 -4.73488859674704336E-07
 -4.84149260041447671E-07 -4.95052709000065442E-07 -5.06204842355912241E-07
 -5.17611429282248514E-07 -5.29278372150125429E-07 -5.41211716292788523E-07
 -5.53417650599583323E-07 -5.65902507284020782E-07 -5.78672772116676542E-07
 -5.91735084573148323E-07 -6.05096238689695145E-07 -6.18763193771285549E-07
 -6.32743073041909566E-07 -6.47043167136543090E-07 -6.61670944073709341E-07
 -6.76634046569674501E-07 -6.91940299708987607E-07 -7.07597717399974133E-07
 -7.23614500901764323E-07 -7.39999050163405418E-07 -7.56759964631687986E-07
 -7.73906047400820894E-07 -7.91446315176457010E-07 -8.09389996537999497E-07
 -8.27746543204263786E-07 -8.46525632299680767E-07 -8.65737171167317783E-07
 -8.85391307161917063E-07 -9.05498427202287204E-07 -9.26069170387728048E-07
 -9.47114428493999075E-07 -9.68645355618433174E-07 -9.90673373739029228E-07
 -1.01321017761524943E-06 -1.03626774520315124E-06 -1.05985833936215272E-06
 -1.08399452089707115E-06 -1.10868914956116589E-06 -1.13395539741731085E-06
 -1.15980675103318540E-06 -1.18625702392288182E-06 -1.21332036059598683E-06
 -1.24101124795651586E-06 -1.26934452101376820E-06 -1.29833537368238395E-06
 -1.32799936563804658E-06 -1.35835243312538557E-06 -1.38941089638784783E-06
 -1.42119147107657064E-06 -1.45371127574737219E-06 -1.48698784436056802E-06
 -1.52103913349189374E-06 -1.55588353619427357E-06 -1.59153988888742243E-06
 -1.62802748640748202E-06 -1.66536608914621937E-06 -1.70357593838500193E-06
 -1.74267776495934769E-06 -1.78269280349282403E-06 -1.82364280396843452E-06
 -1.86555004386611228E-06 -1.90843734308446809E-06 -1.95232807452681501E-06
 -1.99724618078238436E-06 -2.04321618579212396E-06 -2.09026321026605631E-06
 -2.13841298700010580E-06 -2.18769187412599720E-06 -2.23812687294450005E-06
 -2.28974564207933442E-06 -2.34257651399421938E-06 -2.39664851293031774E-06
 -2.45199137014824413E-06 -2.50863554266790620E-06 -2.56661223138365693E-06
 -2.62595339821978776E-06 -2.68669178627296537E-06 -2.74886093890549011E-06
 -2.81249521869794327E-06 -2.87762982879599030E-06 -2.94430083360506345E-06
 -3.01254517936474938E-06 -3.08240071667497046E-06 -3.15390622321123584E-06
 -3.22710142593107891E-06 -3.30202702482222133E-06 -3.37872471768822965E-06
 -3.45723722435293623E-06 -3.53760831186173277E-06 -3.61988282080993735E-06
 -3.70410669224427664E-06 -3.79032699452070528E-06 -3.87859195130933616E-06
 -3.96895097050832083E-06 -4.06145467384439296E-06 -4.15615492670416336E-06
 -4.25310486903735137E-06 -4.35235894709774706E-06 -4.45397294611698875E-06
 -4.55800402347343478E-06 -4.66451074269910646E-06 -4.77355310847340763E-06
 -4.88519260249065431E-06 -4.99949222029537595E-06 -5.11651650891807975E-06
 -5.23633160538346149E-06 -5.35900527628147999E-06 -5.48460695832788138E-06
 -5.61320779993476006E-06 -5.74488070383248921E-06 -5.87970037076164109E-06
 -6.01774334417880918E-06 -6.15908805612410717E-06 -6.30381487424423947E-06
 -6.45200614998843110E-06 -6.60374626800667091E-06 -6.75912169678056473E-06
 -6.91822104051765506E-06 -7.08113509234099480E-06 -7.24795688880988398E-06
 -7.41878176579395261E-06 -7.59370741574065253E-06 -7.77283394637786864E-06
 -7.95626394088176089E-06 -8.14410251954568574E-06 -8.33645740298807239E-06
 -8.53343897693733962E-06 -8.73516035863305147E-06 -8.94173746488381179E-06
 -9.15328908182285501E-06 -9.36993693640361205E-06 -9.59180576967854822E-06
 -9.81902341190559155E-06 -1.00517208595276187E-05 -1.02900323540712329E-05
 -1.05340954630128756E-05 -1.07840511626608715E-05 -1.10400439231034773E-05
 -1.13022217952743188E-05 -1.15707365001875338E-05 -1.18457435203967158E-05
 -1.21274021937341962E-05 -1.24158758093892623E-05 -1.27113317063727074E-05
 -1.30139413744349425E-05 -1.33238805574983409E-05 -1.36413293596655685E-05
 -1.39664723538668984E-05 -1.42994986932121168E-05 -1.46406022251142715E-05
 -1.49899816082549932E-05 -1.53478404324810046E-05 -1.57143873416637710E-05
 -1.60898361595978376E-05 -1.64744060190459550E-05 -1.68683214939945106E-05
 -1.72718127351972584E-05 -1.76851156091148014E-05 -1.81084718403160355E-05
 -1.85421291573439891E-05 -1.89863414422415128E-05 -1.94413688837984927E-05
 -1.99074781346349063E-05 -2.03849424722208683E-05 -2.08740419637686250E-05
 -2.13750636352659624E-05 -2.18883016447308147E-05 -2.24140574598542871E-05
 -2.29526400399284594E-05 -2.35043660222529194E-05 -2.40695599132400158E-05
 -2.46485542843741518E-05 -2.52416899728561908E-05 -2.58493162871969228E-05
 -2.64717912180412408E-05 -2.71094816542856229E-05 -2.77627636042820324E-05
 -2.84320224226511804E-05 -2.91176530429063816E-05 -2.98200602155680147E-05
 -3.05396587521758689E-05 -3.12768737756210680E-05 -3.20321409764332124E-05
 -3.28059068753289775E-05 -3.35986290926011653E-05 -3.44107766238760935E-05
 -3.52428301226533959E-05 -3.60952821901967664E-05 -3.69686376721531680E-05
 -3.78634139626899256E-05 -3.87801413163393861E-05 -3.97193631670740606E-05
 -4.06816364557511040E-05 -4.16675319653584070E-05 -4.26776346644794095E-05
 -4.37125440596008422E-05 -4.47728745555490507E-05 -4.58592558253836729E-05
 -4.69723331889753556E-05 -4.81127680011136894E-05 -4.92812380492297131E-05
 -5.04784379606231578E-05 -5.17050796201841306E-05 -5.29618925978082037E-05
 -5.42496245869652252E-05 -5.55690418534143189E-05 -5.69209296955557195E-05
 -5.83060929155448875E-05 -5.97253563024763146E-05 -6.11795651269906324E-05
 -6.26695856484300125E-05 -6.41963056340608183E-05 -6.57606348914078462E-05
 -6.73635058132630041E-05 -6.90058739364618208E-05 -7.06887185139121979E-05
 -7.24130431011233235E-05 -7.41798761565684757E-05 -7.59902716573083656E-05
 -7.78453097291056554E-05 -7.97460972924973874E-05 -8.16937687241944534E-05
 -8.36894865349931388E-05 -8.57344420640678766E-05 -8.78298561902031156E-05
 -8.99769800606013123E-05 -9.21770958370965140E-05 -9.44315174610255577E-05
 -9.67415914363175785E-05 -9.91086976319410264E-05 -1.01534250103851346E-04
 -1.04019697936750421E-04 -1.06566526106690991E-04 -1.09176256364282125E-04
 -1.11850448139586307E-04 -1.14590699469037499E-04 -1.17398647944614998E-04
 -1.20275971686373653E-04 -1.23224390338376162E-04 -1.26245666088724794E-04
 -1.29341604714561242E-04 -1.32514056652117160E-04 -1.35764918092738494E-04
 -1.39096132105597821E-04 -1.42509689787304614E-04 -1.46007631439396592E-04
 -1.49592047774409795E-04 -1.53265081150838088E-04 -1.57028926837962581E-04
 -1.60885834311311730E-04 -1.64838108579157949E-04 -1.68888111540975092E-04
 -1.73038263378720857E-04 -1.77291043981489207E-04 -1.81648994404333826E-04
 -1.86114718362235610E-04 -1.90690883759966743E-04 -1.95380224258499347E-04
 -2.00185540879026621E-04 -2.05109703645481024E-04 -2.10155653266307974E-04
 -2.15326402856399530E-04 -2.20625039700253646E-04 -2.26054727057294931E-04
 -2.31618706010199959E-04 -2.37320297357276644E-04 -2.43162903549987950E-04
 -2.49150010676652824E-04 -2.55285190493271608E-04 -2.61572102502607919E-04
 -2.68014496082690239E-04 -2.74616212665861037E-04 -2.81381187969482896E-04
 -2.88313454279425386E-04 -2.95417142787656936E-04 -3.02696485985121480E-04
 -3.10155820111195101E-04 -3.17799587660912836E-04 -3.25632339951319443E-04
 -3.33658739748324089E-04 -3.41883563955392659E-04 -3.50311706365508146E-04
 -3.58948180477740113E-04 -3.67798122379916278E-04 -3.76866793698915571E-04
 -3.86159584620064124E-04 -3.95682016977202532E-04 -4.05439747414988142E-04
 -4.15438570624984183E-04 -4.25684422657265481E-04 -4.36183384309174037E-04
 -4.46941684592946638E-04 -4.57965704283958257E-04 -4.69261979551358380E-04
 -4.80837205672871601E-04 -4.92698240835661491E-04 -5.04852110025140986E-04
 -5.17306009003640427E-04 -5.30067308380894556E-04 -5.43143557778366735E-04
 -5.56542490089426221E-04 -5.70272025837435304E-04 -5.84340277633916974E-04
 -5.98755554738925120E-04 -6.13526367725838258E-04 -6.28661433252802968E-04
 -6.44169678943117972E-04 -6.60060248376889225E-04 -6.76342506196323814E-04
 -6.93026043327045200E-04 -7.10120682317930845E-04 -7.27636482801960992E-04
 -7.45583747080628663E-04 -7.63973025834493546E-04 -7.82815123962547006E-04
 -8.02121106553049736E-04 -8.21902304988587776E-04 -8.42170323188154673E-04
 -8.62937043989043997E-04 -8.84214635671470134E-04 -9.06015558628841134E-04
 -9.28352572186661460E-04 -9.51238741573107150E-04 -9.74687445044339611E-04
 -9.98712381167703427E-04 -1.02332757626599964E-03 -1.04854739202604307E-03
 -1.07438653327483822E-03 -1.10086005592666667E-03 -1.12798337510451791E-03
 -1.15577227343930571E-03 -1.18424290955034461E-03 -1.21341182671067275E-03
 -1.24329596170080878E-03 -1.27391265385461854E-03 -1.30527965430100239E-03
 -1.33741513540516321E-03 -1.37033770041329931E-03 -1.40406639330456864E-03
 -1.43862070885429649E-03 -1.47402060291237295E-03 -1.51028650290088587E-03
 -1.54743931853511068E-03 -1.58550045277194916E-03 -1.62449181299005986E-03
 -1.66443582240590761E-03 -1.70535543173002497E-03 -1.74727413106785519E-03
 -1.79021596206955353E-03 -1.83420553033323262E-03 -1.87926801806611058E-03
 -1.92542919700814199E-03 -1.97271544162271441E-03 -2.02115374255903762E-03
 -2.07077172039093430E-03 -2.12159763963676827E-03 -2.17366042306521567E-03
 -2.22698966629180425E-03 -2.28161565267095967E-03 -2.33756936848851602E-03
 -2.39488251845961127E-03 -2.45358754153688187E-03 -2.51371762703400193E-03
 -2.57530673106956629E-03 -2.63838959333634023E-03 -2.70300175420100678E-03
 -2.76917957213943444E-03 -2.83696024151265441E-03 -2.90638181068860173E-03
 -2.97748320051484426E-03 -3.05030422314739747E-03 -3.12488560124078718E-03
 -3.20126898750457047E-03 -3.27949698463141787E-03 -3.35961316560195360E-03
 -3.44166209437151652E-03 -3.52568934694389444E-03 -3.61174153283727204E-03
 -3.69986631694734815E-03 -3.79011244181279685E-03 -3.88252975028804265E-03
 -3.97716920862834205E-03 -4.07408292999213335E-03 -4.17332419836551147E-03
 -4.27494749291368152E-03 -4.37900851276417334E-03 -4.48556420222641188E-03
 -4.59467277645240861E-03 -4.70639374754291788E-03 -4.82078795110362380E-03
 -4.93791757325559143E-03 -5.05784617810418891E-03 -5.18063873567061167E-03
 -5.30636165028988346E-03 -5.43508278947918855E-03 -5.56687151328012341E-03
 -5.70179870407840766E-03 -5.83993679690431641E-03 -5.98135981021694855E-03
 -6.12614337717527421E-03 -6.27436477739862566E-03 -6.42610296921910986E-03
 -6.58143862242819341E-03 -6.74045415151941583E-03 -6.90323374942897455E-03
 -7.06986342177552251E-03 -7.24043102160037370E-03 -7.41502628460893442E-03
 -7.59374086491373512E-03 -7.77666837127927862E-03 -7.96390440386846032E-03
 -8.15554659148978213E-03 -8.35169462934434378E-03 -8.55245031727132170E-03
 -8.75791759848976691E-03 -8.96820259883443667E-03 -9.18341366648285466E-03
 -9.40366141216995334E-03 -9.62905874988659143E-03 -9.85972093805728700E-03
 -1.00957656211921338E-02 -1.03373128720071483E-02 -1.05844852340067613E-02
 -1.08374077645213250E-02 -1.10962080781919926E-02 -1.13610163908944781E-02
 -1.16319655640926209E-02 -1.19091911496114772E-02 -1.21928314348197508E-02
 -1.24830274882092914E-02 -1.27799232053589056E-02 -1.30836653552697472E-02
 -1.33944036270574589E-02 -1.37122906769858739E-02 -1.40374821758256670E-02
 -1.43701368565205337E-02 -1.47104165621424338E-02 -1.50584862941159255E-02
 -1.54145142606908186E-02 -1.57786719256410926E-02 -1.61511340571665052E-02
 -1.65320787769722248E-02 -1.69216876095005554E-02 -1.73201455312873842E-02
 -1.77276410204149602E-02 -1.81443661060281397E-02 -1.85705164178845313E-02
 -1.90062912359043740E-02 -1.94518935396850792E-02 -1.99075300579433789E-02
 -2.03734113178464862E-02 -2.08497516941919606E-02 -2.13367694583938179E-02
 -2.18346868272308835E-02 -2.23437300113112081E-02 -2.28641292632042435E-02
 -2.33961189251909417E-02 -2.39399374765807797E-02 -2.44958275805386982E-02
 -2.50640361303633152E-02 -2.56448142951616852E-02 -2.62384175648575808E-02
 -2.68451057944689743E-02 -2.74651432475888913E-02 -2.80987986389998230E-02
 -2.87463451763508432E-02 -2.94080606008228808E-02 -3.00842272267046809E-02
 -3.07751319798004914E-02 -3.14810664345867644E-02 -3.22023268500360588E-02
 -3.29392142040076108E-02 -3.36920342261204098E-02 -3.44610974290159439E-02
 -3.52467191379101930E-02 -3.60492195183334529E-02 -3.68689236019536098E-02
 -3.77061613103743185E-02 -3.85612674767965846E-02 -3.94345818654290650E-02
 -4.03264491885278464E-02 -4.12372191209473757E-02 -4.21672463120784935E-02
 -4.31168903950216523E-02 -4.40865159928832614E-02 -4.50764927220548769E-02
 -4.60871951923315648E-02 -4.71190030037236599E-02 -4.81723007398133923E-02
 -4.92474779575017563E-02 -5.03449291729888698E-02 -5.14650538438256172E-02
 -5.26082563468735984E-02 -5.37749459520161302E-02 -5.49655367914042084E-02
 -5.61804478240839622E-02 -5.74201027958310822E-02 -5.86849301939971271E-02
 -5.99753631971745721E-02 -6.12918396194869763E-02 -6.26348018493005781E-02
 -6.40046967821552015E-02 -6.54019757477033309E-02 -6.68270944304532877E-02
 -6.82805127841134563E-02 -6.97626949392391726E-02 -7.12741091040207247E-02
 -7.28152274579790537E-02 -7.43865260383242410E-02 -7.59884846187398183E-02
 -7.76215865803470823E-02 -7.92863187746054576E-02 -8.09831713778962209E-02
 -8.27126377375369815E-02 -8.44752142090081926E-02 -8.62713999840618723E-02
 -8.81016969094241403E-02 -8.99666092959097857E-02 -9.18666437176460793E-02
 -9.38023088011276096E-02 -9.57741150038261546E-02 -9.77825743820758819E-02
 -9.98282003479537966E-02 -1.01911507414870581E-01 -1.04033010931630865E-01
 -1.06193226804651722E-01 -1.08392671207903454E-01 -1.10631860280473865E-01
 -1.12911309811418878E-01 -1.15231534911599612E-01 -1.17593049672218494E-01
 -1.19996366809764540E-01 -1.22441997297084215E-01 -1.24930449980290695E-01
 -1.27462231181293933E-01 -1.30037844285641774E-01 -1.32657789315155455E-01
 -1.35322562485382020E-01 -1.38032655747521743E-01 -1.40788556314550173E-01
 -1.43590746171273043E-01 -1.46439701568063851E-01 -1.49335892498037914E-01
 -1.52279782157426657E-01 -1.55271826389049711E-01 -1.58312473108495666E-01
 -1.61402161712588532E-01 -1.64541322470336093E-01 -1.67730375896040340E-01
 -1.70969732104374522E-01 -1.74259790147267862E-01 -1.77600937332441894E-01
 -1.80993548523465636E-01 -1.84437985421233852E-01 -1.87934595826992568E-01
 -1.91483712886235891E-01 -1.95085654313631646E-01 -1.98740721599201975E-01
 -2.02449199195564422E-01 -2.06211353686219762E-01 -2.10027432934898728E-01
 -2.13897665216000815E-01 -2.17822258326181295E-01 -2.21801398677334977E-01
 -2.25835250371097723E-01 -2.29923954254118351E-01 -2.34067626955210939E-01
 -2.38266359904386188E-01 -2.42520218333886289E-01 -2.46829240261460109E-01
 -2.51193435456144087E-01 -2.55612784386836878E-01 -2.60087237154041639E-01
 -2.64616712405586374E-01 -2.69201096235505810E-01 -2.73840241066976686E-01
 -2.78533964520297939E-01 -2.83282048266063569E-01 -2.88084236864033671E-01
 -2.92940236588255132E-01 -2.97849714239016850E-01 -3.02812295942278542E-01
 -3.07827565937734471E-01 -3.12895065355615065E-01 -3.18014290982063075E-01
 -3.23184694015559215E-01 -3.28405678814755853E-01 -3.33676601638605796E-01
 -3.38996769379819540E-01 -3.44365438292773218E-01 -3.49781812717088025E-01
 -3.55245043798576132E-01 -3.60754228209217598E-01 -3.66308406865405389E-01
 -3.71906563648632671E-01 -3.77547624130189274E-01 -3.83230454301783374E-01
 -3.88953859314465522E-01 -3.94716582228505253E-01 -4.00517302777154582E-01
 -4.06354636147807313E-01 -4.12227131785004308E-01 -4.18133272215990837E-01
 -4.24071471905696940E-01 -4.30040076146225081E-01 -4.36037359985590622E-01
 -4.42061527201458027E-01 -4.48110709326086654E-01 -4.54182964729111460E-01
 -4.60276277765390041E-01 -4.66388557996522846E-01 -4.72517639489659469E-01
 -4.78661280203215245E-01 -4.84817161467851032E-01 -4.90982887568478632E-01
 -4.97155985432957803E-01 -5.03333904431697121E-01 -5.09514016290299576E-01
 -5.15693615114823145E-01 -5.21869917527190474E-01 -5.28040062897672025E-01
 -5.34201113662503446E-01 -5.40350055708862631E-01 -5.46483798799298759E-01
 -5.52599177001748210E-01 -5.58692949083925527E-01 -5.64761798823903094E-01
 -5.70802335182853504E-01 -5.76811092283234461E-01 -5.82784529126901041E-01
 -5.88719028996299243E-01 -5.94610898487769823E-01 -6.00456366131804198E-01
 -6.06251580571353421E-01 -6.11992608288747686E-01 -6.17675430895384014E-01
 -6.23295942025345884E-01 -6.28849943903957098E-01 -6.34333143686456657E-01
 -6.39741149695806199E-01 -6.45069467711704481E-01 -6.50313497478563152E-01
 -6.55468529612241002E-01 -6.60529743086804899E-01 -6.65492203473237232E-01
 -6.70350862081146692E-01 -6.75100556122881890E-01 -6.79736009972205069E-01
 -6.84251837542292018E-01 -6.88642545751996460E-01 -6.92902538992796857E-01
 -6.97026124460799923E-01 -7.01007518180620459E-01 -7.04840851525436407E-01
 -7.08520178032419512E-01 -7.12039480325524998E-01 -7.15392676973641062E-01
 -7.18573629158749116E-01 -7.21576147066477991E-01 -7.24393995949302205E-01
 -7.27020901850838008E-01 -7.29450557010040135E-01 -7.31676624986477453E-01
 -7.33692745562726234E-01 -7.35492539487135999E-01 -7.37069613112574462E-01
 -7.38417562996777854E-01 -7.39529980515663876E-01 -7.40400456531519757E-01
 -7.41022586149819751E-01 -7.41389973589365536E-01 -7.41496237182135087E-01
 -7.41335014512541801E-01 -7.40899967698941730E-01 -7.40184788812546346E-01
 -7.39183205433119661E-01 -7.37888986332614349E-01 -7.36295947277103568E-01
 -7.34397956937103857E-01 -7.32188942896351835E-01 -7.29662897749595585E-01
 -7.26813885280674921E-01 -7.23636046713015069E-01 -7.20123607027917445E-01
 -7.16270881346351862E-01 -7.12072281371256333E-01 -7.07522321889413219E-01
 -7.02615627333687209E-01 -6.97346938408049732E-01 -6.91711118779378409E-01
 -6.85703161839520070E-01 -6.79318197547378988E-01 -6.72551499362426086E-01
 -6.65398491274588721E-01 -6.57854754943234421E-01 -6.49916036957920662E-01
 -6.41578256234685895E-01 -6.32837511562872379E-01 -6.23690089318234109E-01
 -6.14132471354932652E-01 -6.04161343105720783E-01 -5.93773601907359616E-01
 -5.82966365565352640E-01 -5.71736981182886850E-01 -5.60083034276694036E-01
 -5.48002358203449891E-01 -5.35493043921221767E-01 -5.22553450109754736E-01
 -5.09182213670029471E-01 -4.95378260651043179E-01 -4.81140817616475980E-01
 -4.66469423476978284E-01 -4.51363941820155989E-01 -4.35824573767142176E-01
 -4.19851871384821551E-01 -4.03446751682875304E-01 -3.86610511220353281E-01
 -3.69344841349646014E-01 -3.51651844150833559E-01 -3.33534049057537640E-01
 -3.14994430205962739E-01 -2.96036424535318865E-01 -2.76663950664065905E-01
 -2.56881428564810999E-01 -2.36693800058680681E-01 -2.16106550139387510E-01
 -1.95125729155382038E-01 -1.73757975877422866E-01 -1.52010541433769741E-01
 -1.29891314129249980E-01 -1.07408845151976864E-01 -8.45723751659462203E-02
 -6.13918617829751767E-02 -3.78780079010315254E-02 -1.40422908792568052E-02
  1.01030074449606575E-02  3.45447699361131622E-02  5.92690125944885238E-02
  8.42608522801390064E-02  1.09504473781449674E-01  1.34983096292299820E-01
  1.60678939371713153E-01  1.86573188473945800E-01  2.12645960155715713E-01
  2.38876267023388211E-01  2.65241982574807023E-01  2.91719806071431609E-01
  3.18285227580937302E-01  3.44912493352797556E-01  3.71574571704266499E-01
  3.98243119611142504E-01  4.24888450225594905E-01  4.51479501547748685E-01
  4.77983806451957760E-01  5.04367464390578668E-01  5.30595115050755406E-01
  5.56629914269360482E-01  5.82433512537178011E-01  6.07966036446217606E-01
  6.33186073458598675E-01  6.58050660425255840E-01  6.82515276237710022E-01
  7.06533839046070034E-01  7.30058708584874538E-01  7.53040694090639562E-01
  7.75429068345050432E-01  7.97171588408402965E-01  8.18214523637368130E-01
  8.38502691618273066E-01  8.57979502715521702E-01  8.76587013795402603E-01
  8.94265991905354274E-01  9.10955988694452823E-01  9.26595426325401927E-01
  9.41121695685326998E-01  9.54471267731339723E-01  9.66579818833502746E-01
  9.77382371033157837E-01  9.86813448149804984E-01  9.94807248453296711E-01
  1.00129783503603509E+00  1.00621934480212305E+00  1.00950621699349208E+00
  1.01109344218329267E+00  1.01091683264586707E+00  1.00891331498152437E+00
  1.00502124591670472E+00  9.99180751922904675E-01  9.91334093198363187E-01
  9.81426052871816723E-01  9.69404351802280018E-01  9.55220089283330132E-01
  9.38828209798046154E-01  9.20187995770129108E-01  8.99263586042974183E-01
  8.76024519684196812E-01  8.50446303873250709E-01  8.22511004860225325E-01
  7.92207860619963733E-01  7.59533913137104499E-01  7.24494657917024165E-01
  6.87104707834510942E-01  6.47388467908297960E-01  6.05380817087253442E-01
  5.61127792528640534E-01  5.14687270686488119E-01  4.66129639836251886E-01
  4.15538457427587549E-01  3.63011084946523843E-01  3.08659292303009480E-01
  2.52609823025519986E-01  1.95004910808996040E-01  1.36002737273218960E-01
  7.57778198775609368E-02  1.45213184120959841E-02 -4.75587519191608965E-02
 -1.10237413745218504E-01 -1.73272740446002493E-01 -2.36406002509141677E-01
 -2.99361961431428958E-01 -3.61849325514836118E-01 -4.23561382275535747E-01
 -4.84176821319325101E-01 -5.43360761681851212E-01 -6.00765997624752579E-01
 -6.56034475737174549E-01 -7.08799015377613473E-01 -7.58685283296535506E-01
 -8.05314031781250383E-01 -8.48303608131884546E-01 -8.87272741381886387E-01
 -9.21843606457556475E-01 -9.51645167468113673E-01 -9.76316796470218518E-01
 -9.95512159889316406E-01 -1.00890336067976238E+00 -1.01618531943498125E+00
 -1.01708037229687309E+00 -1.01134305878716457E+00 -9.98765063690807420E-01
 -9.79180269160948469E-01 -9.52469872386965788E-01 -9.18567511210339971E-01
 -8.77464333035539723E-01 -8.29213934227449156E-01 -7.73937088726852296E-01
 -7.11826176318839599E-01 -6.43149213901416883E-01 -5.68253379272698034E-01
 -4.87567916379044453E-01 -4.01606304145026960E-01 -3.10967562321969371E-01
 -2.16336565174311463E-01 -1.18483231732435385E-01 -1.82604614207489066E-02
  8.33993135566998695E-02  1.85489083057098464E-01  2.86933833816818362E-01
  3.86598843186548968E-01  4.83299775655116837E-01  5.75814643018492056E-01
  6.62897661573835784E-01  7.43295006934239333E-01  8.15762428690952945E-01
  8.79084646719021201E-01  9.32096393903006692E-01  9.73704909137902308E-01
  1.00291364353308410E+00  1.01884686426835502E+00  1.02077477427312657E+00
  1.00813869548758595E+00  9.80575791902815852E-01  9.37942739076207621E-01
  8.80337685996855579E-01  8.08119765422911418E-01  7.21925389106867210E-01
  6.22680524393828594E-01  5.11608111237779495E-01  3.90229781784268093E-01
  2.60361066656621787E-01  1.24099322482101385E-01 -1.61963019369895829E-02
 -1.57933429792206925E-01 -2.98323955167126731E-01 -4.34430669618989740E-01
 -5.63222982115854309E-01 -6.81641408040843055E-01 -7.86670174886815121E-01
 -8.75416928210728251E-01 -9.45198127167619195E-01 -9.93628319157205286E-01
 -1.01871102091563337E+00 -1.01892850173925020E+00 -9.93327447253770868E-01
 -9.41597075998941047E-01 -8.64136012798256359E-01 -7.62104042571058016E-01
 -6.37454811447894287E-01 -4.92945640797004869E-01 -3.32120901294456761E-01
 -1.59265816320356801E-01  2.06716194133784344E-02  2.02192010303168468E-01
  3.79389457774181371E-01  5.46128784046534199E-01  6.96252243800881132E-01
  8.23811079309353711E-01  9.23315376977402624E-01  9.89993736433362082E-01
  1.02005222211378888E+00  1.01092060658150440E+00  9.61472459252077583E-01
  8.72204733528459397E-01  7.45362250872189436E-01  5.84992994857032267E-01
  3.96921556349456195E-01  1.88630527465172726E-01 -3.09569372660209036E-02
 -2.51795398202055876E-01 -4.63132585703721955E-01 -6.54012023357797401E-01
 -8.13845690115028275E-01 -9.33032294976205989E-01 -1.00358969730294900E+00
 -1.01976380837900038E+00 -9.78571638198133087E-01 -8.80233062803595034E-01
 -7.28446656243259438E-01 -5.30468515297805809E-01 -2.96960336116046719E-01
 -4.15846636524279667E-02  2.19659141381369105E-01  4.69345484784708500E-01
  6.89745140373819621E-01  8.64102222778109330E-01  9.77984663664717924E-01
  1.02060793768583058E+00  9.86017083803711225E-01  8.74005134839992093E-01
  6.90649436228978675E-01  4.48362832902852726E-01  1.65385434226846206E-01
 -1.35315512692349760E-01 -4.27716960765998244E-01 -6.84899299242403448E-01
 -8.81545567566887733E-01 -9.96571726104717892E-01 -1.01562905923957958E+00
 -9.33189951000119700E-01
                              </PP_AEWFC.4>
 <PP_PSWFC.1 type="real" size="   961" l="0" columns="3" label= "2S">
  1.96506771047344345E-04  1.98978521907123602E-04  2.01481363563889922E-04
  2.04015687091671879E-04  2.06581888483602398E-04  2.09180368713792110E-04
  2.11811533799982984E-04  2.14475794866989173E-04  2.17173568210935717E-04
  2.19905275364306365E-04  2.22671343161807777E-04  2.25472203807063510E-04
  2.28308294940146860E-04  2.31180059705962307E-04  2.34087946823488844E-04
  2.37032410655891402E-04  2.40013911281517010E-04  2.43032914565782549E-04
  2.46089892233966622E-04  2.49185321944918553E-04  2.52319687365691852E-04
  2.55493478247118856E-04  2.58707190500334855E-04  2.61961326274265209E-04
  2.65256394034087107E-04  2.68592908640677083E-04  2.71971391431060174E-04
  2.75392370299868577E-04  2.78856379781826282E-04  2.82363961135271787E-04
  2.85915662426729277E-04  2.89512038616545632E-04  2.93153651645603516E-04
  2.96841070523125425E-04  3.00574871415583151E-04  3.04355637736723099E-04
  3.08183960238726546E-04  3.12060437104515361E-04  3.15985674041218420E-04
  3.19960284374815789E-04  3.23984889145969559E-04  3.28060117207063635E-04
  3.32186605320462585E-04  3.36364998258006280E-04  3.40595948901757585E-04
  3.44880118346014078E-04  3.49218176000606006E-04  3.53610799695492739E-04
  3.58058675786673440E-04  3.62562499263432872E-04  3.67122973856932107E-04
  3.71740812150168746E-04  3.76416735689318570E-04  3.81151475096477442E-04
  3.85945770183823570E-04  3.90800370069211507E-04  3.95716033293224139E-04
  4.00693527937695385E-04  4.05733631745722981E-04  4.10837132243193389E-04
  4.16004826861830995E-04  4.21237523063799500E-04  4.26536038467867818E-04
  4.31901200977163619E-04  4.37333848908535408E-04  4.42834831123537908E-04
  4.48405007161068966E-04  4.54045247371672660E-04  4.59756433053531857E-04
  4.65539456590173333E-04  4.71395221589901046E-04  4.77324643026986800E-04
  4.83328647384635691E-04  4.89408172799748239E-04  4.95564169209507612E-04
  5.01797598499804627E-04  5.08109434655534516E-04  5.14500663912782264E-04
  5.20972284912922111E-04  5.27525308858656900E-04  5.34160759672016260E-04
  5.40879674154347008E-04  5.47683102148312792E-04  5.54572106701931066E-04
  5.61547764234677409E-04  5.68611164705672720E-04  5.75763411783991423E-04
  5.83005623021108817E-04  5.90338930025519201E-04  5.97764478639549414E-04
  6.05283429118395845E-04  6.12896956311413882E-04  6.20606249845689060E-04
  6.28412514311914305E-04  6.36316969452608520E-04  6.44320850352698938E-04
  6.52425407632503044E-04  6.60631907643138123E-04  6.68941632664386094E-04
  6.77355881105051261E-04  6.85875967705832528E-04  6.94503223744753046E-04
  7.03238997245169274E-04  7.12084653186398722E-04  7.21041573716998886E-04
  7.30111158370722437E-04  7.39294824285194178E-04  7.48594006423337118E-04
  7.58010157797583094E-04  7.67544749696905354E-04  7.77199271916701948E-04
  7.86975232991575231E-04  7.96874160431038179E-04  8.06897600958183712E-04
  8.17047120751359106E-04  8.27324305688875413E-04  8.37730761596798719E-04
  8.48268114499856215E-04  8.58938010875499132E-04  8.69742117911162234E-04
  8.80682123764752931E-04  8.91759737828425633E-04  9.02976690995666389E-04
  9.14334735931741048E-04  9.25835647347545863E-04  9.37481222276894690E-04
  9.49273280357304148E-04  9.61213664114303197E-04  9.73304239249321015E-04
  9.85546894931198713E-04  9.97943544091359257E-04  1.01049612372269859E-03
  1.02320659518223100E-03  1.03607694449754260E-03  1.04910918267709925E-03
  1.06230534602445793E-03  1.07566749645642717E-03  1.08919772182523053E-03
  1.10289813624472400E-03  1.11677088042071355E-03  1.13081812198543023E-03
  1.14504205583620630E-03  1.15944490447841722E-03  1.17402891837273303E-03
  1.18879637628673679E-03  1.20374958565097135E-03  1.21889088291945308E-03
  1.23422263393472989E-03  1.24974723429752458E-03  1.26546710974102979E-03
  1.28138471650991216E-03  1.29750254174407545E-03  1.31382310386725723E-03
  1.33034895298051359E-03  1.34708267126064244E-03  1.36402687336363527E-03
  1.38118420683318137E-03  1.39855735251432712E-03  1.41614902497232869E-03
  1.43396197291677263E-03  1.45199897963103962E-03  1.47026286340715064E-03
  1.48875647798610202E-03  1.50748271300372278E-03  1.52644449444214788E-03
  1.54564478508697079E-03  1.56508658499013168E-03  1.58477293193864119E-03
  1.60470690192919345E-03  1.62489160964874517E-03  1.64533020896114610E-03
  1.66602589339987449E-03  1.68698189666698648E-03  1.70820149313832608E-03
  1.72968799837509455E-03  1.75144476964185568E-03  1.77347520643104592E-03
  1.79578275099408755E-03  1.81837088887917809E-03  1.84124314947584208E-03
  1.86440310656633577E-03  1.88785437888397065E-03  1.91160063067847652E-03
  1.93564557228845984E-03  1.95999296072106631E-03  1.98464660023893414E-03
  2.00961034295451873E-03  2.03488808943190014E-03  2.06048378929615198E-03
  2.08640144185037301E-03  2.11264509670048466E-03  2.13921885438786864E-03
  2.16612686702997211E-03  2.19337333896896334E-03  2.22096252742854001E-03
  2.24889874317900709E-03  2.27718635121069643E-03  2.30582977141587011E-03
  2.33483347927918939E-03  2.36420200657686767E-03  2.39393994208461722E-03
  2.42405193229447815E-03  2.45454268214068344E-03  2.48541695573463320E-03
  2.51667957710911307E-03  2.54833543097187634E-03  2.58038946346867901E-03
  2.61284668295593036E-03  2.64571216078304068E-03  2.67899103208461050E-03
  2.71268849658258364E-03  2.74680981939845904E-03  2.78136033187574615E-03
  2.81634543241273023E-03  2.85177058730572185E-03  2.88764133160290424E-03
  2.92396326996889611E-03  2.96074207756020363E-03  2.99798350091166161E-03
  3.03569335883401839E-03  3.07387754332281082E-03  3.11254202047864552E-03
  3.15169283143905280E-03  3.19133609332206006E-03  3.23147800018161024E-03
  3.27212482397500407E-03  3.31328291554246982E-03  3.35495870559907516E-03
  3.39715870573907867E-03  3.43988950945292062E-03  3.48315779315698298E-03
  3.52697031723628361E-03  3.57133392710027231E-03  3.61625555425190834E-03
  3.66174221737014917E-03  3.70780102340605416E-03  3.75443916869264106E-03
  3.80166394006870544E-03  3.84948271601674285E-03  3.89790296781517215E-03
  3.94693226070503937E-03  3.99657825507135356E-03  4.04684870763928443E-03
  4.09775147268536932E-03  4.14929450326395523E-03  4.20148585244899987E-03
  4.25433367459152403E-03  4.30784622659280414E-03  4.36203186919358402E-03
  4.41689906827947946E-03  4.47245639620273434E-03  4.52871253312062735E-03
  4.58567626835063632E-03  4.64335650174264956E-03  4.70176224506838134E-03
  4.76090262342824047E-03  4.82078687667586957E-03  4.88142436086053209E-03
  4.94282454968764280E-03  5.00499703599760915E-03  5.06795153326322721E-03
  5.13169787710589416E-03  5.19624602683081086E-03  5.26160606698148400E-03
  5.32778820891371876E-03  5.39480279238934053E-03  5.46266028718995610E-03
  5.53137129475091225E-03  5.60094654981577698E-03  5.67139692211157849E-03
  5.74273341804502381E-03  5.81496718242003642E-03  5.88810950017678615E-03
  5.96217179815255842E-03  6.03716564686469781E-03  6.11310276231587322E-03
  6.18999500782203838E-03  6.26785439586323174E-03  6.34669308995762863E-03
  6.42652340655907890E-03  6.50735781697837478E-03  6.58920894932866173E-03
  6.67208959049517703E-03  6.75601268812968218E-03  6.84099135266988834E-03
  6.92703885938414886E-03  7.01416865044180837E-03  7.10239433700942183E-03
  7.19172970137326156E-03  7.28218869908840542E-03  7.37378546115467423E-03
  7.46653429621988492E-03  7.56044969281060610E-03  7.65554632159087117E-03
  7.75183903764916065E-03  7.84934288281395436E-03  7.94807308799829783E-03
  8.04804507557365344E-03  8.14927446177346124E-03  8.25177705912676432E-03
  8.35556887892221177E-03  8.46066613370291890E-03  8.56708523979247093E-03
  8.67484281985249177E-03  8.78395570547221144E-03  8.89444093979030112E-03
  9.00631578014954304E-03  9.11959770078456765E-03  9.23430439554321497E-03
  9.35045378064183752E-03  9.46806399745494728E-03  9.58715341533977576E-03
  9.70774063449595867E-03  9.82984448886093862E-03  9.95348404904149858E-03
  1.00786786252817888E-02  1.02054477704683969E-02  1.03338112831728012E-02
  1.04637892107317960E-02  1.05954018523662617E-02  1.07286697623387387E-02
  1.08636137531503574E-02  1.10002548987775152E-02  1.11386145379488381E-02
  1.12787142774629420E-02  1.14205759955473655E-02  1.15642218452593412E-02
  1.17096742579288014E-02  1.18569559466441387E-02  1.20060899097812895E-02
  1.21570994345766101E-02  1.23100081007441377E-02  1.24648397841376785E-02
  1.26216186604583523E-02  1.27803692090081075E-02  1.29411162164897384E-02
  1.31038847808539836E-02  1.32687003151943216E-02  1.34355885516898657E-02
  1.36045755455972035E-02  1.37756876792914842E-02  1.39489516663575067E-02
  1.41243945557314420E-02  1.43020437358935947E-02  1.44819269391130365E-02
  1.46640722457445482E-02  1.48485080885786234E-02  1.50352632572450951E-02
  1.52243669026709671E-02  1.54158485415932297E-02  1.56097380611271742E-02
  1.58060657233909316E-02  1.60048621701868662E-02  1.62061584277404663E-02
  1.64099859114975218E-02  1.66163764309800489E-02  1.68253621947018657E-02
  1.70369758151444305E-02  1.72512503137935390E-02  1.74682191262377808E-02
  1.76879161073292650E-02  1.79103755364075114E-02  1.81356321225870920E-02
  1.83637210101097806E-02  1.85946777837621147E-02  1.88285384743587456E-02
  1.90653395642927416E-02  1.93051179931533617E-02  1.95479111634120038E-02
  1.97937569461773787E-02  2.00426936870203506E-02  2.02947602118693921E-02
  2.05499958329776085E-02  2.08084403549616617E-02  2.10701340809138840E-02
  2.13351178185880903E-02  2.16034328866599665E-02  2.18751211210629418E-02
  2.21502248814001608E-02  2.24287870574336572E-02  2.27108510756513157E-02
  2.29964609059125150E-02  2.32856610681735320E-02  2.35784966392931054E-02
  2.38750132599194476E-02  2.41752571414592735E-02  2.44792750731298650E-02
  2.47871144290950016E-02  2.50988231756854689E-02  2.54144498787053641E-02
  2.57340437108246889E-02  2.60576544590593109E-02  2.63853325323393471E-02
  2.67171289691663164E-02  2.70530954453606538E-02  2.73932842818997956E-02
  2.77377484528483348E-02  2.80865415933806914E-02  2.84397180078973175E-02
  2.87973326782355807E-02  2.91594412719758042E-02  2.95261001508436809E-02
  2.98973663792098977E-02  3.02732977326876755E-02  3.06539527068294473E-02
  3.10393905259232460E-02  3.14296711518899582E-02  3.18248552932820436E-02
  3.22250044143850278E-02  3.26301807444221714E-02  3.30404472868635335E-02
  3.34558678288401495E-02  3.38765069506643257E-02  3.43024300354566117E-02
  3.47337032788808051E-02  3.51703936989872443E-02  3.56125691461657429E-02
  3.60602983132086510E-02  3.65136507454849879E-02  3.69726968512265886E-02
  3.74375079119266749E-02  3.79081560928520370E-02  3.83847144536694079E-02
  3.88672569591867675E-02  3.93558584902102895E-02  3.98505948545177999E-02
  4.03515427979492802E-02  4.08587800156150621E-02  4.13723851632226622E-02
  4.18924378685224669E-02  4.24190187428732032E-02  4.29522093929275914E-02
  4.34920924324388239E-02  4.40387514941883995E-02  4.45922712420356512E-02
  4.51527373830896764E-02  4.57202366800037729E-02  4.62948569633931731E-02
  4.68766871443760114E-02  4.74658172272380413E-02  4.80623383222214123E-02
  4.86663426584375697E-02  4.92779235969044438E-02  4.98971756437083733E-02
  5.05241944632901438E-02  5.11590768918560521E-02  5.18019209509130232E-02
  5.24528258609283649E-02  5.31118920551135604E-02  5.37792211933321856E-02
  5.44549161761311365E-02  5.51390811588953825E-02  5.58318215661252962E-02
  5.65332441058360793E-02  5.72434567840790498E-02  5.79625689195832558E-02
  5.86906911585175564E-02  5.94279354893711489E-02  6.01744152579527583E-02
  6.09302451825061292E-02  6.16955413689413562E-02  6.24704213261803865E-02
  6.32550039816151960E-02  6.40494096966771204E-02  6.48537602825153547E-02
  6.56681790157829515E-02  6.64927906545282749E-02  6.73277214541891517E-02
  6.81730991836882322E-02  6.90290531416263703E-02  6.98957141725713577E-02
  7.07732146834394310E-02  7.16616886599661801E-02  7.25612716832635674E-02
  7.34721009464597979E-02  7.43943152714179462E-02  7.53280551255297859E-02
  7.62734626385802444E-02  7.72306816196786233E-02  7.81998575742509638E-02
  7.91811377210897976E-02  8.01746710094550091E-02  8.11806081362209386E-02
  8.21991015630635230E-02  8.32303055336817005E-02  8.42743760910462519E-02
  8.53314710946696670E-02  8.64017502378893187E-02  8.74853750651571477E-02
  8.85825089893274298E-02  8.96933173089344282E-02  9.08179672254512405E-02
  9.19566278605211673E-02  9.31094702731505297E-02  9.42766674768551749E-02
  9.54583944567479331E-02  9.66548281865571846E-02  9.78661476455645468E-02
  9.90925338354501500E-02  1.00334169797031594E-01  1.01591240626884585E-01
  1.02863933493830745E-01  1.04152437655277902E-01  1.05456944473398442E-01
  1.06777647431128830E-01  1.08114742147974396E-01  1.09468426395602225E-01
  1.10838900113203090E-01  1.12226365422604862E-01  1.13631026643116514E-01
  1.15053090306082559E-01  1.16492765169127252E-01  1.17950262230064107E-01
  1.19425794740450064E-01  1.20919578218757359E-01  1.22431830463139490E-01
  1.23962771563764118E-01  1.25512623914685040E-01  1.27081612225224849E-01
  1.28669963530838538E-01  1.30277907203425913E-01  1.31905674961061481E-01
  1.33553500877107378E-01  1.35221621388673302E-01  1.36910275304388818E-01
  1.38619703811447142E-01  1.40350150481883651E-01  1.42101861278044833E-01
  1.43875084557206934E-01  1.45670071075298030E-01  1.47487073989677919E-01
  1.49326348860927188E-01  1.51188153653594698E-01  1.53072748735851860E-01
  1.54980396877998444E-01  1.56911363249764679E-01  1.58865915416349396E-01
  1.60844323333134392E-01  1.62846859339010858E-01  1.64873798148252010E-01
  1.66925416840864316E-01  1.69001994851344761E-01  1.71103813955772566E-01
  1.73231158257155821E-01  1.75384314168956806E-01  1.77563570396710141E-01
  1.79769217917651186E-01  1.82001549958263731E-01  1.84260861969654577E-01
  1.86547451600660802E-01  1.88861618668589554E-01  1.91203665127486599E-01
  1.93573895033829213E-01  1.95972614509529353E-01  1.98400131702135968E-01
  2.00856756742114118E-01  2.03342801697079661E-01  2.05858580522861850E-01
  2.08404409011258562E-01  2.10980604734349986E-01  2.13587486985227309E-01
  2.16225376714989453E-01  2.18894596465854685E-01  2.21595470300230413E-01
  2.24328323725576623E-01  2.27093483614893649E-01  2.29891278122661497E-01
  2.32722036596045539E-01  2.35586089481182870E-01  2.38483768224355935E-01
  2.41415405167852704E-01  2.44381333440304688E-01  2.47381886841289922E-01
  2.50417399719977563E-01  2.53488206847586217E-01  2.56594643283418744E-01
  2.59737044234229719E-01  2.62915744906668913E-01  2.66131080352543015E-01
  2.69383385306626144E-01  2.72672994016740111E-01  2.76000240065817470E-01
  2.79365456185651173E-01  2.82768974062024614E-01  2.86211124130907768E-01
  2.89692235365397344E-01  2.93212635053057946E-01  2.96772648563322972E-01
  3.00372599104600624E-01  3.04012807470720015E-01  3.07693591776336928E-01
  3.11415267180913002E-01  3.15178145600868542E-01  3.18982535409497003E-01
  3.22828741124225160E-01  3.26717063080777192E-01  3.30647797093790385E-01
  3.34621234103436194E-01  3.38637659807572322E-01  3.42697354278942157E-01
  3.46800591566926775E-01  3.50947639283340440E-01  3.55138758171749835E-01
  3.59374201659787118E-01  3.63654215393915681E-01  3.67979036756060363E-01
  3.72348894361558824E-01  3.76764007537845391E-01  3.81224585783267123E-01
  3.85730828205427312E-01  3.90282922938429810E-01  3.94881046538395897E-01
  3.99525363356611429E-01  4.04216024889660464E-01  4.08953169105833125E-01
  4.13736919747159981E-01  4.18567385606391618E-01  4.23444659778221932E-01
  4.28368818884044933E-01  4.33339922269534772E-01  4.38358011174325490E-01
  4.43423107873070543E-01  4.48535214787179004E-01  4.53694313566407048E-01
  4.58900364139612937E-01  4.64153303733952083E-01  4.69453045861761786E-01
  4.74799479274391978E-01  4.80192466882249591E-01  4.85631844640328769E-01
  4.91117420398508364E-01  4.96648972715962700E-01  5.02226249638857758E-01
  5.07848967440690635E-01  5.13516809324675028E-01  5.19229424087495395E-01
  5.24986424743812852E-01  5.30787387110935760E-01  5.36631848353098961E-01
  5.42519305484848058E-01  5.48449213833146931E-01  5.54420985457563242E-01
  5.60433987528216493E-01  5.66487540661298139E-01  5.72580917211846785E-01
  5.78713339523598269E-01  5.84883978135810945E-01  5.91091949947046835E-01
  5.97336316336008255E-01  6.03616081239769620E-01  6.09930189189306970E-01
  6.16277523302862784E-01  6.22656903237883919E-01  6.29067083102113123E-01
  6.35506749324666997E-01  6.41974518488105828E-01  6.48468935122672008E-01
  6.54988469464110490E-01  6.61531515176917662E-01  6.68096387044099127E-01
  6.74681318625787729E-01  6.81284459889272553E-01  6.87903874812827887E-01
  6.94537538966182755E-01  7.01183337070782842E-01  7.07839060543325016E-01
  7.14502405026475995E-01  7.21170967911402006E-01  7.27842245855379266E-01
  7.34513632300278885E-01  7.41182414997640038E-01  7.47845773545996573E-01
  7.54500776946859020E-01  7.61144381186280583E-01  7.67773426849473362E-01
  7.74384636776747848E-01  7.80974613769980675E-01  7.87539838356622557E-01
  7.94076666622962613E-01  8.00581328127374592E-01  8.07049923904613720E-01
  8.13478424573319980E-01  8.19862668559670715E-01  8.26198360450952407E-01
  8.32481069494237058E-01  8.38706228256043795E-01  8.44869131455969868E-01
  8.50964934995052769E-01  8.56988655196752935E-01  8.62935168279613363E-01
  8.68799210082001783E-01  8.74575376060409138E-01  8.80258121583855302E-01
  8.85841762549330558E-01  8.91320476342134405E-01  8.96688303162889611E-01
  9.01939147753497594E-01  9.07066781548715229E-01  9.12064845282208991E-01
  9.16926852077316612E-01  9.21646191053786978E-01  9.26216131482850646E-01
  9.30629827526477271E-01  9.34880323590728479E-01  9.38960560325586280E-01
  9.42863381313569393E-01  9.46581540480924799E-01  9.50107710267903083E-01
  9.53434490595131523E-01  9.56554418663229877E-01  9.59459979623133230E-01
  9.62143618158135761E-01  9.64597751003587023E-01  9.66814780442584731E-01
  9.68787108817671827E-01  9.70507154087946633E-01  9.71967366462103799E-01
  9.73160246135531315E-01  9.74078362156664546E-01  9.74714372445529276E-01
  9.75061044986506364E-01  9.75111280190953056E-01  9.74858134449322900E-01
  9.74294844875329580E-01  9.73414855232853649E-01  9.72211843031050904E-01
  9.70679747763966594E-01  9.68812800260719142E-01  9.66605553103924486E-01
  9.64052912058496081E-01  9.61150168421721074E-01  9.57893032226851959E-01
  9.54277666192387852E-01  9.50300720293021484E-01  9.45959366810154689E-01
  9.41251335698454872E-01  9.36174950081948065E-01  9.30729161671891791E-01
  9.24913585861369514E-01  9.18728536227155779E-01  9.12175058157531971E-01
  9.05254961274900904E-01  8.97970850294888212E-01  8.90326153931136677E-01
  8.82325151421268106E-01  8.73972996215215847E-01  8.65275736329250700E-01
  8.56240330841687047E-01  8.46874661979844845E-01  8.37187542207262880E-01
  8.27188715698636057E-01  8.16888853569072926E-01  8.06299542209549136E-01
  7.95433264073886592E-01  7.84303370261374755E-01  7.72924044240078101E-01
  7.61310256169418831E-01  7.49477707241049007E-01  7.37442763555580028E-01
  7.25222379174995435E-01  7.12834008121330243E-01  7.00295505271680385E-01
  6.87625016327313654E-01  6.74840857290968654E-01  6.61961384268708208E-01
  6.49004854971610201E-01  6.35989283551448126E-01  6.22932291196604981E-01
  6.09850955655163562E-01  5.96761663745053461E-01  5.83679971982832946E-01
  5.70620481728212003E-01  5.57596736682731686E-01  5.44621152520569529E-01
  5.31704990384491927E-01  5.18858388208173538E-01  5.06090466839243969E-01
  4.93409531090804709E-01  4.80823381343422951E-01  4.68339553866425062E-01
  4.55965343588896233E-01  4.43707797697159567E-01  4.31573709846626630E-01
  4.19569614778462885E-01  4.07701783332322543E-01  3.95976217876643166E-01
  3.84398648167611656E-01  3.72974527647944643E-01  3.61709030196571302E-01
  3.50607047337151367E-01  3.39673185917307774E-01  3.28911766287356744E-01
  3.18326820961224388E-01  3.07922093774608496E-01  2.97701039550273439E-01
  2.87666824276143263E-01  2.77822325800263004E-01  2.68170135044863978E-01
  2.58712557740468918E-01  2.49451616680642280E-01  2.40389054487673476E-01
  2.31526336882242001E-01  2.22864656449883208E-01  2.14404936892559683E-01
  2.06147837751065072E-01  1.98093759581487283E-01  1.90242849567518718E-01
  1.82595007555437422E-01  1.75149892469688984E-01  1.67906929088122575E-01
  1.60865315159773592E-01  1.54024028832361687E-01  1.47381836359936957E-01
  1.40937300060342913E-01  1.34688786491532236E-01  1.28634474820407657E-01
  1.22772365359456542E-01  1.17100288200156444E-01  1.11615911948483165E-01
  1.06316752530158348E-01  1.01200182032446864E-01  9.62634375550474458E-02
  9.15036300440856404E-02  8.69177530849899738E-02  8.25026916446191111E-02
  7.82552307243891410E-02  7.41720638810326321E-02  7.02498016432272915E-02
  6.64849797942088233E-02  6.28740675053498649E-02  5.94134753094160903E-02
  5.60995629039701751E-02  5.29286467788930223E-02  4.98970076789974834E-02
  4.70008978489254645E-02  4.42365480766543778E-02  4.16001745553736951E-02
  3.90879855469194112E-02  3.66961878445718828E-02  3.44209930335943048E-02
  3.22586235479799047E-02  3.02053185280329629E-02  2.82573394841561382E-02
  2.64109757115819563E-02  2.46625495060682869E-02  2.30084211717913462E-02
  2.14449938110135678E-02  1.99687178916465452E-02  1.85760955884608989E-02
  1.72636848935627286E-02  1.60281035033661007E-02  1.48660324592920865E-02
  1.37742195168837692E-02  1.27494822825986454E-02  1.17887110984301480E-02
  1.08888716687221779E-02  1.00470074260733937E-02  9.26024163399291264E-03
  8.52577922620480037E-03  7.84090839400914709E-03  7.20300188698019383E-03
  6.60951804653690453E-03  6.05800159048767127E-03  5.54608414154743410E-03
  5.07148450473734330E-03  4.63200869991563149E-03  4.22554975678501605E-03
  3.85008728433175636E-03  3.50368682680723227E-03  3.18449898774423841E-03
  2.89075836423949078E-03  2.62078229854214272E-03  2.37296945540728908E-03
  2.14579823810409978E-03  1.93782505636334716E-03  1.74768245992945300E-03
  1.57407715655680388E-03  1.41578791925512856E-03  1.27166339021056755E-03
  1.14061981335636018E-03  1.02163870171085506E-03  9.13764451861739718E-04
  8.16101918365137583E-04  7.27813960380904366E-04  6.48118972834085360E-04
  5.76288416769268506E-04  5.11644347975318925E-04  4.53556961326136295E-04
  4.01442163899391356E-04  3.54759181919843348E-04  3.13008209333537086E-04
  2.75728105136238406E-04  2.42494145842643056E-04  2.12915839615959512E-04
  1.86634807093170483E-04  1.63322727147398208E-04  1.42679358611916876E-04
  1.24430639167809039E-04  1.08326862768625835E-04  9.41409372122739238E-05
  8.16667228950674289E-05  7.07174532646041615E-05  6.11242377665833380E-05
  5.27346450811877875E-05  4.54113653754474703E-05  3.90309529702527629E-05
  3.34826465173393073E-05  2.86672646599773563E-05  2.44961749930030464E-05
  2.08903339124539325E-05  1.77793948168929144E-05  1.51008822182869826E-05
  1.27994276253835767E-05  1.08260652917383594E-05  9.13758502486942370E-06
  7.69593862952557010E-06  6.46769692627639617E-06  5.42355430696410147E-06
  4.53787782581286504E-06  3.78829794672409604E-06  3.15533802936787899E-06
  2.62207941621366674E-06  2.17385996923749195E-06  1.79800330108179711E-06
  1.48357617502506767E-06  1.22117172148074548E-06  1.00271624245395566E-06
  8.21297502975502560E-07  6.71012568613071511E-07  5.46833250224369092E-07
  4.44487454547030720E-07  3.60354940578667440E-07  2.91375942005616043E-07
  2.34971291249468240E-07  1.88972796493187668E-07  1.51562730157116530E-07
  1.21221390979903124E-07  9.66818019913175565E-08  7.68906587124122145E-08
  6.09747936722521243E-08  4.82124659929383772E-08  3.80088495409733889E-08
  2.98751699512764835E-08  2.34110024889978290E-08  1.82892989897726580E-08
  1.42437643572018796E-08  1.10582467822852900E-08  8.55784565386102684E-09
  6.60148995936572902E-09  5.07576222993538403E-09  3.88977568253805603E-09
  2.97093931179198971E-09  2.26146897732157476E-09  1.71552301568922423E-09
  1.29685904456097574E-09  9.76923166971727791E-10  7.33297662557034951E-10
  5.48444955402960692E-10  4.08694670867235988E-10  3.03429736292595505E-10
  2.24434855363266872E-10
                              </PP_PSWFC.1>
 <PP_PSWFC.2 type="real" size="   961" l="0" columns="3" label= "0S">
 -1.54602219583712915E-04 -1.56546876059243949E-04 -1.58515993300044778E-04
 -1.60509878984590521E-04 -1.62528844661472628E-04 -1.64573205798078094E-04
 -1.66643281829882060E-04 -1.68739396210360228E-04 -1.70861876461528533E-04
 -1.73011054225119743E-04 -1.75187265314402164E-04 -1.77390849766651231E-04
 -1.79622151896281003E-04 -1.81881520348643462E-04 -1.84169308154505715E-04
 -1.86485872785210167E-04 -1.88831576208530984E-04 -1.91206784945231804E-04
 -1.93611870126334754E-04 -1.96047207551111092E-04 -1.98513177745799241E-04
 -2.01010166023063165E-04 -2.03538562542197789E-04 -2.06098762370091960E-04
 -2.08691165542958571E-04 -2.11316177128839639E-04 -2.13974207290899799E-04
 -2.16665671351514257E-04 -2.19390989857163194E-04 -2.22150588644143634E-04
 -2.24944898905105631E-04 -2.27774357256427381E-04 -2.30639405806436725E-04
 -2.33540492224491083E-04 -2.36478069810926850E-04 -2.39452597567886853E-04
 -2.42464540271040919E-04 -2.45514368542207122E-04 -2.48602558922886708E-04
 -2.51729593948725179E-04 -2.54895962224907491E-04 -2.58102158502503782E-04
 -2.61348683755774716E-04 -2.64636045260448823E-04 -2.67964756672985538E-04
 -2.71335338110833049E-04 -2.74748316233697925E-04 -2.78204224325836113E-04
 -2.81703602379378376E-04 -2.85246997178705507E-04 -2.88834962385882215E-04
 -2.92468058627168217E-04 -2.96146853580616027E-04 -2.99871922064770622E-04
 -3.03643846128486428E-04 -3.07463215141870689E-04 -3.11330625888373968E-04
 -3.15246682658037883E-04 -3.19211997341914693E-04 -3.23227189527676797E-04
 -3.27292886596425856E-04 -3.31409723820722229E-04 -3.35578344463846069E-04
 -3.39799399880306768E-04 -3.44073549617618531E-04 -3.48401461519352927E-04
 -3.52783811829490202E-04 -3.57221285298082265E-04 -3.61714575288244193E-04
 -3.66264383884493626E-04 -3.70871422002448984E-04 -3.75536409499911293E-04
 -3.80260075289341162E-04 -3.85043157451750429E-04 -3.89886403352028793E-04
 -3.94790569755716625E-04 -3.99756422947250382E-04 -4.04784738849693821E-04
 -4.09876303145974893E-04 -4.15031911401649251E-04 -4.20252369189204355E-04
 -4.25538492213931171E-04 -4.30891106441376470E-04 -4.36311048226398397E-04
 -4.41799164443847580E-04 -4.47356312620887772E-04 -4.52983361070984645E-04
 -4.58681189029578023E-04 -4.64450686791460766E-04 -4.70292755849886670E-04
 -4.76208309037425850E-04 -4.82198270668592933E-04 -4.88263576684270660E-04
 -4.94405174797947337E-04 -5.00624024643796088E-04 -5.06921097926613887E-04
 -5.13297378573649116E-04 -5.19753862888336815E-04 -5.26291559705968984E-04
 -5.32911490551323148E-04 -5.39614689798269612E-04 -5.46402204831392276E-04
 -5.53275096209636602E-04 -5.60234437832020046E-04 -5.67281317105425569E-04
 -5.74416835114502085E-04 -5.81642106793707394E-04 -5.88958261101510958E-04
 -5.96366441196789689E-04 -6.03867804617442563E-04 -6.11463523461247787E-04
 -6.19154784569000494E-04 -6.26942789709950227E-04 -6.34828755769570557E-04
 -6.42813914939693236E-04 -6.50899514911029643E-04 -6.59086819068115874E-04
 -6.67377106686710712E-04 -6.75771673133673616E-04 -6.84271830069360003E-04
 -6.92878905652557033E-04 -7.01594244748001751E-04 -7.10419209136506618E-04
 -7.19355177727728232E-04 -7.28403546775614340E-04 -7.37565730096554316E-04
 -7.46843159290280041E-04 -7.56237283963540714E-04 -7.65749571956593337E-04
 -7.75381509572540856E-04 -7.85134601809551786E-04 -7.95010372596005339E-04
 -8.05010365028589921E-04 -8.15136141613397817E-04 -8.25389284510050984E-04
 -8.35771395778900339E-04 -8.46284097631326950E-04 -8.56929032683197709E-04
 -8.67707864211506074E-04 -8.78622276414239064E-04 -8.89673974673516272E-04
 -9.00864685822032113E-04 -9.12196158412853790E-04 -9.23670162992610319E-04
 -9.35288492378116842E-04 -9.47052961936480650E-04 -9.58965409868722612E-04
 -9.71027697496973656E-04 -9.83241709555276880E-04 -9.95609354484050134E-04
 -1.00813256472825105E-03 -1.02081329703928810E-03 -1.03365353278073169E-03
 -1.04665527823787096E-03 -1.05982056493115736E-03 -1.07315144993359868E-03
 -1.08665001619213269E-03 -1.10031837285305256E-03 -1.11415865559151908E-03
 -1.12817302694521505E-03 -1.14236367665220386E-03 -1.15673282199302177E-03
 -1.17128270813708440E-03 -1.18601560849344477E-03 -1.20093382506595843E-03
 -1.21603968881292394E-03 -1.23133556001122995E-03 -1.24682382862509626E-03
 -1.26250691467944226E-03 -1.27838726863795343E-03 -1.29446737178590164E-03
 -1.31074973661777345E-03 -1.32723690722977967E-03 -1.34393145971729443E-03
 -1.36083600257729236E-03 -1.37795317711585075E-03 -1.39528565786076393E-03
 -1.41283615297935379E-03 -1.43060740470153159E-03 -1.44860218974817703E-03
 -1.46682331976490522E-03 -1.48527364176128133E-03 -1.50395603855556074E-03
 -1.52287342922502499E-03 -1.54202876956196491E-03 -1.56142505253541630E-03
 -1.58106530875867638E-03 -1.60095260696271609E-03 -1.62109005447553492E-03
 -1.64148079770754115E-03 -1.66212802264303927E-03 -1.68303495533788424E-03
 -1.70420486242340067E-03 -1.72564105161663434E-03 -1.74734687223701037E-03
 -1.76932571572949887E-03 -1.79158101619433688E-03 -1.81411625092342435E-03
 -1.83693494094345350E-03 -1.86004065156586580E-03 -1.88343699294372686E-03
 -1.90712762063558199E-03 -1.93111623617641791E-03 -1.95540658765578756E-03
 -1.98000247030320287E-03 -2.00490772708088920E-03 -2.03012624928397079E-03
 -2.05566197714822027E-03 -2.08151890046542973E-03 -2.10770105920651428E-03
 -2.13421254415245782E-03 -2.16105749753316449E-03 -2.18824011367435567E-03
 -2.21576463965258205E-03 -2.24363537595846912E-03 -2.27185667716830108E-03
 -2.30043295262402506E-03 -2.32936866712180838E-03 -2.35866834160924866E-03
 -2.38833655389132779E-03 -2.41837793934525066E-03 -2.44879719164424470E-03
 -2.47959906349045668E-03 -2.51078836735706004E-03 -2.54236997623967032E-03
 -2.57434882441721566E-03 -2.60672990822233015E-03 -2.63951828682145286E-03
 -2.67271908300470472E-03 -2.70633748398568493E-03 -2.74037874221132139E-03
 -2.77484817618186197E-03 -2.80975117128118594E-03 -2.84509318061752520E-03
 -2.88087972587474251E-03 -2.91711639817429950E-03 -2.95380885894802646E-03
 -2.99096284082186765E-03 -3.02858414851070543E-03 -3.06667865972441072E-03
 -3.10525232608528092E-03 -3.14431117405696231E-03 -3.18386130588505087E-03
 -3.22390890054947976E-03 -3.26446021472886821E-03 -3.30552158377695002E-03
 -3.34709942271126928E-03 -3.38920022721425759E-03 -3.43183057464687986E-03
 -3.47499712507499904E-03 -3.51870662230857828E-03 -3.56296589495396204E-03
 -3.60778185747930285E-03 -3.65316151129338029E-03 -3.69911194583792636E-03
 -3.74564033969364794E-03 -3.79275396170011261E-03 -3.84046017208966237E-03
 -3.88876642363554601E-03 -3.93768026281444278E-03 -3.98720933098352121E-03
 -4.03736136557229178E-03 -4.08814420128933691E-03 -4.13956577134419988E-03
 -4.19163410868455405E-03 -4.24435734724885536E-03 -4.29774372323470880E-03
 -4.35180157638308512E-03 -4.40653935127862956E-03 -4.46196559866624334E-03
 -4.51808897678413098E-03 -4.57491825271355308E-03 -4.63246230374543631E-03
 -4.69073011876409724E-03 -4.74973079964827790E-03 -4.80947356268968899E-03
 -4.86996774002930628E-03 -4.93122278111160234E-03 -4.99324825415698326E-03
 -5.05605384765262216E-03 -5.11964937186189847E-03 -5.18404476035274307E-03
 -5.24925007154502642E-03 -5.31527549027730785E-03 -5.38213132939315345E-03
 -5.44982803134721593E-03 -5.51837616983143556E-03 -5.58778645142146268E-03
 -5.65806971724367499E-03 -5.72923694466298972E-03 -5.80129924899169206E-03
 -5.87426788521962229E-03 -5.94815424976589350E-03 -6.02296988225246507E-03
 -6.09872646729983734E-03 -6.17543583634506694E-03 -6.25310996948248623E-03
 -6.33176099732730372E-03 -6.41140120290242376E-03 -6.49204302354876132E-03
 -6.57369905285929562E-03 -6.65638204263722510E-03 -6.74010490487843544E-03
 -6.82488071377863621E-03 -6.91072270776545410E-03 -6.99764429155574734E-03
 -7.08565903823850200E-03 -7.17478069138356971E-03 -7.26502316717659961E-03
 -7.35640055658046479E-03 -7.44892712752347544E-03 -7.54261732711475688E-03
 -7.63748578388707619E-03 -7.73354731006744341E-03 -7.83081690387588646E-03
 -7.92930975185261733E-03 -8.02904123121407978E-03 -8.13002691223806487E-03
 -8.23228256067838962E-03 -8.33582414020938092E-03 -8.44066781490057823E-03
 -8.54682995172198999E-03 -8.65432712308027499E-03 -8.76317610938621983E-03
 -8.87339390165387508E-03 -8.98499770413172145E-03 -9.09800493696624225E-03
 -9.21243323889831857E-03 -9.32830046999275422E-03 -9.44562471440143873E-03
 -9.56442428316038769E-03 -9.68471771702121044E-03 -9.80652378931731218E-03
 -9.92986150886524845E-03 -1.00547501229016709E-02 -1.01812091200562463E-02
 -1.03092582333609573E-02 -1.04389174432962962E-02 -1.05702069808745764E-02
 -1.07031473307610502E-02 -1.08377592344330465E-02 -1.09740636933776357E-02
 -1.11120819723283595E-02 -1.12518356025412686E-02 -1.13933463851109227E-02
 -1.15366363943266263E-02 -1.16817279810694872E-02 -1.18286437762506989E-02
 -1.19774066942914745E-02 -1.21280399366451731E-02 -1.22805669953620251E-02
 -1.24350116566969530E-02 -1.25913980047609939E-02 -1.27497504252166924E-02
 -1.29100936090181251E-02 -1.30724525561958464E-02 -1.32368525796874009E-02
 -1.34033193092138181E-02 -1.35718786952025525E-02 -1.37425570127575076E-02
 -1.39153808656764435E-02 -1.40903771905164458E-02 -1.42675732607079036E-02
 -1.44469966907174192E-02 -1.46286754402603671E-02 -1.48126378185633283E-02
 -1.49989124886772355E-02 -1.51875284718415091E-02 -1.53785151518997607E-02
 -1.55719022797677024E-02 -1.57677199779536099E-02 -1.59659987451319756E-02
 -1.61667694607709328E-02 -1.63700633898137687E-02 -1.65759121874153072E-02
 -1.67843479037335166E-02 -1.69954029887769281E-02 -1.72091102973084761E-02
 -1.74255030938061210E-02 -1.76446150574809391E-02 -1.78664802873531557E-02
 -1.80911333073866323E-02 -1.83186090716824027E-02 -1.85489429697316653E-02
 -1.87821708317289469E-02 -1.90183289339457447E-02 -1.92574540041653454E-02
 -1.94995832271793179E-02 -1.97447542503460076E-02 -1.99930051892118939E-02
 -2.02443746331959669E-02 -2.04989016513378690E-02 -2.07566257981102419E-02
 -2.10175871192956921E-02 -2.12818261579289895E-02 -2.15493839603049138E-02
 -2.18203020820522085E-02 -2.20946225942742942E-02 -2.23723880897568200E-02
 -2.26536416892430224E-02 -2.29384270477768354E-02 -2.32267883611145844E-02
 -2.35187703722054657E-02 -2.38144183777412588E-02 -2.41137782347757915E-02
 -2.44168963674143806E-02 -2.47238197735737755E-02 -2.50345960318128502E-02
 -2.53492733082344573E-02 -2.56679003634588156E-02 -2.59905265596685857E-02
 -2.63172018677261463E-02 -2.66479768743631482E-02 -2.69829027894427260E-02
 -2.73220314532945929E-02 -2.76654153441231419E-02 -2.80131075854888473E-02
 -2.83651619538630648E-02 -2.87216328862563396E-02 -2.90825754879204743E-02
 -2.94480455401242257E-02 -2.98180995080028176E-02 -3.01927945484812034E-02
 -3.05721885182712455E-02 -3.09563399819423185E-02 -3.13453082200658151E-02
 -3.17391532374329335E-02 -3.21379357713457992E-02 -3.25417172999817039E-02
 -3.29505600508300800E-02 -3.33645270092019358E-02 -3.37836819268114777E-02
 -3.42080893304292921E-02 -3.46378145306068808E-02 -3.50729236304716877E-02
 -3.55134835345922786E-02 -3.59595619579129860E-02 -3.64112274347570056E-02
 -3.68685493278975915E-02 -3.73315978376961358E-02 -3.78004440113062015E-02
 -3.82751597519427958E-02 -3.87558178282152027E-02 -3.92424918835228981E-02
 -3.97352564455124707E-02 -4.02341869355948359E-02 -4.07393596785208881E-02
 -4.12508519120138931E-02 -4.17687417964574537E-02 -4.22931084246365857E-02
 -4.28240318315304125E-02 -4.33615930041542155E-02 -4.39058738914488156E-02
 -4.44569574142147511E-02 -4.50149274750890407E-02 -4.55798689685617681E-02
 -4.61518677910297132E-02 -4.67310108508842206E-02 -4.73173860786303066E-02
 -4.79110824370334587E-02 -4.85121899312909305E-02 -4.91207996192240121E-02
 -4.97370036214871067E-02 -5.03608951317900330E-02 -5.09925684271290147E-02
 -5.16321188780220416E-02 -5.22796429587440575E-02 -5.29352382575567354E-02
 -5.35990034869281221E-02 -5.42710384937364343E-02 -5.49514442694524485E-02
 -5.56403229602945165E-02 -5.63377778773499760E-02 -5.70439135066564754E-02
 -5.77588355192362110E-02 -5.84826507810760551E-02 -5.92154673630459968E-02
 -5.99573945507479653E-02 -6.07085428542869718E-02 -6.14690240179557451E-02
 -6.22389510298240745E-02 -6.30184381312231534E-02 -6.38076008261155014E-02
 -6.46065558903396037E-02 -6.54154213807191243E-02 -6.62343166440250014E-02
 -6.70633623257789191E-02 -6.79026803788857075E-02 -6.87523940720823346E-02
 -6.96126279981894996E-02 -7.04835080821523685E-02 -7.13651615888558216E-02
 -7.22577171306989924E-02 -7.31613046749131635E-02 -7.40760555506070062E-02
 -7.50021024555212468E-02 -7.59395794624755649E-02 -7.68886220254886010E-02
 -7.78493669855516296E-02 -7.88219525760359974E-02 -7.98065184277126777E-02
 -8.08032055733623744E-02 -8.18121564519528610E-02 -8.28335149123601566E-02
 -8.38674262166082957E-02 -8.49140370426019753E-02 -8.59734954863251022E-02
 -8.70459510634773309E-02 -8.81315547105191860E-02 -8.92304587850958619E-02
 -9.03428170658073376E-02 -9.14687847512929281E-02 -9.26085184585952736E-02
 -9.37621762207687393E-02 -9.49299174836950727E-02 -9.61119031020675335E-02
 -9.73082953345045104E-02 -9.85192578377498962E-02 -9.97449556599177417E-02
 -1.00985555232736182E-01 -1.02241224362743577E-01 -1.03512132221389289E-01
 -1.04798449333987534E-01 -1.06100347567472844E-01 -1.07418000116902418E-01
 -1.08751581490648702E-01 -1.10101267494223914E-01 -1.11467235212675320E-01
 -1.12849662991487645E-01 -1.14248730415927549E-01 -1.15664618288761317E-01
 -1.17097508606275200E-01 -1.18547584532525063E-01 -1.20015030371738288E-01
 -1.21500031538789424E-01 -1.23002774527666961E-01 -1.24523446877845903E-01
 -1.26062237138477973E-01 -1.27619334830306602E-01 -1.29194930405212072E-01
 -1.30789215203288373E-01 -1.32402381407348196E-01 -1.34034621994750525E-01
 -1.35686130686439893E-01 -1.37357101893083811E-01 -1.39047730658188678E-01
 -1.40758212598072391E-01 -1.42488743838565857E-01 -1.44239520948310246E-01
 -1.46010740868514594E-01 -1.47802600839031378E-01 -1.49615298320603080E-01
 -1.51449030913127780E-01 -1.53303996269785331E-01 -1.55180392006862344E-01
 -1.57078415609104460E-01 -1.58998264330423883E-01 -1.60940135089778058E-01
 -1.62904224362032057E-01 -1.64890728063611519E-01 -1.66899841432744139E-01
 -1.68931758904082213E-01 -1.70986673977489984E-01 -1.73064779080773973E-01
 -1.75166265426124373E-01 -1.77291322860030853E-01 -1.79440139706425944E-01
 -1.81612902602799359E-01 -1.83809796329019559E-01 -1.86031003628592512E-01
 -1.88276705022075247E-01 -1.90547078612351900E-01 -1.92842299881474222E-01
 -1.95162541478753893E-01 -1.97507972999787063E-01 -1.99878760756081408E-01
 -2.02275067534943620E-01 -2.04697052349269742E-01 -2.07144870176878992E-01
 -2.09618671689016461E-01 -2.12118602967635128E-01 -2.14644805211059192E-01
 -2.17197414427616253E-01 -2.19776561116814123E-01 -2.22382369937626112E-01
 -2.25014959363437267E-01 -2.27674441323179128E-01 -2.30360920828176857E-01
 -2.33074495584223718E-01 -2.35815255588373573E-01 -2.38583282709930539E-01
 -2.41378650255101718E-01 -2.44201422514762068E-01 -2.47051654294766360E-01
 -2.49929390428234505E-01 -2.52834665269206060E-01 -2.55767502167040917E-01
 -2.58727912920957481E-01 -2.61715897214058080E-01 -2.64731442026180874E-01
 -2.67774521024903178E-01 -2.70845093934002468E-01 -2.73943105878666493E-01
 -2.77068486706734618E-01 -2.80221150285233533E-01 -2.83400993771410037E-01
 -2.86607896857525968E-01 -2.89841720988621154E-01 -2.93102308552435575E-01
 -2.96389482040671948E-01 -2.99703043180764350E-01 -3.03042772037303010E-01
 -3.06408426082261043E-01 -3.09799739233165283E-01 -3.13216420858253575E-01
 -3.16658154747765097E-01 -3.20124598050463505E-01 -3.23615380174459955E-01
 -3.27130101651407990E-01 -3.30668332963132194E-01 -3.34229613329749931E-01
 -3.37813449458346127E-01 -3.41419314251294737E-01 -3.45046645473158275E-01
 -3.48694844375275259E-01 -3.52363274277126270E-01 -3.56051259103517037E-01
 -3.59758081876644931E-01 -3.63482983162133844E-01 -3.67225159468130613E-01
 -3.70983761596591188E-01 -3.74757892945968896E-01 -3.78546607764281673E-01
 -3.82348909351813149E-01 -3.86163748212774549E-01 -3.89990020155143613E-01
 -3.93826564338000562E-01 -3.97672161265727631E-01 -4.01525530728502222E-01
 -4.05385329688589591E-01 -4.09250150112140609E-01 -4.13118516745820952E-01
 -4.16988884838095375E-01 -4.20859637805181264E-01 -4.24729084841518667E-01
 -4.28595458474819835E-01 -4.32456912065883992E-01 -4.36311517253510195E-01
 -4.40157261345016870E-01 -4.43992044653257256E-01 -4.47813677780392994E-01
 -4.51619878849630507E-01 -4.55408270686452010E-01 -4.59176377950651193E-01
 -4.62921624220878292E-01 -4.66641329033681773E-01 -4.70332704879300845E-01
 -4.73992854156839671E-01 -4.77618766092118840E-01 -4.81207313620402199E-01
 -4.84755250238089352E-01 -4.88259206827795555E-01 -4.91715688461031364E-01
 -4.95121071183397987E-01 -4.98471598787704806E-01 -5.01763379580944302E-01
 -5.04992383151731783E-01 -5.08154437145915350E-01 -5.11245224056117609E-01
 -5.14260278034727292E-01 -5.17194981739800608E-01 -5.20044563223315048E-01
 -5.22804092872373838E-01 -5.25468480414783445E-01 -5.28032472001309094E-01
 -5.30490647378155544E-01 -5.32837417164694904E-01 -5.35067020248295555E-01
 -5.37173521315146174E-01 -5.39150808534593073E-01 -5.40992591415135560E-01
 -5.42692398851926217E-01 -5.44243577386905875E-01 -5.45639289704060726E-01
 -5.46872513384506376E-01 -5.47936039947285458E-01 -5.48822474197632193E-01
 -5.49524233916123928E-01 -5.50033549918086728E-01 -5.50342466514528450E-01
 -5.50442842408091160E-01 -5.50326352059313795E-01 -5.49984487560329027E-01
 -5.49408561056924039E-01 -5.48589707758571521E-01 -5.47518889573219592E-01
 -5.46186899419563665E-01 -5.44584366261558706E-01 -5.42701760913541165E-01
 -5.40529402666766523E-01 -5.38057466790150984E-01 -5.35275992960092539E-01
 -5.32174894679995569E-01 -5.28743969741728881E-01 -5.24972911785487883E-01
 -5.20851323030104174E-01 -5.16368728233715824E-01 -5.11514589949512488E-01
 -5.06278325142806573E-01 -5.00649323236726285E-01 -4.94616965655216345E-01
 -4.88170646938446806E-01 -4.81299797483821179E-01 -4.73993907985712115E-01
 -4.66242555650943913E-01 -4.58035432252213492E-01 -4.49362374084735783E-01
 -4.40213393889337112E-01 -4.30578714802361373E-01 -4.20448806391184982E-01
 -4.09814422834815395E-01 -3.98666643270016385E-01 -3.86996914363016531E-01
 -3.74797095142980430E-01 -3.62059504117590192E-01 -3.48776968685770794E-01
 -3.34942876851365201E-01 -3.20551231228859812E-01 -3.05596705322841000E-01
 -2.90074702042310839E-01 -2.73981414364235065E-01 -2.57313888100593746E-01
 -2.40070086663636661E-01 -2.22248957702991495E-01 -2.03850501464599820E-01
 -1.84875840692480004E-01 -1.65327291863052561E-01 -1.45208437514552147E-01
 -1.24524199377653327E-01 -1.03280911978069267E-01 -8.14863963745185299E-02
 -5.91500336164176507E-02 -3.62828374676623377E-02 -1.28975258951360399E-02
  1.09914092299340290E-02  3.53676348217379088E-02  6.02129123199966546E-02
  8.55070371968352644E-02  1.11227782982057960E-01  1.37350850622034670E-01
  1.63849824038294262E-01  1.90696132793346074E-01  2.17859022809521685E-01
  2.45305536116751738E-01  2.73000500630438514E-01  3.00906530986399245E-01
  3.28984041350484702E-01  3.57191271191135529E-01  3.85484324920623289E-01
  4.13817226194757415E-01  4.42141987536174896E-01  4.70408695764728491E-01
  4.98565613479822922E-01  5.26559296572080338E-01  5.54334727315925480E-01
  5.81835461931206277E-01  6.09003791267914929E-01  6.35780912326781356E-01
  6.62107107468391520E-01  6.87921927116938781E-01  7.13164370496608857E-01
  7.37773057431305390E-01  7.61686382535873285E-01  7.84842640724994767E-01
  8.07180110602792489E-01  8.28637079666339260E-01  8.49151791497746111E-01
  8.68662291260474895E-01  8.87106150816018513E-01  9.04420285002767943E-01
  9.20541031298785839E-01  9.35404275437580646E-01  9.48945588865115375E-01
  9.61100378999463101E-01  9.71804052998095247E-01  9.80992195619998730E-01
  9.88600761814108941E-01  9.94566284659375355E-01  9.98826099270081480E-01
  1.00131858330467893E+00  1.00198341467699770E+00  1.00076184672614699E+00
  9.97597001623825252E-01  9.92434182421622180E-01  9.85221204088168712E-01
  9.75908743837372361E-01  9.64450710955872537E-01  9.50804636230181077E-01
  9.34932081043818197E-01  9.16799065815603553E-01  8.96376517285790264E-01
  8.73640734419351639E-01  8.48573872056092471E-01  8.21164441289386482E-01
  7.91407825293579004E-01  7.59306809017711415E-01  7.24872120846140944E-01
  6.88122984066642074E-01  6.49087675120839869E-01  6.07804085722587262E-01
  5.64320285441146430E-01  5.18695080622220916E-01  4.70998565110621215E-01
  4.21312657708727945E-01  3.69731620752551338E-01  3.16362553643985744E-01
  2.61325854558232151E-01  2.04755642761515505E-01  1.46800133885653661E-01
  8.76219595837673809E-02  2.73984224555190378E-02 -3.36783233712996885E-02
 -9.54011761135875325E-02 -1.57548085222547735E-01 -2.19882156354997971E-01
 -2.82151873690637323E-01 -3.44091450761451090E-01 -4.05421321673648860E-01
 -4.65848784323564247E-01 -5.25068807104384749E-01 -5.82765010336390055E-01
 -6.38610833212699625E-01 -6.92270896481742115E-01 -7.43402570810523411E-01
 -7.91657757869324019E-01 -8.36684891325470192E-01 -8.78131163960067851E-01
 -9.15644984226974490E-01 -9.48878663791282828E-01 -9.77491335177279930E-01
 -1.00115209591659871E+00 -1.01954337290467967E+00 -1.03236449750864900E+00
 -1.03933547407526783E+00 -1.04020092662450869E+00 -1.03473420102462499E+00
 -1.02274159477747117E+00 -1.00406668169546287E+00 -9.78594693184540065E-01
 -9.46256911998839101E-01 -9.07035029321585307E-01 -8.60965406945618406E-01
 -8.08143179333404738E-01 -7.48726130109090282E-01 -6.82938265685712254E-01
 -6.11073003661492642E-01 -5.33495887906491162E-01 -4.50646736892432898E-01
 -3.63041127244769168E-01 -2.71271111145387156E-01 -1.76005060512283651E-01
 -7.79865346063416953E-02  2.19679329605225182E-02  1.22972230926347209E-01
  2.24075348035714328E-01  3.24267421213362328E-01  4.22487233140656004E-01
  5.17631224840434223E-01  6.08564072517197019E-01  6.94130848317981219E-01
  7.73170767964234562E-01  8.44532495793479110E-01  9.07090942217251395E-01
  9.59765450181522151E-01  1.00153922403815487E+00  1.03147980709561971E+00
  1.04876036794900407E+00  1.05268149140309952E+00  1.04269310975665563E+00
  1.01841617777072058E+00  9.79663618593184182E-01  9.26460016621541538E-01
  8.59059482607803515E-01  7.77961070983197667E-01  6.83921093095360089E-01
  5.77961647814779211E-01  4.61374656845840003E-01  3.35720726701530803E-01
  2.02822179770117378E-01  6.47496348093549029E-02 -7.61984022015599477E-02
 -2.17523370798923810E-01 -3.56562209510450812E-01 -4.90530759525371840E-01
 -6.16574948568030301E-01 -7.31829418216755401E-01 -8.33483012454227179E-01
 -9.18850241575645987E-01 -9.85447506070478263E-01 -1.03107252359925927E+00
 -1.05388505190778581E+00 -1.05248665462630231E+00 -1.02599694593722290E+00
 -9.74123410655914568E-01 -8.97221658558021717E-01 -7.96342889594524816E-01
 -6.73265208881352217E-01 -5.30505498249039698E-01 -3.71308747972142972E-01
 -1.99612110217398386E-01 -1.99814741886080553E-02  1.62480915371594231E-01
  3.42258349200322831E-01  5.13570421792244547E-01  6.70550781052028033E-01
  8.07448497137983168E-01  9.18848097754604076E-01  9.99901674079446412E-01
  1.04656483150817925E+00  1.05582675447826269E+00  1.02592331759494826E+00
  9.56521006462374812E-01  8.48859157890904381E-01  7.05837895523253600E-01
  5.32039847522781773E-01  3.33675254078432126E-01  1.18442457083689390E-01
 -1.04700934718063382E-01 -3.25856728309352028E-01 -5.34590179998371551E-01
 -7.20409005413158221E-01 -8.73300933955613923E-01 -9.84307108169323541E-01
 -1.04610259334110656E+00 -1.05355001716473118E+00 -1.00418842080122928E+00
 -8.98617359078575539E-01 -7.40736707434156427E-01 -5.37805519408100619E-01
 -3.00290549802133433E-01 -4.14850506733573376E-02  2.23108084973802495E-01
  4.76617978178671353E-01  7.01842291129547768E-01  8.82428385536442428E-01
  1.00412891512759583E+00  1.05604366597944965E+00  1.03174508950455279E+00
  9.30178670624154824E-01  7.56230160486825342E-01  5.20863207529057681E-01
  2.40753897811116446E-01 -6.26167259591409037E-02 -3.64405936038922795E-01
 -6.38328966273107312E-01 -8.58937816659089193E-01 -1.00408477964248011E+00
 -1.05734827905099249E+00 -1.01016479726839625E+00 -8.63399190181854848E-01
 -6.28102929602500470E-01
                              </PP_PSWFC.2>
 <PP_PSWFC.3 type="real" size="   961" l="1" columns="3" label= "2P">
  1.13774011749039875E-08  1.16654214550672953E-08  1.19607330032423640E-08
  1.22635203987528689E-08  1.25739728935701004E-08  1.28922845306014660E-08
  1.32186542649737448E-08  1.35532860883864595E-08  1.38963891566131932E-08
  1.42481779202309469E-08  1.46088722586585661E-08  1.49786976175884647E-08
  1.53578851498976016E-08  1.57466718601254988E-08  1.61453007526097969E-08
  1.65540209833716917E-08  1.69730880158467431E-08  1.74027637805576338E-08
  1.78433168388292590E-08  1.82950225506484723E-08  1.87581632467726670E-08
  1.92330284051958225E-08  1.97199148320817102E-08  2.02191268472771486E-08
  2.07309764745220162E-08  2.12557836364739955E-08  2.17938763546706316E-08
  2.23455909545535117E-08  2.29112722756824334E-08  2.34912738872713924E-08
  2.40859583091807747E-08  2.46956972385038854E-08  2.53208717818897650E-08
  2.59618726937471881E-08  2.66191006204787758E-08  2.72929663508979575E-08
  2.79838910729852020E-08  2.86923066371442260E-08  2.94186558261223734E-08
  3.01633926317642711E-08  3.09269825387712712E-08  3.17099028156443870E-08
  3.25126428129926979E-08  3.33357042693931112E-08  3.41796016249934188E-08
  3.50448623430537066E-08  3.59320272396279823E-08  3.68416508215919165E-08
  3.77743016332270327E-08  3.87305626115799536E-08  3.97110314508160186E-08
  4.07163209757980636E-08  4.17470595251213038E-08  4.28038913438454073E-08
  4.38874769861684923E-08  4.49984937282945042E-08  4.61376359917527602E-08
  4.73056157774339440E-08  4.85031631106131822E-08  4.97310264972399371E-08
  5.09899733917775436E-08  5.22807906768875426E-08  5.36042851552562320E-08
  5.49612840538725092E-08  5.63526355410713071E-08  5.77792092566659198E-08
  5.92418968555006979E-08  6.07416125647643371E-08  6.22792937554105204E-08
  6.38559015280457898E-08  6.54724213136472452E-08  6.71298634894890101E-08
  6.88292640106603781E-08  7.05716850575704078E-08  7.23582156998457832E-08
  7.41899725770327471E-08  7.60681005965334967E-08  7.79937736492095412E-08
  7.99681953431008442E-08  8.19925997557200688E-08  8.40682522053890351E-08
  8.61964500421041724E-08  8.83785234584212888E-08  9.06158363208677234E-08
  9.29097870224036486E-08  9.52618093564607579E-08  9.76733734131094235E-08
  1.00145986497911818E-07  1.02681194074035451E-07  1.05280580728217081E-07
  1.07945771161179367E-07  1.10678431203120296E-07  1.13480268854909984E-07
  1.16353035355645223E-07  1.19298526277229850E-07  1.22318582646662821E-07
  1.25415092096739055E-07  1.28589990045879545E-07  1.31845260907828198E-07
  1.35182939331974279E-07  1.38605111475070732E-07  1.42113916305149083E-07
  1.45711546938440742E-07  1.49400252010143870E-07  1.53182337079891916E-07
  1.57060166072798880E-07  1.61036162756987593E-07  1.65112812258520342E-07
  1.69292662614680293E-07  1.73578326366575252E-07  1.77972482192055591E-07
  1.82477876579972566E-07  1.87097325546818834E-07  1.91833716396826305E-07
  1.96690009526621959E-07  2.01669240275565759E-07  2.06774520822932454E-07
  2.12009042133120224E-07  2.17376075950101433E-07  2.22878976842364564E-07
  2.28521184299621273E-07  2.34306224882594248E-07  2.40237714427225371E-07
  2.46319360304684269E-07  2.52554963738589991E-07  2.58948422180889305E-07
  2.65503731747885329E-07  2.72224989717930810E-07  2.79116397092351824E-07
  2.86182261221202477E-07  2.93426998495486921E-07  3.00855137107538400E-07
  3.08471319881276295E-07  3.16280307174110401E-07  3.24286979852307475E-07
  3.32496342341680873E-07  3.40913525755502913E-07  3.49543791101606346E-07
  3.58392532570670708E-07  3.67465280907750888E-07  3.76767706869159084E-07
  3.86305624766852151E-07  3.96084996102550227E-07  4.06111933293849916E-07
  4.16392703494664220E-07  4.26933732512380034E-07  4.37741608824170744E-07
  4.48823087694989679E-07  4.60185095399804675E-07  4.71834733552721371E-07
  4.83779283545697960E-07  4.96026211099621234E-07  5.08583170930597542E-07
  5.21458011534370054E-07  5.34658780091848460E-07  5.48193727498831263E-07
  5.62071313523040623E-07  5.76300212091720453E-07  5.90889316713082336E-07
  6.05847746034994814E-07  6.21184849544396514E-07  6.36910213410976980E-07
  6.53033666478801761E-07  6.69565286409606795E-07  6.86515405981611120E-07
  7.03894619547789983E-07  7.21713789657621506E-07  7.39984053846479171E-07
  7.58716831596886118E-07  7.77923831475995294E-07  7.97617058453756437E-07
  8.17808821406330758E-07  8.38511740809465786E-07  8.59738756626618015E-07
  8.81503136396760919E-07  9.03818483526944337E-07  9.26698745794759745E-07
  9.50158224066058401E-07  9.74211581233352181E-07  9.98873851380480838E-07
  1.02416044917929323E-06  1.05008717952418664E-06  1.07667024741055111E-06
  1.10392626806328726E-06  1.13187227732170612E-06  1.16052574228734761E-06
  1.18990457224131280E-06  1.22002712983798453E-06  1.25091224258211037E-06
  1.28257921459641410E-06  1.31504783868711652E-06  1.34833840871486241E-06
  1.38247173227884139E-06  1.41746914372198056E-06  1.45335251746536451E-06
  1.49014428168022139E-06  1.52786743230597925E-06  1.56654554742320741E-06
  1.60620280199039525E-06  1.64686398295377526E-06  1.68855450473966342E-06
  1.73130042513894369E-06  1.77512846159369404E-06  1.82006600789607868E-06
  1.86614115130996525E-06  1.91338269012597441E-06  1.96182015166089951E-06
  2.01148381071279269E-06  2.06240470848321967E-06  2.11461467197850560E-06
  2.16814633390214206E-06  2.22303315305070087E-06  2.27930943522610481E-06
  2.33701035467724975E-06  2.39617197608439118E-06  2.45683127710009747E-06
  2.51902617146072886E-06  2.58279553268302530E-06  2.64817921836052529E-06
  2.71521809507501743E-06  2.78395406393862883E-06  2.85443008678244310E-06
  2.92669021300807925E-06  3.00077960711899453E-06  3.07674457694868202E-06
  3.15463260260348486E-06  3.23449236613797887E-06  3.31637378198163685E-06
  3.40032802813563825E-06  3.48640757815943484E-06  3.57466623396698431E-06
  3.66515915945317475E-06  3.75794291497145073E-06  3.85307549268421970E-06
  3.95061635280805582E-06  4.05062646077644765E-06  4.15316832534319878E-06
  4.25830603765038677E-06  4.36610531128529160E-06  4.47663352335121649E-06
  4.58995975657804007E-06  4.70615484249863668E-06  4.82529140571825116E-06
  4.94744390930451193E-06  5.07268870132633653E-06  5.20110406257091013E-06
  5.33277025546853394E-06  5.46776957425583141E-06  5.60618639640882129E-06
  5.74810723537784378E-06  5.89362079465732344E-06  6.04281802322428398E-06
  6.19579217238000865E-06  6.35263885403061821E-06  6.51345610044284997E-06
  6.67834442551231917E-06  6.84740688758274678E-06  7.02074915385516052E-06
  7.19847956642748692E-06  7.38070921000576710E-06  7.56755198132921159E-06
  7.75912466035259192E-06  7.95554698323031691E-06  8.15694171714798197E-06
  8.36343473704791618E-06  8.57515510429676504E-06  8.79223514734441290E-06
  9.01481054442432432E-06  9.24302040834718840E-06  9.47700737344086331E-06
  9.71691768469077175E-06  9.96290128913659069E-06  1.02151119295821846E-05
  1.04737072406775224E-05  1.07388488474324716E-05  1.10107024662238714E-05
  1.12894380083593966E-05  1.15752296862624227E-05  1.18682561223445995E-05
  1.21687004606339665E-05  1.24767504812282321E-05  1.27925987176450999E-05
  1.31164425771424736E-05  1.34484844640839762E-05  1.37889319064268425E-05
  1.41379976854109626E-05  1.44958999685304979E-05  1.48628624458705835E-05
  1.52391144698947033E-05  1.56248911987699069E-05  1.60204337433192451E-05
  1.64259893176935252E-05  1.68418113938560449E-05  1.72681598599771587E-05
  1.77053011828374530E-05  1.81535085743409019E-05  1.86130621622421128E-05
  1.90842491651940812E-05  1.95673640722259775E-05  2.00627088267629021E-05
  2.05705930153024939E-05  2.10913340608664176E-05  2.16252574213471919E-05
  2.21726967928743901E-05  2.27339943183273108E-05  2.33095008011238744E-05
  2.38995759244197736E-05  2.45045884758542461E-05  2.51249165779830598E-05
  2.57609479245425347E-05  2.64130800226917499E-05  2.70817204413847996E-05
  2.77672870660273723E-05  2.84702083595771946E-05  2.91909236302512510E-05
  2.99298833060062136E-05  3.06875492159645291E-05  3.14643948789605126E-05
  3.22609057993875490E-05  3.30775797705306721E-05  3.39149271855734160E-05
  3.47734713564736963E-05  3.56537488409071492E-05  3.65563097774821832E-05
  3.74817182294359159E-05  3.84305525370249936E-05  3.94034056788318313E-05
  4.04008856422111653E-05  4.14236158031078874E-05  4.24722353154838235E-05
  4.35473995105951263E-05  4.46497803063707389E-05  4.57800666271461344E-05
  4.69389648340144512E-05  4.81271991660636616E-05  4.93455121927743480E-05
  5.05946652778605554E-05  5.18754390548432435E-05  5.31886339146515582E-05
  5.45350705055576762E-05  5.59155902457551609E-05  5.73310558489015029E-05
  5.87823518629520175E-05  6.02703852226204285E-05  6.17960858158116805E-05
  6.33604070643780715E-05  6.49643265195624155E-05  6.66088464724984416E-05
  6.82949945801479286E-05  7.00238245070663442E-05  7.17964165833947620E-05
  7.36138784794893898E-05  7.54773458976081457E-05  7.73879832810846295E-05
  7.93469845414322765E-05  8.13555738038298864E-05  8.34150061714537832E-05
  8.55265685091319495E-05  8.76915802468074550E-05  8.99113942033123134E-05
  9.21873974309625873E-05  9.45210120815026398E-05  9.69136962939349432E-05
  9.93669451047887926E-05  1.01882291381394935E-04  1.04461306778743821E-04
  1.07105602720525994E-04  1.09816831404962109E-04  1.12596686836047608E-04
  1.15446905880855726E-04  1.18369269353552610E-04  1.21365603126800009E-04
  1.24437779271236896E-04  1.27587717223744476E-04  1.30817384985224341E-04
  1.34128800348630673E-04  1.37524032158019608E-04  1.41005201599399103E-04
  1.44574483524177120E-04  1.48234107806033215E-04  1.51986360732052226E-04
  1.55833586428985040E-04  1.59778188325521099E-04  1.63822630651476697E-04
  1.67969439974833168E-04  1.72221206777572539E-04  1.76580587071291747E-04
  1.81050304053593538E-04  1.85633149806280841E-04  1.90331987036407242E-04
  1.95149750861259980E-04  2.00089450638381105E-04  2.05154171841761044E-04
  2.10347077985361113E-04  2.15671412595159931E-04  2.21130501230938392E-04
  2.26727753559056706E-04  2.32466665477503961E-04  2.38350821294528933E-04
  2.44383895962205938E-04  2.50569657366306320E-04  2.56911968673895078E-04
  2.63414790740099005E-04  2.70082184575530689E-04  2.76918313875891336E-04
  2.83927447615310601E-04  2.91113962705023301E-04  2.98482346719017679E-04
  3.06037200688337528E-04  3.13783241965756338E-04  3.21725307162585271E-04
  3.29868355159422901E-04  3.38217470192698664E-04  3.46777865018902580E-04
  3.55554884158451915E-04  3.64554007221179607E-04  3.73780852315490526E-04
  3.83241179543274764E-04  3.92940894582720173E-04  4.02886052361224167E-04
  4.13082860820647782E-04  4.23537684777224434E-04  4.34257049878478964E-04
  4.45247646659584293E-04  4.56516334701626025E-04  4.68070146894324188E-04
  4.79916293805808395E-04  4.92062168162115017E-04  5.04515349439139276E-04
  5.17283608569838404E-04  5.30374912769551363E-04  5.43797430482378420E-04
  5.57559536451617075E-04  5.71669816917353009E-04  5.86137074944340802E-04
  6.00970335883429184E-04  6.16178852969827468E-04  6.31772113061611568E-04
  6.47759842521944385E-04  6.64152013248565866E-04  6.80958848854196740E-04
  6.98190831001593609E-04  7.15858705897069953E-04  7.33973490946407403E-04
  7.52546481577152601E-04  7.71589258231416219E-04  7.91113693533369053E-04
  8.11131959635741947E-04  8.31656535749739881E-04  8.52700215862872354E-04
  8.74276116649326919E-04  8.96397685577614485E-04  9.19078709220320857E-04
  9.42333321770929622E-04  9.66176013772787178E-04  9.90621641065390565E-04
  1.01568543395333410E-03  1.04138300660333973E-03  1.06773036667495149E-03
  1.09474392519058280E-03  1.12244050665074669E-03  1.15083735940045106E-03
  1.17995216625284565E-03  1.20980305537639115E-03  1.24040861145192200E-03
  1.27178788710615820E-03  1.30396041462835796E-03  1.33694621797693803E-03
  1.37076582508309226E-03  1.40544028045853833E-03  1.44099115811474284E-03
  1.47744057480111231E-03  1.51481120356980166E-03  1.55312628767498165E-03
  1.59240965481456643E-03  1.63268573172259618E-03  1.67397955912064944E-03
  1.71631680703683044E-03  1.75972379050110396E-03  1.80422748562588525E-03
  1.84985554608105350E-03  1.89663631997269845E-03  1.94459886713513937E-03
  1.99377297684601336E-03  2.04418918597433757E-03  2.09587879757174239E-03
  2.14887389991724482E-03  2.20320738602617803E-03  2.25891297363411958E-03
  2.31602522566687341E-03  2.37457957120777632E-03  2.43461232697390071E-03
  2.49616071931286739E-03  2.55926290673228526E-03  2.62395800297405115E-03
  2.69028610064609179E-03  2.75828829542421093E-03  2.82800671083703820E-03
  2.89948452364736584E-03  2.97276598984336140E-03  3.04789647125344818E-03
  3.12492246279888431E-03  3.20389162039834766E-03  3.28485278953909946E-03
  3.36785603452955436E-03  3.45295266844832839E-03  3.54019528380532028E-03
  3.62963778393039739E-03  3.72133541510558715E-03  3.81534479945704009E-03
  3.91172396862323087E-03  4.01053239821624018E-03  4.11183104309309141E-03
  4.21568237345458074E-03  4.32215041178911526E-03  4.43130077067947162E-03
  4.54320069149057645E-03  4.65791908395704873E-03  4.77552656668899823E-03
  4.89609550861500910E-03  5.01970007138160656E-03  5.14641625272875894E-03
  5.27632193086112131E-03  5.40949690983505253E-03  5.54602296598168728E-03
  5.68598389538649447E-03  5.82946556244591171E-03  5.97655594952224874E-03
  6.12734520771829414E-03  6.28192570879232155E-03  6.44039209823544199E-03
  6.60284134953282101E-03  6.76937281963078952E-03  6.94008830563180596E-03
  7.11509210273942542E-03  7.29449106347559214E-03  7.47839465819228905E-03
  7.66691503690019021E-03  7.86016709243760048E-03  8.05826852500111240E-03
  8.26133990806081700E-03  8.46950475568248803E-03  8.68288959127928167E-03
  8.90162401781510737E-03  9.12584078948203668E-03  9.35567588487359186E-03
  9.59126858167544394E-03  9.83276153289517132E-03  1.00803008446539166E-02
  1.03340361555590045E-02  1.05941207176785124E-02  1.08607114791378565E-02
  1.11339691683581682E-02  1.14140583799551883E-02  1.17011476623172465E-02
  1.19954096068798158E-02  1.22970209391125643E-02  1.26061626112360659E-02
  1.29230198966848644E-02  1.32477824863278301E-02  1.35806445864598141E-02
  1.39218050185760875E-02  1.42714673209400119E-02  1.46298398519525800E-02
  1.49971358953311634E-02  1.53735737671027075E-02  1.57593769244131973E-02
  1.61547740761597419E-02  1.65599992954433076E-02  1.69752921338370000E-02
  1.74008977374660277E-02  1.78370669648915577E-02  1.82840565067879483E-02
  1.87421290073996223E-02  1.92115531877607923E-02  1.96926039706562389E-02
  2.01855626072987016E-02  2.06907168057037481E-02  2.12083608607209831E-02
  2.17387957856871941E-02  2.22823294456607340E-02  2.28392766921913307E-02
  2.34099594995739353E-02  2.39947071025294230E-02  2.45938561352489517E-02
  2.52077507717273705E-02  2.58367428673226193E-02  2.64811921014534851E-02
  2.71414661213390182E-02  2.78179406866847917E-02  2.85109998152089511E-02
  2.92210359288927191E-02  2.99484500008300389E-02  3.06936517025412567E-02
  3.14570595515994908E-02  3.22391010594201763E-02  3.30402128790588598E-02
  3.38608409528161694E-02  3.47014406594631369E-02  3.55624769608815713E-02
  3.64444245478983339E-02  3.73477679850779051E-02  3.82730018542215139E-02
  3.92206308962990066E-02  4.01911701515242220E-02  4.11851450973058156E-02
  4.22030917837156461E-02  4.32455569661356065E-02  4.43130982347230140E-02
  4.54062841403070488E-02  4.65256943163069245E-02  4.76719195962373582E-02
  4.88455621263369222E-02  5.00472354728161428E-02  5.12775647232711976E-02
  5.25371865816762970E-02  5.38267494563751392E-02  5.51469135404749622E-02
  5.64983508840033108E-02  5.78817454571531262E-02  5.92977932039055952E-02
  6.07472020852772437E-02  6.22306921113738587E-02  6.37489953615048704E-02
  6.53028559914436285E-02  6.68930302268893606E-02  6.85202863421874447E-02
  7.01854046232951029E-02  7.18891773139308937E-02  7.36324085437942977E-02
  7.54159142376811670E-02  7.72405220042257368E-02  7.91070710031018115E-02
  8.10164117892963054E-02  8.29694061329972060E-02  8.49669268136567096E-02
  8.70098573866952829E-02  8.90990919212408528E-02  9.12355347072277417E-02
  9.34200999301006418E-02  9.56537113112345266E-02  9.79373017123291723E-02
  1.00271812701748481E-01  1.02658194080654921E-01  1.05097403366842826E-01
  1.07590405234042036E-01  1.10138170904374402E-01  1.12741677491557696E-01
  1.15401907292351738E-01  1.18119847023568300E-01  1.20896487002196656E-01
  1.23732820265783638E-01  1.26629841630086420E-01  1.29588546681098732E-01
  1.32609930698391526E-01  1.35694987506611797E-01  1.38844708251886051E-01
  1.42060080099768005E-01  1.45342084851171061E-01  1.48691697473087442E-01
  1.52109884540305468E-01  1.55597602584298306E-01  1.59155796345574641E-01
  1.62785396925620246E-01  1.66487319834482866E-01  1.70262462929986369E-01
  1.74111704244467258E-01  1.78035899694776956E-01  1.82035880671813116E-01
  1.86112451505066473E-01  1.90266386797875192E-01  1.94498428629221176E-01
  1.98809283617825572E-01  2.03199619844314283E-01  2.07670063627262952E-01
  2.12221196148942054E-01  2.16853549926622508E-01  2.21567605125946115E-01
  2.26363785712112769E-01  2.31242455435225591E-01  2.36203913646372360E-01
  2.41248390941182916E-01  2.46376044627851176E-01  2.51586954016913611E-01
  2.56881115530383286E-01  2.62258437628295815E-01  2.67718735551363662E-01
  2.73261725878365502E-01  2.78887020897874705E-01  2.84594122794503857E-01
  2.90382417650495883E-01  2.96251169264257153E-01  3.02199512788277391E-01
  3.08226448189894753E-01  3.14330833539362253E-01  3.20511378130344471E-01
  3.26766635439799280E-01  3.33094995935280358E-01  3.39494679739129279E-01
  3.45963729160597755E-01  3.52500001108624894E-01  3.59101159399836833E-01
  3.65764666978902364E-01  3.72487778069153119E-01  3.79267530273485975E-01
  3.86100736650245746E-01  3.92983977789564232E-01  3.99913593918759358E-01
  4.06885677068372031E-01  4.13896063333530184E-01  4.20940325268788551E-01
  4.28013764459826862E-01  4.35111404313230754E-01  4.42227983113888667E-01
  4.49357947405566227E-01  4.56495445750791595E-01  4.63634322931712417E-01
  4.70768114658180359E-01  4.77890042854075159E-01  4.84993011598639168E-01
  4.92069603807359646E-01  4.99112078726934083E-01  5.06112370342683748E-01
  5.13062086796571504E-01  5.19952510915753008E-01  5.26774601958638677E-01
  5.33518998690603818E-01  5.40176023906498437E-01  5.46735690525590790E-01
  5.53187709387401139E-01  5.59521498857921573E-01  5.65726196400993753E-01
  5.71790672249238519E-01  5.77703545312522992E-01  5.83453201465352844E-01
  5.89027814355153945E-01  5.94415368872968974E-01  5.99603687436722543E-01
  6.04580459210033450E-01  6.09333272367162393E-01  6.13849649560473054E-01
  6.18117086693406370E-01  6.22123095098697121E-01  6.25855247207597443E-01
  6.29301225777347151E-01  6.32448876723643583E-01  6.35286265597578392E-01
  6.37801737647988420E-01  6.39983981432263205E-01  6.41822095919194147E-01
  6.43305660934550327E-01  6.44424810762877720E-01  6.45170310660660773E-01
  6.45533635970277020E-01  6.45507053457652469E-01  6.45083704428077165E-01
  6.44257688987331489E-01  6.43024150862528843E-01  6.41379362034284584E-01
  6.39320806302080769E-01  6.36847260798211967E-01  6.33958874339387801E-01
  6.30657241372929112E-01  6.26945470148697170E-01  6.22828243584487851E-01
  6.18311871121474232E-01  6.13404329844513319E-01  6.08115292922182360E-01
  6.02456143318626403E-01  5.96439970634878858E-01  5.90081548863918504E-01
  5.83397292805485246E-01  5.76405190878282792E-01  5.69124712155982149E-01
  5.61576685644706419E-01  5.53783149998132718E-01  5.45767172260219313E-01
  5.37552634746541580E-01  5.29163989880143570E-01  5.20625983729022357E-01
  5.11963350183625154E-01  5.03200479165882175E-01  4.94361064534147021E-01
  4.85467739424131572E-01  4.76541709738496244E-01  4.67602400279299668E-01
  4.58667132414212919E-01  4.49750857554758798E-01  4.40865977226775896E-01
  4.32022288290827727E-01  4.23227101328727373E-01  4.14485591665672504E-01
  4.05801455756585439E-01  3.97177839116721276E-01  3.88617785718130826E-01
  3.80124251745770858E-01  3.71700103743498711E-01  3.63348116722729209E-01
  3.55070972412605934E-01  3.46871257681553025E-01  3.38751463143896814E-01
  3.30713981956821057E-01  3.22761108820412146E-01  3.14895039189268533E-01
  3.07117868702102614E-01  2.99431592833747151E-01  2.91838106772026651E-01
  2.84339205520785454E-01  2.76936584225745630E-01  2.69631838717218408E-01
  2.62426466264383651E-01  2.55321866532146946E-01  2.48319342729419579E-01
  2.41420102935647807E-01  2.34625261590464207E-01  2.27935841131005068E-01
  2.21352773760748744E-01  2.14876903319246831E-01  2.08508987240850319E-01
  2.02249698580832749E-01  1.96099628085965594E-01  1.90059286287545343E-01
  1.84129105595118775E-01  1.78309442369729648E-01  1.72600578960935336E-01
  1.67002725682801556E-01  1.61516022702093642E-01  1.56140541838534458E-01
  1.50876288258712854E-01  1.45723202051868284E-01  1.40681159679048401E-01
  1.35749975289965213E-01  1.30929401905599846E-01  1.26219132473991996E-01
  1.21618800783671210E-01  1.17127982248485266E-01  1.12746194582372117E-01
  1.08472898370282955E-01  1.04307497549377765E-01  1.00249339816812971E-01
  9.62977169821540996E-02  9.24518652866308382E-02  8.87109657131293916E-02
  8.50741442834496570E-02  8.15404723867006465E-02  7.81089671569701050E-02
  7.47785919167334029E-02  7.15482567043515538E-02  6.84168189025197854E-02
  6.53830839827874016E-02  6.24458063857030454E-02  5.96036905384682431E-02
  5.68553920064673798E-02  5.41995188078715495E-02  5.16346328870948418E-02
  4.91592517473718391E-02  4.67718502414024295E-02  4.44708625168470303E-02
  4.22546841123583594E-02  4.01216742056329650E-02  3.80701579812089894E-02
  3.60984291179617806E-02  3.42047523958362715E-02  3.23873664023008670E-02
  3.06444863251035607E-02  2.89743068174342470E-02  2.73750049211816740E-02
  2.58447430370877251E-02  2.43816719307136109E-02  2.29839337325194216E-02
  2.16496649447550198E-02  2.03769994380937174E-02  1.91640714211664710E-02
  1.80090183701443578E-02  1.69099839061695699E-02  1.58651206092611519E-02
  1.48725927648200532E-02  1.39305790222331669E-02  1.30372749460360288E-02
  1.21908954748703707E-02  1.13896772723888415E-02  1.06318809626533457E-02
  9.91579324437831186E-03  9.23972887922951298E-03  8.60203255113371930E-03
  8.00108060054026925E-03  7.43528260978720563E-03  6.90308284961610712E-03
  6.40296159409964663E-03  5.93343629767329427E-03  5.49306263468406827E-03
  5.08043540258528055E-03  4.69418929049609645E-03  4.33299951793014986E-03
  3.99558234766867176E-03  3.68069545797737596E-03  3.38713819792597947E-03
  3.11375172638355324E-03  2.85941903685763433E-03  2.62306487290815682E-03
  2.40365553913917404E-03  2.20019861309982611E-03  2.01174256734114104E-03
  1.83737630009161491E-03  1.67622857682573788E-03  1.52746740069779853E-03
  1.39029931268174010E-03  1.26396862686503977E-03  1.14775660678747833E-03
  1.04098058868485298E-03  9.42993057893790933E-04  8.53180686809556967E-04
  7.70963330547961342E-04  6.95792992317557858E-04  6.27152766177665653E-04
  5.64555759795663456E-04  5.07544002139792322E-04  4.55687340865936798E-04
  4.08582333941658884E-04  3.65851140726848893E-04  3.27140416395915756E-04
  2.92120208379985835E-04  2.60482865120599267E-04  2.31941958832125914E-04
  2.06231224693309719E-04  1.83103519271403029E-04  1.62329800722275442E-04
  1.43698133084441354E-04  1.27012717614313075E-04  1.12092950859055905E-04
  9.87725109051406177E-05  8.68984756939890487E-05  7.63304731817382947E-05
  6.69398641006935225E-05  5.86089579531147062E-05  5.12302626663278725E-05
  4.47057682451071104E-05  3.89462648650073032E-05  3.38706936134433256E-05
  2.94055310760801297E-05  2.54842075254166767E-05  2.20465577546750859E-05
  1.90383039023862134E-05  1.64105695107670135E-05  1.41194239689961239E-05
  1.21254565374440337E-05  1.03933788387884902E-05  8.89165424821603658E-06
  7.59215392280965450E-06  6.46983806211581363E-06  5.50246117016203466E-06
  4.67030014160148950E-06  3.95590398718495881E-06  3.34386401848221162E-06
  2.82060339125006854E-06  2.37418463641535471E-06  1.99413410736171848E-06
  1.67128240694102132E-06  1.39761959469422683E-06  1.16616411997942983E-06
  9.70844470182586256E-07
                              </PP_PSWFC.3>
 <PP_PSWFC.4 type="real" size="   961" l="1" columns="3" label= "0P">
 -3.82614899983280794E-09 -3.92300842126549915E-09 -4.02231985054145896E-09
 -4.12414536053046605E-09 -4.22854859548425334E-09 -4.33559481081617791E-09
 -4.44535091388805440E-09 -4.55788550582937760E-09 -4.67326892441516346E-09
 -4.79157328802946119E-09 -4.91287254074161618E-09 -5.03724249852362099E-09
 -5.16476089663763586E-09 -5.29550743822303594E-09 -5.42956384411338861E-09
 -5.56701390391459316E-09 -5.70794352837619012E-09 -5.85244080308821756E-09
 -6.00059604353757756E-09 -6.15250185155824508E-09 -6.30825317321018483E-09
 -6.46794735812380962E-09 -6.63168422034668481E-09 -6.79956610073035201E-09
 -6.97169793089680803E-09 -7.14818729882408487E-09 -7.32914451609210106E-09
 -7.51468268683109727E-09 -7.70491777841523355E-09 -7.89996869394593413E-09
 -8.09995734657021987E-09 -8.30500873568019258E-09 -8.51525102504175262E-09
 -8.73081562290108224E-09 -8.95183726411889434E-09 -9.17845409438417026E-09
 -9.41080775655949076E-09 -9.64904347921244816E-09 -9.89331016738813892E-09
 -1.01437604956795044E-08 -1.04005510036539487E-08 -1.06638421936953614E-08
 -1.09337986313234496E-08 -1.12105890480522585E-08 -1.14943864468528757E-08
 -1.17853682102857221E-08 -1.20837162113702176E-08 -1.23896169272614468E-08
 -1.27032615558039470E-08 -1.30248461350368856E-08 -1.33545716657235713E-08
 -1.36926442369837147E-08 -1.40392751551053588E-08 -1.43946810756182212E-08
 -1.47590841387101472E-08 -1.51327121080717837E-08 -1.55157985132560144E-08
 -1.59085827956414693E-08 -1.63113104580907067E-08 -1.67242332183975718E-08
 -1.71476091666183557E-08 -1.75817029263865564E-08 -1.80267858203106898E-08
 -1.84831360395597022E-08 -1.89510388177409739E-08 -1.94307866091804758E-08
 -1.99226792717155891E-08 -2.04270242541160377E-08 -2.09441367882485323E-08
 -2.14743400861070369E-08 -2.20179655418299144E-08 -2.25753529388317956E-08
 -2.31468506621788795E-08 -2.37328159163400934E-08 -2.43336149484515810E-08
 -2.49496232772318296E-08 -2.55812259276930210E-08 -2.62288176717933819E-08
 -2.68928032751817591E-08 -2.75735977501890795E-08 -2.82716266152232071E-08
 -2.89873261607315508E-08 -2.97211437218959172E-08 -3.04735379582303805E-08
 -3.12449791402581768E-08 -3.20359494434445815E-08 -3.28469432495714763E-08
 -3.36784674557412851E-08 -3.45310417912027589E-08 -3.54051991421977660E-08
 -3.63014858850313757E-08 -3.72204622275733678E-08 -3.81627025594052546E-08
 -3.91287958108311198E-08 -4.01193458209769078E-08 -4.11349717152075600E-08
 -4.21763082920993967E-08 -4.32440064202080972E-08 -4.43387334448807440E-08
 -4.54611736053669745E-08 -4.66120284624884229E-08 -4.77920173371353564E-08
 -4.90018777598631007E-08 -5.02423659318706900E-08 -5.15142571976491228E-08
 -5.28183465295937858E-08 -5.41554490248857735E-08 -5.55264004149513944E-08
 -5.69320575878185892E-08 -5.83732991236971467E-08 -5.98510258441160130E-08
 -6.13661613749631919E-08 -6.29196527237783427E-08 -6.45124708716595565E-08
 -6.61456113801546011E-08 -6.78200950135145645E-08 -6.95369683767006837E-08
 -7.12973045695420792E-08 -7.31022038574531567E-08 -7.49527943591306175E-08
 -7.68502327516585440E-08 -7.87957049934640571E-08 -8.07904270655738609E-08
 -8.28356457316359023E-08 -8.49326393171812521E-08 -8.70827185086115831E-08
 -8.92872271724141655E-08 -9.15475431951146252E-08 -9.38650793444929277E-08
 -9.62412841526013028E-08 -9.86776428211345611E-08 -1.01175678149720791E-07
 -1.03736951487710909E-07 -1.06363063710062824E-07 -1.09055656217929524E-07
 -1.11816411964577836E-07 -1.14647056507275974E-07 -1.17549359085811486E-07
 -1.20525133728310674E-07 -1.23576240385051084E-07 -1.26704586090977508E-07
 -1.29912126157644888E-07 -1.33200865395336153E-07 -1.36572859366117424E-07
 -1.40030215668613136E-07 -1.43575095255306438E-07 -1.47209713783184051E-07
 -1.50936342998574625E-07 -1.54757312157042192E-07 -1.58675009479224391E-07
 -1.62691883643525061E-07 -1.66810445316591821E-07 -1.71033268722538943E-07
 -1.75362993251893974E-07 -1.79802325111272891E-07 -1.84354039014818808E-07
 -1.89020979918454301E-07 -1.93806064798039214E-07 -1.98712284472540263E-07
 -2.03742705473352228E-07 -2.08900471960942612E-07 -2.14188807690011119E-07
 -2.19611018024399716E-07 -2.25170492003006128E-07 -2.30870704457996182E-07
 -2.36715218186638346E-07 -2.42707686178112610E-07 -2.48851853896694284E-07
 -2.55151561622732167E-07 -2.61610746852887246E-07 -2.68233446761133398E-07
 -2.75023800722052287E-07 -2.81986052898008262E-07 -2.89124554891812866E-07
 -2.96443768466538266E-07 -3.03948268334184232E-07 -3.11642745014932564E-07
 -3.19532007768784921E-07 -3.27620987601411338E-07 -3.35914740346086370E-07
 -3.44418449823646363E-07 -3.53137431082431548E-07 -3.62077133720249161E-07
 -3.71243145290425318E-07 -3.80641194794076701E-07 -3.90277156260790994E-07
 -4.00157052419938558E-07 -4.10287058464925186E-07 -4.20673505912731446E-07
 -4.31322886561150394E-07 -4.42241856546198109E-07 -4.53437240502228290E-07
 -4.64916035827362116E-07 -4.76685417056883199E-07 -4.88752740347341708E-07
 -5.01125548074172225E-07 -5.13811573545681397E-07 -5.26818745836370287E-07
 -5.40155194742607679E-07 -5.53829255863735829E-07 -5.67849475811811511E-07
 -5.82224617553206271E-07 -5.96963665885428077E-07 -6.12075833052581407E-07
 -6.27570564502962005E-07 -6.43457544792403773E-07 -6.59746703637050111E-07
 -6.76448222119335939E-07 -6.93572539051075380E-07 -7.11130357497595077E-07
 -7.29132651467034167E-07 -7.47590672768947510E-07 -7.66515958046529809E-07
 -7.85920335986846465E-07 -8.05815934713553544E-07 -8.26215189366779839E-07
 -8.47130849874829709E-07 -8.68575988922645637E-07 -8.90564010121941606E-07
 -9.13108656388156921E-07 -9.36224018529440927E-07 -9.59924544053041628E-07
 -9.84225046194596339E-07 -1.00914071317598675E-06 -1.03468711769749900E-06
 -1.06088022667028209E-06 -1.08773641119510412E-06 -1.11527245679373379E-06
 -1.14350557389924547E-06 -1.17245340861189276E-06 -1.20213405372718675E-06
 -1.23256606004313429E-06 -1.26376844795364652E-06 -1.29576071933542067E-06
 -1.32856286973565464E-06 -1.36219540086826520E-06 -1.39667933342637584E-06
 -1.43203622021909386E-06 -1.46828815964080723E-06 -1.50545780948134762E-06
 -1.54356840108574300E-06 -1.58264375387230555E-06 -1.62270829021818250E-06
 -1.66378705072168572E-06 -1.70590570985085042E-06 -1.74909059198809101E-06
 -1.79336868788092684E-06 -1.83876767150902510E-06 -1.88531591737819323E-06
 -1.93304251825200822E-06 -1.98197730333221625E-06 -2.03215085689929809E-06
 -2.08359453742470807E-06 -2.13634049716688585E-06 -2.19042170226318285E-06
 -2.24587195333021936E-06 -2.30272590658566373E-06 -2.36101909550450241E-06
 -2.42078795302335143E-06 -2.48206983430674702E-06 -2.54490304008954112E-06
 -2.60932684060999724E-06 -2.67538150014857133E-06 -2.74310830218768968E-06
 -2.81254957520817287E-06 -2.88374871913845117E-06 -2.95675023247316711E-06
 -3.03159974007793023E-06 -3.10834402169767846E-06 -3.18703104118649335E-06
 -3.26770997647700602E-06 -3.35043125030816689E-06 -3.43524656173050914E-06
 -3.52220891840868014E-06 -3.61137266974130134E-06 -3.70279354081878885E-06
 -3.79652866724049796E-06 -3.89263663081276359E-06 -3.99117749615020573E-06
 -4.09221284820306724E-06 -4.19580583073404372E-06 -4.30202118576867874E-06
 -4.41092529404382130E-06 -4.52258621647943048E-06 -4.63707373669963699E-06
 -4.75445940462954250E-06 -4.87481658119505073E-06 -4.99822048415343667E-06
 -5.12474823508339293E-06 -5.25447890756384705E-06 -5.38749357657154488E-06
 -5.52387536912829211E-06 -5.66370951622931456E-06 -5.80708340608523269E-06
 -5.95408663871083292E-06 -6.10481108189465594E-06 -6.25935092858432867E-06
 -6.41780275572335230E-06 -6.58026558457610100E-06 -6.74684094257860482E-06
 -6.91763292675369146E-06 -7.09274826873004758E-06 -7.27229640140562014E-06
 -7.45638952729701052E-06 -7.64514268861742574E-06 -7.83867383912679033E-06
 -8.03710391779893610E-06 -8.24055692435165287E-06 -8.44915999668666894E-06
 -8.66304349028789538E-06 -8.88234105962717923E-06 -9.10718974162858376E-06
 -9.33773004124284138E-06 -9.57410601918555556E-06 -9.81646538189368715E-06
 -1.00649595737561683E-05 -1.03197438716764033E-05 -1.05809774820251554E-05
 -1.08488236400444375E-05 -1.11234497117642047E-05 -1.14050272984951176E-05
 -1.16937323439627043E-05 -1.19897452441492607E-05 -1.22932509599120539E-05
 -1.26044391324477611E-05 -1.29235042016749314E-05 -1.32506455276082216E-05
 -1.35860675147998099E-05 -1.39299797399251971E-05 -1.42825970825930930E-05
 -1.46441398594601650E-05 -1.50148339617345568E-05 -1.53949109961532006E-05
 -1.57846084295206360E-05 -1.61841697368992520E-05 -1.65938445535427097E-05
 -1.70138888306671496E-05 -1.74445649951568959E-05 -1.78861421133034499E-05
 -1.83388960586799834E-05 -1.88031096842548659E-05 -1.92790729988515005E-05
 -1.97670833480638351E-05 -2.02674455997393522E-05 -2.07804723341453451E-05
 -2.13064840389353768E-05 -2.18458093090377191E-05 -2.23987850515890689E-05
 -2.29657566960405077E-05 -2.35470784095662544E-05 -2.41431133179081295E-05
 -2.47542337317928048E-05 -2.53808213790618943E-05 -2.60232676426583154E-05
 -2.66819738046165925E-05 -2.73573512962075531E-05 -2.80498219543924500E-05
 -2.87598182847448106E-05 -2.94877837310025855E-05 -3.02341729514172484E-05
 -3.09994521020701220E-05 -3.17840991273315052E-05 -3.25886040576413299E-05
 -3.34134693147952104E-05 -3.42592100249246827E-05 -3.51263543393635916E-05
 -3.60154437635997192E-05 -3.69270334945134582E-05 -3.78616927661111889E-05
 -3.88200052039672461E-05 -3.98025691885913157E-05 -4.08099982279457938E-05
 -4.18429213393421438E-05 -4.29019834409502247E-05 -4.39878457531622918E-05
 -4.51011862100574449E-05 -4.62426998812193266E-05 -4.74130994041662963E-05
 -4.86131154276586052E-05 -4.98434970661552348E-05 -5.11050123656981662E-05
 -5.23984487815097252E-05 -5.37246136675958812E-05 -5.50843347786536614E-05
 -5.64784607845915032E-05 -5.79078617979751181E-05 -5.93734299147225984E-05
 -6.08760797683779496E-05 -6.24167490983011506E-05 -6.39963993321220184E-05
 -6.56160161828115638E-05 -6.72766102607353348E-05 -6.89792177010612844E-05
 -7.07249008069022519E-05 -7.25147487085861677E-05 -7.43498780394516006E-05
 -7.62314336285812937E-05 -7.81605892108920423E-05 -8.01385481550110712E-05
 -8.21665442093806429E-05 -8.42458422670410014E-05 -8.63777391495543781E-05
 -8.85635644105432849E-05 -9.08046811593276254E-05 -9.31024869051571478E-05
 -9.54584144225474737E-05 -9.78739326382404158E-05 -1.00350547540320985E-04
 -1.02889803110037278E-04 -1.05493282276882466E-04 -1.08162607897509456E-04
 -1.10899443759065515E-04 -1.13705495607545844E-04 -1.16582512201779433E-04
 -1.19532286393676955E-04 -1.22556656235382397E-04 -1.25657506113987925E-04
 -1.28836767914485619E-04 -1.32096422211645749E-04 -1.35438499491527851E-04
 -1.38865081403346608E-04 -1.42378302042432621E-04 -1.45980349265043382E-04
 -1.49673466035801030E-04 -1.53459951808545956E-04 -1.57342163941419317E-04
 -1.61322519147002281E-04 -1.65403494978360005E-04 -1.69587631351859750E-04
 -1.73877532107648351E-04 -1.78275866608698766E-04 -1.82785371379353220E-04
 -1.87408851784312129E-04 -1.92149183749042152E-04 -1.97009315522591558E-04
 -2.01992269483833618E-04 -2.07101143992171303E-04 -2.12339115283766529E-04
 -2.17709439414378838E-04 -2.23215454249919929E-04 -2.28860581505857980E-04
 -2.34648328836630404E-04 -2.40582291976247279E-04 -2.46666156931295473E-04
 -2.52903702227574552E-04 -2.59298801211631149E-04 -2.65855424408474898E-04
 -2.72577641936796284E-04 -2.79469625983027909E-04 -2.86535653335621369E-04
 -2.93780107980939941E-04 -3.01207483762199954E-04 -3.08822387102915632E-04
 -3.16629539796341218E-04 -3.24633781862427510E-04 -3.32840074473842991E-04
 -3.41253502952640982E-04 -3.49879279839191250E-04 -3.58722748035017838E-04
 -3.67789384021217534E-04 -3.77084801154171402E-04 -3.86614753040293827E-04
 -3.96385136991590618E-04 -4.06401997563841401E-04 -4.16671530179243738E-04
 -4.27200084835400128E-04 -4.37994169902558908E-04 -4.49060456011051389E-04
 -4.60405780030909812E-04 -4.72037149145673751E-04 -4.83961745022441889E-04
 -4.96186928080259910E-04 -5.08720241858951643E-04 -5.21569417490551834E-04
 -5.34742378275526622E-04 -5.48247244366010036E-04 -5.62092337558311637E-04
 -5.76286186196983685E-04 -5.90837530192783646E-04 -6.05755326156878879E-04
 -6.21048752653694056E-04 -6.36727215574819298E-04 -6.52800353636425195E-04
 -6.69278044002711886E-04 -6.86170408037885108E-04 -7.03487817189197098E-04
 -7.21240899003642959E-04 -7.39440543280905243E-04 -7.58097908365189710E-04
 -7.77224427578596415E-04 -7.96831815798705514E-04 -8.16932076183087431E-04
 -8.37537507043442024E-04 -8.58660708872103725E-04 -8.80314591523651446E-04
 -9.02512381554475360E-04 -9.25267629722996204E-04 -9.48594218653339119E-04
 -9.72506370665261223E-04 -9.97018655773123427E-04 -1.02214599985670689E-03
 -1.04790369300665639E-03 -1.07430739804733537E-03 -1.10137315923985904E-03
 -1.12911741116803930E-03 -1.15755698780992860E-03 -1.18670913179781050E-03
 -1.21659150386922016E-03 -1.24722219251158337E-03 -1.27861972380308598E-03
 -1.31080307145230732E-03 -1.34379166703909214E-03 -1.37760541045905700E-03
 -1.41226468057407376E-03 -1.44779034607096205E-03 -1.48420377653050929E-03
 -1.52152685370881527E-03 -1.55978198303319531E-03 -1.59899210531420661E-03
 -1.63918070867546234E-03 -1.68037184070280658E-03 -1.72259012081421559E-03
 -1.76586075285159764E-03 -1.81020953789549520E-03 -1.85566288730347451E-03
 -1.90224783597274538E-03 -1.94999205582716321E-03 -1.99892386952896196E-03
 -2.04907226441513246E-03 -2.10046690665749046E-03 -2.15313815564575385E-03
 -2.20711707859242486E-03 -2.26243546535790600E-03 -2.31912584349388195E-03
 -2.37722149350253886E-03 -2.43675646430879193E-03 -2.49776558894190901E-03
 -2.56028450042280553E-03 -2.62434964785332545E-03 -2.68999831270153207E-03
 -2.75726862527760378E-03 -2.82619958139402770E-03 -2.89683105920308243E-03
 -2.96920383620375783E-03 -3.04335960640954003E-03 -3.11934099766753882E-03
 -3.19719158911822019E-03 -3.27695592878452999E-03 -3.35867955127938872E-03
 -3.44240899561642968E-03 -3.52819182310974613E-03 -3.61607663534683522E-03
 -3.70611309221767710E-03 -3.79835192998131217E-03 -3.89284497935002936E-03
 -3.98964518356955712E-03 -4.08880661647131188E-03 -4.19038450047289849E-03
 -4.29443522450156240E-03 -4.40101636180947626E-03 -4.51018668765105265E-03
 -4.62200619678959819E-03 -4.73653612079829710E-03 -4.85383894511806809E-03
 -4.97397842583240449E-03 -5.09701960611640397E-03 -5.22302883231289417E-03
 -5.35207376959155341E-03 -5.48422341713808437E-03 -5.61954812281666768E-03
 -5.75811959724869399E-03 -5.90001092724592741E-03 -6.04529658853254163E-03
 -6.19405245768631096E-03 -6.34635582322499309E-03 -6.50228539575823262E-03
 -6.66192131712150908E-03 -6.82534516841160153E-03 -6.99263997682252406E-03
 -7.16389022118475976E-03 -7.33918183610400392E-03 -7.51860221458905062E-03
 -7.70224020905205600E-03 -7.89018613055779069E-03 -8.08253174619106424E-03
 -8.27937027440009063E-03 -8.48079637818173124E-03 -8.68690615595105534E-03
 -8.89779712992800134E-03 -9.11356823187347079E-03 -9.33431978599480114E-03
 -9.56015348883088728E-03 -9.79117238591685306E-03 -1.00274808450174849E-02
 -1.02691845257020034E-02 -1.05163903450327979E-02 -1.07692064391333043E-02
 -1.10277421203579772E-02 -1.12921078297977175E-02 -1.15624150848352321E-02
 -1.18387764214493030E-02 -1.21213053309515238E-02 -1.24101161908231113E-02
 -1.27053241892975503E-02 -1.30070452433191982E-02 -1.33153959095238805E-02
 -1.36304932878069107E-02 -1.39524549170585970E-02 -1.42813986626256044E-02
 -1.46174425950316381E-02 -1.49607048594683299E-02 -1.53113035355438142E-02
 -1.56693564867478527E-02 -1.60349811990569170E-02 -1.64082946081415756E-02
 -1.67894129145226174E-02 -1.71784513860261216E-02 -1.75755241468706809E-02
 -1.79807439526807195E-02 -1.83942219506881138E-02 -1.88160674243507131E-02
 -1.92463875215783883E-02 -1.96852869657005609E-02 -2.01328677483670476E-02
 -2.05892288034294352E-02 -2.10544656608245735E-02 -2.15286700794794505E-02
 -2.20119296581979922E-02 -2.25043274234472609E-02 -2.30059413929152544E-02
 -2.35168441136626022E-02 -2.40371021736096695E-02 -2.45667756851836380E-02
 -2.51059177397695947E-02 -2.56545738315495202E-02 -2.62127812493310221E-02
 -2.67805684348886991E-02 -2.73579543062849734E-02 -2.79449475445816206E-02
 -2.85415458422911411E-02 -2.91477351118122723E-02 -2.97634886522160635E-02
 -3.03887662725181550E-02 -3.10235133694865862E-02 -3.16676599580811916E-02
 -3.23211196525229755E-02 -3.29837885959296875E-02 -3.36555443363934920E-02
 -3.43362446473096453E-02 -3.50257262896444127E-02 -3.57238037140181972E-02
 -3.64302677001762248E-02 -3.71448839313470378E-02 -3.78673915010723228E-02
 -3.85975013499905845E-02 -3.93348946300088181E-02 -4.00792209932515561E-02
 -4.08300968031263950E-02 -4.15871032647412223E-02 -4.23497844721933414E-02
 -4.31176453698686526E-02 -4.38901496249167883E-02 -4.46667174081987542E-02
 -4.54467230809459735E-02 -4.62294927843799885E-02 -4.70143019295647391E-02
 -4.78003725847812311E-02 -4.85868707577125705E-02 -4.93729035701199331E-02
 -5.01575163223173456E-02 -5.09396894450075133E-02 -5.17183353362509202E-02
 -5.24922950814308217E-02 -5.32603350542426232E-02 -5.40211433969302462E-02
 -5.47733263782013285E-02 -5.55154046275160781E-02 -5.62458092448886379E-02
 -5.69628777853373805E-02 -5.76648501176900627E-02 -5.83498641578641328E-02
 -5.90159514771740126E-02 -5.96610327867260967E-02 -6.02829132995265290E-02
 -6.08792779725919470E-02 -6.14476866320883205E-02 -6.19855689849268809E-02
 -6.24902195214741135E-02 -6.29587923148232781E-02 -6.33882957230316596E-02
 -6.37755870018231197E-02 -6.41173668364301702E-02 -6.44101738025298354E-02
 -6.46503787678983782E-02 -6.48341792475637391E-02 -6.49575937259217057E-02
 -6.50164559630427574E-02 -6.50064093030444101E-02 -6.49229010045792171E-02
 -6.47611766157173557E-02 -6.45162744178315872E-02 -6.41830199656165945E-02
 -6.37560207540663337E-02 -6.32296610436471757E-02 -6.25980968779938779E-02
 -6.18552513354683545E-02 -6.09948100560512851E-02 -6.00102170893899931E-02
 -5.88946711137232001E-02 -5.76411220794439058E-02 -5.62422683355476780E-02
 -5.46905543041722592E-02 -5.29781687646387056E-02 -5.10970438200773411E-02
 -4.90388546274491341E-02 -4.67950199717830917E-02 -4.43567037726373126E-02
 -4.17148176165455520E-02 -3.88600244150902052E-02 -3.57827432954527652E-02
 -3.24731558399811646E-02 -2.89212137776688437E-02 -2.51166482616617982E-02
 -2.10489808657107098E-02 -1.67075364342653999E-02 -1.20814579295906773E-02
 -7.15972342540269636E-03 -1.93116540243580006E-03  3.61550748848764964E-03
  9.49168602737415074E-03  1.57088332454216467E-02  2.22784542640609810E-02
  2.92120629783441839E-02  3.65211454063766178E-02  4.42171195228482222E-02
  5.23112913947343383E-02  6.08148074384997489E-02  6.97386026086912469E-02
  7.90933443616341214E-02  8.88893722532897584E-02  9.91366329767666143E-02
  1.09844610710676388E-01  1.21022252654750667E-01  1.32677889647522834E-01
  1.44819151784842365E-01  1.57452878984628619E-01  1.70585026455104649E-01
  1.84220565141477555E-01  1.98363377203509578E-01  2.13016146604261797E-01
  2.28180245002839011E-01  2.43855613192350579E-01  2.60040638397934842E-01
  2.76732027832494953E-01  2.93924678992591948E-01  3.11611547265841504E-01
  3.29783511639991700E-01  3.48429239266427715E-01  3.67535049828563165E-01
  3.87084780825972696E-01  4.07059655022016575E-01  4.27438151463044536E-01
  4.48195881645755467E-01  4.69305472575110960E-01  4.90736458660384400E-01
  5.12455184599994840E-01  5.34424721481859266E-01  5.56604798588339666E-01
  5.78951753541733671E-01  6.01418503565551932E-01  6.23954540753549503E-01
  6.46505954317899700E-01  6.69015482848277165E-01  6.91422599521025250E-01
  7.13663633027612265E-01  7.35671926876838911E-01  7.57378039285970917E-01
  7.78709985342674216E-01  7.99593522371248477E-01  8.19952478432354304E-01
  8.39709122592324664E-01  8.58784574032624981E-01  8.77099244427400837E-01
  8.94573305839478583E-01  9.11127173057991513E-01  9.26681985015690879E-01
  9.41160065002490165E-01  9.54485333324297303E-01  9.66583638717862903E-01
  9.77382966066708048E-01  9.86813467251698828E-01  9.94807248768241892E-01
  1.00129783505834991E+00  1.00621934480351571E+00  1.00950621699356780E+00
  1.01109344218329600E+00  1.01091683264586707E+00  1.00891331498152437E+00
  1.00502124591670472E+00  9.99180751922904675E-01  9.91334093198363187E-01
  9.81426052871816723E-01  9.69404351802280018E-01  9.55220089283330132E-01
  9.38828209798046154E-01  9.20187995770129108E-01  8.99263586042974183E-01
  8.76024519684196812E-01  8.50446303873250709E-01  8.22511004860225325E-01
  7.92207860619963733E-01  7.59533913137104499E-01  7.24494657917024165E-01
  6.87104707834510942E-01  6.47388467908297960E-01  6.05380817087253442E-01
  5.61127792528640534E-01  5.14687270686488119E-01  4.66129639836251886E-01
  4.15538457427587549E-01  3.63011084946523843E-01  3.08659292303009480E-01
  2.52609823025519986E-01  1.95004910808996040E-01  1.36002737273218960E-01
  7.57778198775609368E-02  1.45213184120959841E-02 -4.75587519191608965E-02
 -1.10237413745218504E-01 -1.73272740446002493E-01 -2.36406002509141677E-01
 -2.99361961431428958E-01 -3.61849325514836118E-01 -4.23561382275535747E-01
 -4.84176821319325101E-01 -5.43360761681851212E-01 -6.00765997624752579E-01
 -6.56034475737174549E-01 -7.08799015377613473E-01 -7.58685283296535506E-01
 -8.05314031781250383E-01 -8.48303608131884546E-01 -8.87272741381886387E-01
 -9.21843606457556475E-01 -9.51645167468113673E-01 -9.76316796470218518E-01
 -9.95512159889316406E-01 -1.00890336067976238E+00 -1.01618531943498125E+00
 -1.01708037229687309E+00 -1.01134305878716457E+00 -9.98765063690807420E-01
 -9.79180269160948469E-01 -9.52469872386965788E-01 -9.18567511210339971E-01
 -8.77464333035539723E-01 -8.29213934227449156E-01 -7.73937088726852296E-01
 -7.11826176318839599E-01 -6.43149213901416883E-01 -5.68253379272698034E-01
 -4.87567916379044453E-01 -4.01606304145026960E-01 -3.10967562321969371E-01
 -2.16336565174311463E-01 -1.18483231732435385E-01 -1.82604614207489066E-02
  8.33993135566998695E-02  1.85489083057098464E-01  2.86933833816818362E-01
  3.86598843186548968E-01  4.83299775655116837E-01  5.75814643018492056E-01
  6.62897661573835784E-01  7.43295006934239333E-01  8.15762428690952945E-01
  8.79084646719021201E-01  9.32096393903006692E-01  9.73704909137902308E-01
  1.00291364353308410E+00  1.01884686426835502E+00  1.02077477427312657E+00
  1.00813869548758595E+00  9.80575791902815852E-01  9.37942739076207621E-01
  8.80337685996855579E-01  8.08119765422911418E-01  7.21925389106867210E-01
  6.22680524393828594E-01  5.11608111237779495E-01  3.90229781784268093E-01
  2.60361066656621787E-01  1.24099322482101385E-01 -1.61963019369895829E-02
 -1.57933429792206925E-01 -2.98323955167126731E-01 -4.34430669618989740E-01
 -5.63222982115854309E-01 -6.81641408040843055E-01 -7.86670174886815121E-01
 -8.75416928210728251E-01 -9.45198127167619195E-01 -9.93628319157205286E-01
 -1.01871102091563337E+00 -1.01892850173925020E+00 -9.93327447253770868E-01
 -9.41597075998941047E-01 -8.64136012798256359E-01 -7.62104042571058016E-01
 -6.37454811447894287E-01 -4.92945640797004869E-01 -3.32120901294456761E-01
 -1.59265816320356801E-01  2.06716194133784344E-02  2.02192010303168468E-01
  3.79389457774181371E-01  5.46128784046534199E-01  6.96252243800881132E-01
  8.23811079309353711E-01  9.23315376977402624E-01  9.89993736433362082E-01
  1.02005222211378888E+00  1.01092060658150440E+00  9.61472459252077583E-01
  8.72204733528459397E-01  7.45362250872189436E-01  5.84992994857032267E-01
  3.96921556349456195E-01  1.88630527465172726E-01 -3.09569372660209036E-02
 -2.51795398202055876E-01 -4.63132585703721955E-01 -6.54012023357797401E-01
 -8.13845690115028275E-01 -9.33032294976205989E-01 -1.00358969730294900E+00
 -1.01976380837900038E+00 -9.78571638198133087E-01 -8.80233062803595034E-01
 -7.28446656243259438E-01 -5.30468515297805809E-01 -2.96960336116046719E-01
 -4.15846636524279667E-02  2.19659141381369105E-01  4.69345484784708500E-01
  6.89745140373819621E-01  8.64102222778109330E-01  9.77984663664717924E-01
  1.02060793768583058E+00  9.86017083803711225E-01  8.74005134839992093E-01
  6.90649436228978675E-01  4.48362832902852726E-01  1.65385434226846206E-01
 -1.35315512692349760E-01 -4.27716960765998244E-01 -6.84899299242403448E-01
 -8.81545567566887733E-01 -9.96571726104717892E-01 -1.01562905923957958E+00
 -9.33189951000119700E-01
                              </PP_PSWFC.4>
                             </PP_FULL_WFC> 
 <PP_RHOATOM type="real" size="   961" columns="3">
  2.08647663236770642E-07  2.13929603932853372E-07  2.19345257591906798E-07
  2.24898009173583772E-07  2.30591329328193085E-07  2.36428776565966068E-07
  2.42413999481244005E-07  2.48550739032966912E-07  2.54842830882891366E-07
  2.61294207793008227E-07  2.67908902083643454E-07  2.74691048153787590E-07
  2.81644885065231554E-07  2.88774759192117200E-07  2.96085126937561924E-07
  3.03580557519052186E-07  3.11265735824357181E-07  3.19145465339731107E-07
  3.27224671152248287E-07  3.35508403028146635E-07  3.44001838569087563E-07
  3.52710286448328575E-07  3.61639189728817400E-07  3.70794129265277375E-07
  3.80180827192427611E-07  3.89805150501498936E-07  3.99673114707292097E-07
  4.09790887608072572E-07  4.20164793140640339E-07  4.30801315332996629E-07
  4.41707102357071317E-07  4.52888970684042153E-07  4.64353909344851880E-07
  4.76109084298578431E-07  4.88161842911388932E-07  5.00519718548882082E-07
  5.13190435284682951E-07  5.26181912728239718E-07  5.39502270974834399E-07
  5.53159835680904529E-07  5.67163143267846823E-07  5.81520946257552781E-07
  5.96242218743021586E-07  6.11336161997452728E-07  6.26812210225343172E-07
  6.42680036459163544E-07  6.58949558605315095E-07  6.75630945643146461E-07
  6.92734623980881594E-07  7.10271283972475789E-07  7.28251886599412644E-07
  7.46687670321683568E-07  7.65590158102177696E-07  7.84971164608908594E-07
  8.04842803599560469E-07  8.25217495492972215E-07  8.46107975132298351E-07
  8.67527299744698115E-07  8.89488857102513475E-07  9.12006373891067276E-07
  9.35093924288266313E-07  9.58765938761425588E-07  9.83037213086762797E-07
  1.00792291759723884E-06  1.03343860666449713E-06  1.05960022842084511E-06
  1.08642413472733869E-06  1.11392709139422941E-06  1.14212628866011660E-06
  1.17103935193641272E-06  1.20068435282376790E-06  1.23107982040740635E-06
  1.26224475283839648E-06  1.29419862920808681E-06  1.32696142172318030E-06
  1.36055360818897157E-06  1.39499618480864384E-06  1.43031067930655645E-06
  1.46651916438374946E-06  1.50364427151409994E-06  1.54170920508968282E-06
  1.58073775692427273E-06  1.62075432112397302E-06  1.66178390933429117E-06
  1.70385216637323302E-06  1.74698538626009808E-06  1.79121052865007954E-06
  1.83655523568490391E-06  1.88304784927002949E-06  1.93071742878923788E-06
  1.97959376926765798E-06  2.02970741999458708E-06  2.08108970361776007E-06
  2.13377273572098523E-06  2.18778944489739528E-06  2.24317359333083222E-06
  2.29995979789827904E-06  2.35818355180648620E-06  2.41788124677632530E-06
  2.47909019578876451E-06  2.54184865640661844E-06  2.60619585468673548E-06
  2.67217200969747871E-06  2.73981835865690317E-06  2.80917718270730571E-06
  2.88029183334221708E-06  2.95320675950243962E-06  3.02796753535799904E-06
  3.10462088879340841E-06  3.18321473061404652E-06  3.26379818449184384E-06
  3.34642161766911178E-06  3.43113667243960004E-06  3.51799629842650602E-06
  3.60705478567762164E-06  3.69836779859823894E-06  3.79199241074310207E-06
  3.88798714048911772E-06  3.98641198761110381E-06  4.08732847078348511E-06
  4.19079966603128010E-06  4.29689024615454442E-06  4.40566652115079475E-06
  4.51719647966075279E-06  4.63154983146330295E-06  4.74879805104613279E-06
  4.86901442227945174E-06  4.99227408422057506E-06  5.11865407807805861E-06
  5.24823339536475368E-06  5.38109302726978702E-06  5.51731601528047110E-06
  5.65698750308564889E-06  5.80019478979299607E-06  5.94702738449349770E-06
  6.09757706220727223E-06  6.25193792124555150E-06  6.41020644202488956E-06
  6.57248154737019177E-06  6.73886466434429318E-06  6.90945978764283745E-06
  7.08437354459385146E-06  7.26371526180289130E-06  7.44759703348526115E-06
  7.63613379152803008E-06  7.82944337732575878E-06  8.02764661543456795E-06
  8.23086738909092096E-06  8.43923271764204209E-06  8.65287283593653258E-06
  8.87192127572475688E-06  9.09651494911977552E-06  9.32679423417116784E-06
  9.56290306260514474E-06  9.80498900978568021E-06  1.00532033869531975E-05
  1.03077013357979794E-05  1.05686419254279213E-05  1.08361882517908996E-05
  1.11105075396139762E-05  1.13917712469233201E-05  1.16801551722097406E-05
  1.19758395643073897E-05  1.22790092350538199E-05  1.25898536748020579E-05
  1.29085671708569675E-05  1.32353489289094726E-05  1.35704031975451896E-05
  1.39139393959047775E-05  1.42661722445759667E-05  1.46273218997992311E-05
  1.49976140910705669E-05  1.53772802622278831E-05  1.57665577161088246E-05
  1.61656897628705440E-05  1.65749258720642527E-05  1.69945218285592523E-05
  1.74247398924143326E-05  1.78658489627961666E-05  1.83181247460471676E-05
  1.87818499280080614E-05  1.92573143507024902E-05  1.97448151934945484E-05
  2.02446571588320660E-05  2.07571526626918630E-05  2.12826220298463125E-05
  2.18213936940725308E-05  2.23738044034300293E-05  2.29401994307348324E-05
  2.35209327893615414E-05  2.41163674545084247E-05  2.47268755900634022E-05
  2.53528387812133504E-05  2.59946482729415287E-05  2.66527052145623802E-05
  2.73274209104468888E-05  2.80192170770943139E-05  2.87285261067118727E-05
  2.94557913374667511E-05  3.02014673305790684E-05  3.09660201544296538E-05
  3.17499276758591214E-05  3.25536798588414833E-05  3.33777790707182794E-05
  3.42227403961844649E-05  3.50890919592230689E-05  3.59773752531887295E-05
  3.68881454792472434E-05  3.78219718933825279E-05  3.87794381621872674E-05
  3.97611427276606171E-05  4.07676991812394194E-05  4.17997366472985980E-05
  4.28579001763587734E-05  4.39428511482473625E-05  4.50552676854661273E-05
  4.61958450770209758E-05  4.73652962129820650E-05  4.85643520300430871E-05
  4.97937619683597554E-05  5.10542944399526401E-05  5.23467373089663257E-05
  5.36718983840859021E-05  5.50306059234185766E-05  5.64237091521547148E-05
  5.78520787933339191E-05  5.93166076120445334E-05  6.08182109734008920E-05
  6.23578274146426872E-05  6.39364192317177469E-05  6.55549730807117683E-05
  6.72145005945026829E-05  6.89160390150237850E-05  7.06606518415323884E-05
  7.24494294952868667E-05  7.42834900010493998E-05  7.61639796858389051E-05
  7.80920738953711695E-05  8.00689777286350672E-05  8.20959267910609751E-05
  8.41741879667560355E-05  8.63050602102843981E-05  8.84898753584904043E-05
  9.07299989628712096E-05  9.30268311430179759E-05  9.53818074616593985E-05
  9.77963998218555112E-05  1.00272117386899359E-04  1.02810507523505400E-04
  1.05413156768870416E-04  1.08081691822211834E-04  1.10817780561406099E-04
  1.13623133085356422E-04  1.16499502782747128E-04  1.19448687427848977E-04
  1.22472530304059362E-04  1.25572921355883226E-04  1.28751798370069600E-04
  1.32011148186645267E-04  1.35353007940600410E-04  1.38779466335002630E-04
  1.42292664946333915E-04  1.45894799562866148E-04  1.49588121556913601E-04
  1.53374939291815265E-04  1.57257619564528373E-04  1.61238589084737008E-04
  1.65320335991393476E-04  1.69505411407644494E-04  1.73796431035113351E-04
  1.78196076788530788E-04  1.82707098471739142E-04  1.87332315496112920E-04
  1.92074618642473787E-04  1.96936971867597399E-04  2.01922414156437276E-04
  2.07034061421232233E-04  2.12275108448671860E-04  2.17648830896345407E-04
  2.23158587339715594E-04  2.28807821370896218E-04  2.34600063750548172E-04
  2.40538934614233519E-04  2.46628145734605520E-04  2.52871502840850933E-04
  2.59272907996828123E-04  2.65836362039392640E-04  2.72565967078423476E-04
  2.79465929060119481E-04  2.86540560395163275E-04  2.93794282653390710E-04
  3.01231629326656545E-04  3.08857248661609587E-04  3.16675906564156033E-04
  3.24692489577419906E-04  3.32912007935059497E-04  3.41339598691848178E-04
  3.49980528933470164E-04  3.58840199067538197E-04  3.67924146197887126E-04
  3.77238047584245472E-04  3.86787724189453178E-04  3.96579144316428910E-04
  4.06618427337163786E-04  4.16911847516068996E-04  4.27465837930055719E-04
  4.38286994487805878E-04  4.49382080050730437E-04  4.60758028658194709E-04
  4.72421949859643409E-04  4.84381133156324870E-04  4.96643052555397271E-04
  5.09215371239243593E-04  5.22105946352919019E-04  5.35322833912715759E-04
  5.48874293838900454E-04  5.62768795115774711E-04  5.77015021082262405E-04
  5.91621874856339464E-04  6.06598484896680936E-04  6.21954210704989564E-04
  6.37698648672573357E-04  6.53841638074807675E-04  6.70393267217225374E-04
  6.87363879737065610E-04  7.04764081064206756E-04  7.22604745045516772E-04
  7.40897020736749033E-04  7.59652339366211006E-04  7.78882421474558326E-04
  7.98599284235148427E-04  8.18815248959533734E-04  8.39542948792756363E-04
  8.60795336603245196E-04  8.82585693072234986E-04  9.04927634987739613E-04
  9.27835123748248637E-04  9.51322474081456814E-04  9.75404362983425571E-04
  1.00009583888378741E-03  1.02541233104265863E-03  1.05136965918513695E-03
  1.07798404337938487E-03  1.10527211416441883E-03  1.13325092293395575E-03
  1.16193795258272953E-03  1.19135112842194343E-03  1.22150882937063516E-03
  1.25242989942990490E-03  1.28413365944717744E-03  1.31663991917778259E-03
  1.34996898965138038E-03  1.38414169585091571E-03  1.41917938971197191E-03
  1.45510396345063819E-03  1.49193786322813853E-03  1.52970410316074666E-03
  1.56842627968368413E-03  1.60812858627791522E-03  1.64883582856901632E-03
  1.69057343980746552E-03  1.73336749674000480E-03  1.77724473588190541E-03
  1.82223257020023817E-03  1.86835910621854740E-03  1.91565316155347504E-03
  1.96414428289429319E-03  2.01386276443646242E-03  2.06483966678063305E-03
  2.11710683630887686E-03  2.17069692505009269E-03  2.22564341104695106E-03
  2.28198061923699964E-03  2.33974374286083885E-03  2.39896886541067327E-03
  2.45969298313281895E-03  2.52195402809808665E-03  2.58579089185437738E-03
  2.65124344967606652E-03  2.71835258542524674E-03  2.78716021704017046E-03
  2.85770932266668021E-03  2.93004396744880099E-03  3.00420933099500775E-03
  3.08025173553721793E-03  3.15821867479984227E-03  3.23815884359677933E-03
  3.32012216817461053E-03  3.40415983732070791E-03  3.49032433425551514E-03
  3.57866946932861073E-03  3.66925041353875336E-03  3.76212373289862246E-03
  3.85734742366530565E-03  3.95498094845842148E-03  4.05508527328793476E-03
  4.15772290551462333E-03  4.26295793276647381E-03  4.37085606283493019E-03
  4.48148466457562369E-03  4.59491280983862199E-03  4.71121131645403299E-03
  4.83045279229933969E-03  4.95271168047550694E-03  5.07806430561961140E-03
  5.20658892138236087E-03  5.33836575909967404E-03  5.47347707768803312E-03
  5.61200721479430172E-03  5.75404263923121485E-03  5.89967200473064893E-03
  6.04898620504755458E-03  6.20207843044823150E-03  6.35904422561737147E-03
  6.51998154901934149E-03  6.68499083374979233E-03  6.85417504991476644E-03
  7.02763976857527332E-03  7.20549322729626719E-03  7.38784639733994306E-03
  7.57481305254412846E-03  7.76650983992768860E-03  7.96305635206576157E-03
  8.16457520127879428E-03  8.37119209568024103E-03  8.58303591712910978E-03
  8.80023880113444540E-03  9.02293621876006438E-03  9.25126706057914638E-03
  9.48537372272916478E-03  9.72540219511923432E-03  9.97150215184291165E-03
  1.02238270438508999E-02  1.04825341939394859E-02  1.07477848941115364E-02
  1.10197445053687761E-02  1.12985825599949338E-02  1.15844728663911465E-02
  1.18775936165262993E-02  1.21781274960664574E-02  1.24862617972491350E-02
  1.28021885345697296E-02  1.31261045633489157E-02  1.34582117012516100E-02
  1.37987168528294641E-02  1.41478321371609761E-02  1.45057750186645580E-02
  1.48727684411620962E-02  1.52490409652720916E-02  1.56348269092133584E-02
  1.60303664931021744E-02  1.64359059868277244E-02  1.68516978615925357E-02
  1.72780009452066820E-02  1.77150805812267102E-02  1.81632087920318222E-02
  1.86226644459326872E-02  1.90937334284098474E-02  1.95767088175814556E-02
  2.00718910640013820E-02  2.05795881748921453E-02  2.11001159029187285E-02
  2.16337979396119227E-02  2.21809661135524382E-02  2.27419605934291412E-02
  2.33171300960876987E-02  2.39068320996881738E-02  2.45114330620927780E-02
  2.51313086446078651E-02  2.57668439412065131E-02  2.64184337133613091E-02
  2.70864826306196210E-02  2.77714055170561365E-02  2.84736276037405867E-02
  2.91935847873614346E-02  2.99317238951495208E-02  3.06885029562483785E-02
  3.14643914796810809E-02  3.22598707390669634E-02  3.30754340642438194E-02
  3.39115871399557275E-02  3.47688483117682828E-02  3.56477488993775030E-02
  3.65488335174823306E-02  3.74726604043928713E-02  3.84198017585501567E-02
  3.93908440831372275E-02  4.03863885389641811E-02  4.14070513058142284E-02
  4.24534639524402624E-02  4.35262738154058790E-02  4.46261443869679572E-02
  4.57537557122018393E-02  4.69098047955727876E-02  4.80950060171624061E-02
  4.93100915587635844E-02  5.05558118400575851E-02  5.18329359650928842E-02
  5.31422521792892094E-02  5.44845683371931455E-02  5.58607123812161002E-02
  5.72715328315887354E-02  5.87178992877697703E-02  6.02007029415507766E-02
  6.17208571021017338E-02  6.32792977332048284E-02  6.48769840029338463E-02
  6.65148988460315255E-02  6.81940495392444612E-02  6.99154682898785462E-02
  7.16802128378411924E-02  7.34893670714406588E-02  7.53440416572136312E-02
  7.72453746840586625E-02  7.91945323219523239E-02  8.11927094955296608E-02
  8.32411305728114476E-02  8.53410500693725649E-02  8.74937533682348528E-02
  8.97005574557746543E-02  9.19628116739394930E-02  9.42818984890695100E-02
  9.66592342776192437E-02  9.90962701290776654E-02  1.01594492666385469E-01
  1.04155424884147793E-01  1.06780627004938108E-01  1.09471697353999781E-01
  1.12230273252649670E-01  1.15058031930668880E-01  1.17956691457983057E-01
  1.20928011695927567E-01  1.23973795268389780E-01  1.27095888553120040E-01
  1.30296182693496299E-01  1.33576614631026963E-01  1.36939168158862423E-01
  1.40385874996591720E-01  1.43918815886613261E-01  1.47540121712310623E-01
  1.51251974638294234E-01  1.55056609272951479E-01  1.58956313853540920E-01
  1.62953431454050668E-01  1.67050361216035587E-01  1.71249559602627416E-01
  1.75553541675894736E-01  1.79964882397723680E-01  1.84486217954409254E-01
  1.89120247105046296E-01  1.93869732553842405E-01  1.98737502346446521E-01
  2.03726451290366373E-01  2.08839542399512135E-01  2.14079808362887952E-01
  2.19450353037414947E-01  2.24954352964818999E-01  2.30595058912536538E-01
  2.36375797438562851E-01  2.42299972480019749E-01  2.48371066965273030E-01
  2.54592644449363192E-01  2.60968350772465940E-01  2.67501915741046092E-01
  2.74197154831316514E-01  2.81057970914550925E-01  2.88088356003693813E-01
  2.95292393020817445E-01  3.02674257584740036E-01  3.10238219818035676E-01
  3.17988646172674083E-01  3.25930001273416370E-01  3.34066849778005770E-01
  3.42403858253094773E-01  3.50945797064755149E-01  3.59697542282271410E-01
  3.68664077593840234E-01  3.77850496232896182E-01  3.87262002913234427E-01
  3.96903915771226190E-01  4.06781668313264011E-01  4.16900811366410218E-01
  4.27267015030064590E-01  4.37886070626305191E-01  4.48763892646369900E-01
  4.59906520690448128E-01  4.71320121398213110E-01  4.83010990366880832E-01
  4.94985554053334720E-01  5.07250371656872701E-01  5.19812136978801909E-01
  5.32677680254868058E-01  5.45853969956234697E-01  5.59348114554447218E-01
  5.73167364245384059E-01  5.87319112627212814E-01  6.01810898327205468E-01
  6.16650406571072840E-01  6.31845470688814803E-01  6.47404073550574166E-01
  6.63334348925567086E-01  6.79644582756754767E-01  6.96343214343492445E-01
  7.13438837423797323E-01  7.30940201147462387E-01  7.48856210931739041E-01
  7.67195929189009806E-01  7.85968575916341283E-01  8.05183529136200726E-01
  8.24850325176949672E-01  8.44978658781093572E-01  8.65578383028637210E-01
  8.86659509062087903E-01  9.08232205598650699E-01  9.30306798216356645E-01
  9.52893768397492735E-01  9.76003752312854966E-01  9.99647539329898915E-01
  1.02383607022672907E+00  1.04858043509298793E+00  1.07389187089775451E+00
  1.09978175870347661E+00  1.12626162050332512E+00  1.15334311566111447E+00
  1.18103803692871390E+00  1.20935830601510586E+00  1.23831596868125726E+00
  1.26792318933324188E+00  1.29819224508480757E+00  1.32913551925928952E+00
  1.36076549429928839E+00  1.39309474405015932E+00  1.42613592538591161E+00
  1.45990176914071679E+00  1.49440507030745295E+00  1.52965867746527917E+00
  1.56567548139590262E+00  1.60246840284652503E+00  1.64005037939582010E+00
  1.67843435137743913E+00  1.71763324681236096E+00  1.75765996530520296E+00
  1.79852736085262732E+00  1.84024822350927875E+00  1.88283525985822142E+00
  1.92630107222984859E+00  1.97065813661137845E+00  2.01591877918720241E+00
  2.06209515144834699E+00  2.10919920380550563E+00  2.15724265764615852E+00
  2.20623697576678701E+00  2.25619333110893638E+00  2.30712257373055296E+00
  2.35903519594092215E+00  2.41194129552604730E+00  2.46585053698993306E+00
  2.52077211073571750E+00  2.57671469010719845E+00  2.63368638622083262E+00
  2.69169470050589421E+00  2.75074647487131152E+00  2.81084783942216188E+00
  2.87200415764691064E+00  2.93421996899694637E+00  2.99749892878075119E+00
  3.06184374529563152E+00  3.12725611411973237E+00  3.19373664950093339E+00
  3.26128481276611559E+00  3.32989883768278450E+00  3.39957565271230910E+00
  3.47031080009694337E+00  3.54209835172835863E+00  3.61493082175185299E+00
  3.68879907586717426E+00  3.76369223729530056E+00  3.83959758939776652E+00
  3.91650047493176201E+00  3.99438419194439165E+00  4.07322988632351901E+00
  4.15301644103679557E+00  4.23372036210729519E+00  4.31531566139282674E+00
  4.39777373625743628E+00  4.48106324624796137E+00  4.56514998690630147E+00
  4.64999676088088432E+00  4.73556324653079308E+00  4.82180586424736202E+00
  4.90867764075333035E+00  4.99612807167800099E+00  5.08410298274818029E+00
  5.17254438998725341E+00  5.26139035935417354E+00  5.35057486627956447E+00
  5.44002765566572322E+00  5.52967410294462436E+00  5.61943507685503274E+00
  5.70922680466884103E+00  5.79896074066844669E+00  5.88854343875390374E+00
  5.97787643016924441E+00  6.06685610735144554E+00  6.15537361499474933E+00
  6.24331474962806698E+00  6.33055986900517276E+00  6.41698381272981067E+00
  6.50245583564496421E+00  6.58683955562414614E+00  6.66999291752099754E+00
  6.75176817522284178E+00  6.83201189361357475E+00  6.91056497257141356E+00
  6.98726269532469058E+00  7.06193480344500024E+00  7.13440560092228271E+00
  7.20449408987932305E+00  7.27201414059066398E+00  7.33677469860713938E+00
  7.39858003198595515E+00  7.45723002110567457E+00  7.51252049437035740E+00
  7.56424361293089920E+00  7.61218830744930752E+00  7.65614077001938753E+00
  7.69588500434645528E+00  7.73120343724933523E+00  7.76187759460905635E+00
  7.78768884470658751E+00  7.80841921090792290E+00  7.82385225699337195E+00
  7.83377404729515892E+00  7.83797418355200204E+00  7.83624692009077517E+00
  7.82839235851040272E+00  7.81421772254118530E+00  7.79353871350488436E+00
  7.76618094533760228E+00  7.73198145721555008E+00  7.69079030267978148E+00
  7.64247221175761293E+00  7.58690832183904273E+00  7.52399797195713393E+00
  7.45366055386581117E+00  7.37583741199236709E+00  7.29049378334567066E+00
  7.19762076509485738E+00  7.09723729756278932E+00  6.98939214906775952E+00
  6.87416588600526079E+00  6.75167281012225207E+00  6.62206284304781700E+00
  6.48552333622596855E+00  6.34228078258347505E+00  6.19260240446491128E+00
  6.03679758914128417E+00  5.87521914402953893E+00  5.70826434095040902E+00
  5.53637571723059096E+00  5.36004160062530932E+00  5.17979632428958681E+00
  4.99622009765262298E+00  4.80993849892361869E+00  4.62162155536044850E+00
  4.43198237992835153E+00  4.24177533337389256E+00  4.05179368344258428E+00
  3.86286673632843769E+00  3.67585641942616537E+00  3.49165329930404500E+00
  3.31117202447653636E+00  3.13534618757091543E+00  2.96512261284062273E+00
  2.80145508293478196E+00  2.64529752252058659E+00  2.49759667097333748E+00
  2.35928428588264927E+00  2.23126891479571876E+00  2.11442690743523576E+00
  2.00959228807585166E+00  1.91754022864970963E+00  1.83880086500650219E+00
  1.76614584967795496E+00  1.69499316932837107E+00  1.62550634056894827E+00
  1.55777787084744346E+00  1.49187499977913163E+00  1.42784370430692986E+00
  1.36571014869106522E+00  1.30548282201221744E+00  1.24715573375695654E+00
  1.19071285832518847E+00  1.13613344646373027E+00  1.08339451775459095E+00
  1.03247108395312392E+00  9.83336292119766253E-01  9.35961566200104955E-01
  8.90316747591731850E-01  8.46370234166536117E-01  8.04089117150347477E-01
  7.63439315861096701E-01  7.24385709804359568E-01  6.86892267756237129E-01
  6.50922173496753742E-01  6.16437947877839565E-01  5.83401566954449557E-01
  5.51774576087385116E-01  5.21518199275765149E-01  4.92593443737539216E-01
  4.64961199763510080E-01  4.38582335550547042E-01  4.13417786886800753E-01
  3.89428641595083225E-01  3.66576218671477716E-01  3.44822142154984468E-01
  3.24128409791850869E-01  3.04457455974508517E-01  2.85772209566294733E-01
  2.68036146626091654E-01  2.51213338072354408E-01  2.35268492419053954E-01
  2.20166993737798494E-01  2.05874935021704980E-01  1.92359147264081320E-01
  1.79587224268479201E-01  1.67527543207545176E-01  1.56149281602401241E-01
  1.45422430794970803E-01  1.35317806131986879E-01  1.25807054100240456E-01
  1.16862656651892730E-01  1.08457932968730006E-01  1.00567039012022894E-01
  9.31649647368191225E-02  8.62275293593896819E-02  7.97313750329404075E-02
  7.36539590137977179E-02  6.79735444941048372E-02  6.26691902652890542E-02
  5.77207393622078471E-02  5.31088068563695878E-02  4.88147669498157424E-02
  4.48207391972253386E-02  4.11095742465329567E-02  3.76648391370963675E-02
  3.44708021851719282E-02  3.15124175152075303E-02  2.87753092861802937E-02
  2.62457556549345050E-02  2.39106725599541811E-02  2.17575972740083924E-02
  1.97746716756042155E-02  1.79506254457968556E-02  1.62747591392651131E-02
  1.47369271401360698E-02  1.33275205210257874E-02  1.20374498241838223E-02
  1.08581277890566607E-02  9.78145208491862893E-03  8.79978795326245671E-03
  7.90595085155536975E-03  7.09318917186538885E-03  6.35516702382561520E-03
  5.68594711025009747E-03  5.07997372556656755E-03  4.53205590809749401E-03
  4.03735078703471723E-03  3.59134716121556081E-03  3.18984926734525035E-03
  2.82896085384672308E-03  2.50506957521030339E-03  2.21483172490736331E-03
  1.95515733411777025E-03  1.72319566167822031E-03  1.51632109877237239E-03
  1.33211951976093925E-03  1.16837507785501988E-03  1.02305745077171137E-03
  8.94309587913510659E-04  7.80435953181771907E-04  6.79891269651170275E-04
  5.91269771293676232E-04  5.13294964306624537E-04  4.44809898832330454E-04
  3.84767953905729198E-04  3.32224111929570697E-04  2.86326729337475880E-04
  2.46309800042724888E-04  2.11485694893928449E-04  1.81238364743647003E-04
  1.55016993388140770E-04  1.32330085394388177E-04  1.12739973851608505E-04
  9.58577310538711263E-05  8.13384573435622178E-05  6.88769397613167074E-05
  5.82036596106393138E-05  4.90811292262306615E-05  4.13005393103052911E-05
  3.46786983000186820E-05  2.90552454697795589E-05  2.42901205126423047E-05
  2.02612703283966217E-05  1.68625758387508642E-05  1.40019848357256422E-05
  1.15998337126972460E-05  9.58734283629026765E-06  7.90527114434908756E-06
  6.50271630514376666E-06  5.33604758095084577E-06  4.36795946656733215E-06
  3.56663388639739077E-06  2.90500116422262495E-06  2.36009003476756148E-06
  1.91245732958391954E-06  1.54568895821128564E-06  1.24596449361603866E-06
  1.00167832648578464E-06  8.03111008077648040E-07  6.42144930448922057E-07
  5.12018919117937848E-07  4.07117259709428757E-07  3.22788794587767981E-07
  2.55192243927850989E-07  2.01164346140669010E-07  1.58107791380256448E-07
  1.23896268544428262E-07  9.67942716829917061E-08  7.53895546405500835E-08
  5.85364235539241058E-08  4.53083073944414520E-08  3.49582000302728503E-08
  2.68857736226167465E-08  2.06101279477823296E-08  1.57472846611259375E-08
  1.19916630166626047E-08  9.10088558748013653E-09  6.88335159742359700E-09
  5.18811530023995622E-09  3.89667063037437250E-09  2.91630517528073470E-09
  2.17474293897177081E-09  1.61584161627514889E-09  1.19614946928169183E-09
  8.82160429804115498E-10  6.48133840600209344E-10  4.74368808229833137E-10
  3.45844497306684627E-10  2.51152586525542158E-10  1.81662335333092663E-10
  1.30870171769793883E-10  9.38950592579207870E-11  6.70885626355461240E-11
  4.77348034954691862E-11  3.38204834872401418E-11  2.38593892185526321E-11
  1.67590795357162636E-11  1.17200235464715222E-11  8.15962271296272907E-12
  5.65523096308174715E-12
                             </PP_RHOATOM> 
<PP_PAW paw_data_format="2"> 
   <PP_OCCUPATIONS type="real" columns="3" size=" 4">
  2.00000000000000000E+00  0.00000000000000000E+00  6.00000000000000000E+00
  0.00000000000000000E+00
                             </PP_OCCUPATIONS> 
 <PP_AE_NLCC type="real" size="   961" columns="3">
  6.10877520123805994E+02  6.10822174834867042E+02  6.10766656569890529E+02
  6.10710962908657734E+02  6.10655091736876670E+02  6.10599041201152659E+02
  6.10542808972709963E+02  6.10486392602941805E+02  6.10429790165637655E+02
  6.10372999396416390E+02  6.10316017690622402E+02  6.10258842940686691E+02
  6.10201472887113596E+02  6.10143904851446337E+02  6.10086136543972998E+02
  6.10028165652344114E+02  6.09969989428423219E+02  6.09911605450261163E+02
  6.09853011303835046E+02  6.09794204154408135E+02  6.09735181496327527E+02
  6.09675940772265449E+02  6.09616479054439083E+02  6.09556793782036380E+02
  6.09496882210255990E+02  6.09436741349867816E+02  6.09376368568367411E+02
  6.09315760897887685E+02  6.09254915359970823E+02  6.09193829169849437E+02
  6.09132499157811139E+02  6.09070922396130072E+02  6.09009095838985218E+02
  6.08947016248363184E+02  6.08884680643857791E+02  6.08822085695574970E+02
  6.08759228242247218E+02  6.08696105031464185E+02  6.08632712652718396E+02
  6.08569047885802092E+02  6.08505107189014552E+02  6.08440887233664398E+02
  6.08376384466577861E+02  6.08311595368429039E+02  6.08246516397240725E+02
  6.08181143856710150E+02  6.08115474176447492E+02  6.08049503529886692E+02
  6.07983228266805440E+02  6.07916644472439202E+02  6.07849748380684673E+02
  6.07782536006649480E+02  6.07715003457358421E+02  6.07647146675334398E+02
  6.07578961644463448E+02  6.07510444223558011E+02  6.07441590281198387E+02
  6.07372395579821500E+02  6.07302855880213542E+02  6.07232966836921491E+02
  6.07162724108571638E+02  6.07092123232499603E+02  6.07021159767950280E+02
  6.06949829129196814E+02  6.06878126774124325E+02  6.06806047994268511E+02
  6.06733588135984405E+02  6.06660742378481928E+02  6.06587505936882280E+02
  6.06513873894114568E+02  6.06439841313600482E+02  6.06365403191863948E+02
  6.06290554432721365E+02  6.06215289936611612E+02  6.06139604466368837E+02
  6.06063492790135228E+02  6.05986949566407134E+02  6.05909969394500195E+02
  6.05832546837060022E+02  6.05754676336607531E+02  6.05676352319567968E+02
  6.05597569117620651E+02  6.05518320980076282E+02  6.05438602125173475E+02
  6.05358406660819128E+02  6.05277728636105849E+02  6.05196562044837492E+02
  6.05114900774617922E+02  6.05032738657768959E+02  6.04950069459040947E+02
  6.04866886841661312E+02  6.04783184406570854E+02  6.04698955685182682E+02
  6.04614194110047265E+02  6.04528893038565002E+02  6.04443045761591748E+02
  6.04356645474285870E+02  6.04269685282671276E+02  6.04182158224597629E+02
  6.04094057249108346E+02  6.04005375210138141E+02  6.03916104876729150E+02
  6.03826238939715040E+02  6.03735769995172859E+02  6.03644690543819365E+02
  6.03552992996868397E+02  6.03460669680317324E+02  6.03367712823475472E+02
  6.03274114557906387E+02  6.03179866918289463E+02  6.03084961847267664E+02
  6.02989391190603214E+02  6.02893146692818391E+02  6.02796219996885725E+02
  6.02698602643843060E+02  6.02600286074349015E+02  6.02501261626786800E+02
  6.02401520533560756E+02  6.02301053920214031E+02  6.02199852804539773E+02
  6.02097908095581829E+02  6.01995210592948524E+02  6.01891750986225929E+02
  6.01787519852375794E+02  6.01682507654317305E+02  6.01576704739754291E+02
  6.01470101339946382E+02  6.01362687568432307E+02  6.01254453419717379E+02
  6.01145388767926192E+02  6.01035483365431332E+02  6.00924726841546999E+02
  6.00813108701024817E+02  6.00700618322504056E+02  6.00587244957088501E+02
  6.00472977726903764E+02  6.00357805623633340E+02  6.00241717507035446E+02
  6.00124702103442473E+02  6.00006748004240535E+02  5.99887843664336174E+02
  5.99767977400603172E+02  5.99647137390313674E+02  5.99525311669555208E+02
  5.99402488131631344E+02  5.99278654525443926E+02  5.99153798453860190E+02
  5.99027907372065329E+02  5.98900968585893338E+02  5.98772969250143888E+02
  5.98643896366883268E+02  5.98513736783720105E+02  5.98382477192071633E+02
  5.98250104125435314E+02  5.98116603957720486E+02  5.97981962901408906E+02
  5.97846167005727693E+02  5.97709202154824425E+02  5.97571054065921203E+02
  5.97431708287441325E+02  5.97291150197121283E+02  5.97149365000098896E+02
  5.97006337726998026E+02  5.96862053232380049E+02  5.96716496192790146E+02
  5.96569651104473564E+02  5.96421502281353355E+02  5.96272033852981167E+02
  5.96121229762479629E+02  5.95969073764892528E+02  5.95815549425652762E+02
  5.95660640117740854E+02  5.95504329019421107E+02  5.95346599112056310E+02
  5.95187433178389483E+02  5.95026813801371418E+02  5.94864723360869107E+02
  5.94701144031129502E+02  5.94536057778623444E+02  5.94369446361292034E+02
  5.94201291325765965E+02  5.94031574003994137E+02  5.93860275511046098E+02
  5.93687376744678090E+02  5.93512858382138688E+02  5.93336700876544455E+02
  5.93158884455327552E+02  5.92979389119707093E+02  5.92798194640006159E+02
  5.92615280552930130E+02  5.92430626161740634E+02  5.92244210532331635E+02
  5.92056012489334194E+02  5.91866010616346557E+02  5.91674183252619628E+02
  5.91480508488520059E+02  5.91284964166062537E+02  5.91087527875139472E+02
  5.90888176949206127E+02  5.90686888466252412E+02  5.90483639243505536E+02
  5.90278405834815430E+02  5.90071164530800502E+02  5.89861891352344287E+02
  5.89650562050974827E+02  5.89437152105331506E+02  5.89221636716875537E+02
  5.89003990810697928E+02  5.88784189028642004E+02  5.88562205730196979E+02
  5.88338014987523707E+02  5.88111590583187649E+02  5.87882906008622172E+02
  5.87651934458716823E+02  5.87418648832632243E+02  5.87183021726861853E+02
  5.86945025436667493E+02  5.86704631949155100E+02  5.86461812944182270E+02
  5.86216539788149134E+02  5.85968783534100226E+02  5.85718514916188383E+02
  5.85465704349223302E+02  5.85210321923445008E+02  5.84952337403931892E+02
  5.84691720225270160E+02  5.84428439491217773E+02  5.84162463968934617E+02
  5.83893762089135976E+02  5.83622301939809972E+02  5.83348051266725861E+02
  5.83070977467062335E+02  5.82791047589535310E+02  5.82508228328928908E+02
  5.82222486024737691E+02  5.81933786657659880E+02  5.81642095845950166E+02
  5.81347378844200080E+02  5.81049600537842366E+02  5.80748725442854720E+02
  5.80444717700624096E+02  5.80137541075950026E+02  5.79827158954516563E+02
  5.79513534338236923E+02  5.79196629844532822E+02  5.78876407701539051E+02
  5.78552829745694908E+02  5.78225857419715680E+02  5.77895451767873283E+02
  5.77561573434639172E+02  5.77224182661319560E+02  5.76883239282223371E+02
  5.76538702723368829E+02  5.76190531998555684E+02  5.75838685706179149E+02
  5.75483122027738887E+02  5.75123798723883397E+02  5.74760673131482235E+02
  5.74393702162003478E+02  5.74022842297791385E+02  5.73648049589125208E+02
  5.73269279652535374E+02  5.72886487667504753E+02  5.72499628373395467E+02
  5.72108656067591028E+02  5.71713524602871985E+02  5.71314187384209845E+02
  5.70910597366556431E+02  5.70502707052950086E+02  5.70090468491400998E+02
  5.69673833272409297E+02  5.69252752527126177E+02  5.68827176925082085E+02
  5.68397056671454379E+02  5.67962341504938991E+02  5.67522980696083550E+02
  5.67078923045013653E+02  5.66630116879114667E+02  5.66176510051132254E+02
  5.65718049937647720E+02  5.65254683437124982E+02  5.64786356967896950E+02
  5.64313016466504223E+02  5.63834607386300831E+02  5.63351074696034061E+02
  5.62862362878102317E+02  5.62368415927187925E+02  5.61869177349022038E+02
  5.61364590159428758E+02  5.60854596883125168E+02  5.60339139552589813E+02
  5.59818159707185032E+02  5.59291598392404126E+02  5.58759396159363632E+02
  5.58221493064157812E+02  5.57677828667302151E+02  5.57128342033417198E+02
  5.56572971731033704E+02  5.56011655832588303E+02  5.55444331914554596E+02
  5.54870937057502033E+02  5.54291407846424022E+02  5.53705680371220524E+02
  5.53113690227335837E+02  5.52515372516582374E+02  5.51910661848144287E+02
  5.51299492339595758E+02  5.50681797618161454E+02  5.50057510822173413E+02
  5.49426564602702456E+02  5.48788891125375358E+02  5.48144422072408247E+02
  5.47493088644834529E+02  5.46834821564838194E+02  5.46169551078360882E+02
  5.45497206957917228E+02  5.44817718505628818E+02  5.44131014556486662E+02
  5.43437023481838764E+02  5.42735673193129060E+02  5.42026891145881336E+02
  5.41310604343875070E+02  5.40586739343613999E+02  5.39855222259056404E+02
  5.39115978766615967E+02  5.38368934110433315E+02  5.37614013107937922E+02
  5.36851140155690700E+02  5.36080239235526278E+02  5.35301233921011885E+02
  5.34514047384202968E+02  5.33718602402701777E+02  5.32914821367063155E+02
  5.32102626288527631E+02  5.31281938807099209E+02  5.30452680199973315E+02
  5.29614771390322630E+02  5.28768132956447971E+02  5.27912685141302973E+02
  5.27048347862404171E+02  5.26175040722130461E+02  5.25292683018420917E+02
  5.24401193755887334E+02  5.23500491657341172E+02  5.22590495175737715E+02
  5.21671122506566576E+02  5.20742291600681483E+02  5.19803920177585610E+02
  5.18855925739180748E+02  5.17898225583987937E+02  5.16930736821846835E+02
  5.15953376389114851E+02  5.14966061064356836E+02  5.13968707484552965E+02
  5.12961232161823204E+02  5.11943551500683554E+02  5.10915581815839630E+02
  5.09877239350535206E+02  5.08828440295456915E+02  5.07769100808208975E+02
  5.06699137033368572E+02  5.05618465123133262E+02  5.04527001258563985E+02
  5.03424661671444824E+02  5.02311362666756395E+02  5.01187020645786276E+02
  5.00051552129874608E+02  4.98904873784814015E+02  4.97746902445909484E+02
  4.96577555143709901E+02  4.95396749130419494E+02  4.94204401907001966E+02
  4.93000431250983809E+02  4.91784755244970199E+02  4.90557292305877866E+02
  4.89317961214905608E+02  4.88066681148235489E+02  4.86803371708489692E+02
  4.85527952956943977E+02  4.84240345446508911E+02  4.82940470255484513E+02
  4.81628249022107184E+02  4.80303603979884997E+02  4.78966457993736753E+02
  4.77616734596942251E+02  4.76254358028912350E+02  4.74879253273780364E+02
  4.73491346099834857E+02  4.72090563099784788E+02  4.70676831731878963E+02
  4.69250080361873472E+02  4.67810238305864175E+02  4.66357235873979903E+02
  4.64891004414951510E+02  4.63411476361551934E+02  4.61918585276919202E+02
  4.60412265901761714E+02  4.58892454202452598E+02  4.57359087420010894E+02
  4.55812104119980461E+02  4.54251444243196772E+02  4.52677049157455201E+02
  4.51088861710070091E+02  4.49486826281331787E+02  4.47870888838857695E+02
  4.46240996992837097E+02  4.44597100052166013E+02  4.42939149081468088E+02
  4.41267096959002004E+02  4.39580898435443032E+02  4.37880510193541852E+02
  4.36165890908646134E+02  4.34437001310081030E+02  4.32693804243380441E+02
  4.30936264733355642E+02  4.29164350047994333E+02  4.27378029763177778E+02
  4.25577275828199504E+02  4.23762062632074333E+02  4.21932367070622945E+02
  4.20088168614311030E+02  4.18229449376829564E+02  4.16356194184397282E+02
  4.14468390645755335E+02  4.12566029222841621E+02  4.10649103302116430E+02
  4.08717609266516774E+02  4.06771546568009455E+02  4.04810917800717618E+02
  4.02835728774587096E+02  4.00845988589563092E+02  3.98841709710242128E+02
  3.96822908040966638E+02  3.94789603001318937E+02  3.92741817601984621E+02
  3.90679578520935763E+02  3.88602916179893782E+02  3.86511864821031281E+02
  3.84406462583859593E+02  3.82286751582256215E+02  3.80152777981586041E+02
  3.78004592075856351E+02  3.75842248364841510E+02  3.73665805631136720E+02
  3.71475327017073766E+02  3.69270880101438479E+02  3.67052536975921385E+02
  3.64820374321239967E+02  3.62574473482860981E+02  3.60314920546249311E+02
  3.58041806411573873E+02  3.55755226867792999E+02  3.53455282666036908E+02
  3.51142079592212497E+02  3.48815728538740302E+02  3.46476345575351729E+02
  3.44124052018846839E+02  3.41758974501708678E+02  3.39381245039496491E+02
  3.36991001096924720E+02  3.34588385652527563E+02  3.32173547261804970E+02
  3.29746640118747905E+02  3.27307824115641836E+02  3.24857264901034000E+02
  3.22395133935760327E+02  3.19921608546918037E+02  3.17436871979668354E+02
  3.14941113446756958E+02  3.12434528175648552E+02  3.09917317453128021E+02
  3.07389688667226721E+02  3.04851855346397713E+02  3.02304037195797264E+02
  2.99746460130542175E+02  2.97179356305817578E+02  2.94602964143697648E+02
  2.92017528356557307E+02  2.89423299966932859E+02  2.86820536323702413E+02
  2.84209501114451371E+02  2.81590464373895145E+02  2.78963702488253091E+02
  2.76329498195325925E+02  2.73688140580218544E+02  2.71039925066583862E+02
  2.68385153403234938E+02  2.65724133645985489E+02  2.63057180134585394E+02
  2.60384613464615768E+02  2.57706760454210496E+02  2.55023954105470921E+02
  2.52336533560444991E+02  2.49644844051569606E+02  2.46949236846467528E+02
  2.44250069186790171E+02  2.41547704221167237E+02  2.38842510932119438E+02
  2.36134864056801206E+02  2.33425144001459444E+02  2.30713736749503482E+02
  2.28001033763081608E+02  2.25287431878065746E+02  2.22573333192351583E+02
  2.19859144947408424E+02  2.17145279403090171E+02  2.14432153705318711E+02
  2.11720189746767602E+02  2.09009814020543189E+02  2.06301457466751685E+02
  2.03595555311898636E+02  2.00892546901084216E+02  1.98192875522963789E+02
  1.95496988227449350E+02  1.92805335636141024E+02  1.90118371745542106E+02
  1.87436553723163485E+02  1.84760341696018003E+02  1.82090198531978871E+02
  1.79426589614022049E+02  1.76769982607337994E+02  1.74120847219376714E+02
  1.71479654952896595E+02  1.68846878852113093E+02  1.66222993242038683E+02
  1.63608473461144911E+02  1.61003795587707970E+02  1.58409436159558936E+02
  1.55825871887239344E+02  1.53253579361302002E+02  1.50693034753714159E+02
  1.48144713513551125E+02  1.45609090057195175E+02  1.43086637453265553E+02
  1.40577827102530051E+02  1.38083128413055562E+02  1.35603008471119580E+02
  1.33137931708016993E+02  1.30688359562239498E+02  1.28254750138439761E+02
  1.25837557863231979E+02  1.23437233138121570E+02  1.21054221989928152E+02
  1.18688965719088330E+02  1.16341900546233902E+02  1.14013457257459777E+02
  1.11704060849036736E+02  1.09414130171836405E+02  1.07144077574701981E+02
  1.04894308548777161E+02  1.02665221372888325E+02  1.00457206760372713E+02
  9.82706475078507680E+01  9.61059181464596577E+01  9.39633845960663763E+01
  9.18434038230052465E+01  8.97463235024679449E+01  8.76724816852653674E+01
  8.56222064685929638E+01  8.35958156732076816E+01  8.15936165269485798E+01
  7.96159053550992724E+01  7.76629672781603375E+01  7.57350759176039929E+01
  7.38324931101798967E+01  7.19554686314459531E+01  7.01042399300148986E+01
  6.82790318706178851E+01  6.64800564875649656E+01  6.47075127502748018E+01
  6.29615863407213610E+01  6.12424494433199271E+01  5.95502605477756219E+01
  5.78851642654061394E+01  5.62472911594380776E+01  5.46367575903589184E+01
  5.30536655767947565E+01  5.14981026692456112E+01  4.99701418406276119E+01
  4.84698413933127483E+01  4.69972448827555667E+01  4.55523810580673683E+01
  4.41352638198716605E+01  4.27458921957487163E+01  4.13842503337060137E+01
  4.00503075153061729E+01  3.87440181849030836E+01  3.74653219968187159E+01
  3.62141438822762396E+01  3.49903941351393257E+01  3.37939685165205290E+01
  3.26247483783017955E+01  3.14826008055731030E+01  3.03673787779758655E+01
  2.92789213511568676E+01  2.82170538564849700E+01  2.71815881165556910E+01
  2.61723226807103799E+01  2.51890430788437314E+01  2.42315220930303852E+01
  2.32995200466446200E+01  2.23927851106029863E+01  2.15110536263165706E+01
  2.06540504457007437E+01  1.98214892880712839E+01  1.90130731082392863E+01
  1.82284944807243399E+01  1.74674359985138992E+01  1.67295706851431873E+01
  1.60145624193840170E+01  1.53220663717912462E+01  1.46517294523164843E+01
  1.40031907686302013E+01  1.33760820956960522E+01  1.27700283497375953E+01
  1.21846480704431794E+01  1.16195539107760837E+01  1.10743531323772242E+01
  1.05486481055407495E+01  1.00420368127196369E+01  9.55411335449766952E+00
  9.08446845723577923E+00  8.63268998304907953E+00  8.19836343534565870E+00
  7.78107246226725913E+00  7.38039935842753625E+00  6.99592556245329078E+00
  6.62723214919065029E+00  6.27390031545878202E+00  5.93551185824894478E+00
  5.61164964449342651E+00  5.30189807310219852E+00  5.00584352321483372E+00
  4.72307479016291509E+00  4.45318351038488203E+00  4.19576457297886485E+00
  3.95041651712281228E+00  3.71674191471397819E+00  3.49434773768570750E+00
  3.28284570973986645E+00  3.08185264376299139E+00  2.89099076029939672E+00
  2.70988798900040351E+00  2.53817825520505647E+00  2.37550175034181965E+00
  2.22150518627139348E+00  2.07584203374088005E+00  1.93817274510658022E+00
  1.80816496159028084E+00  1.68549370642480434E+00  1.56984155994742913E+00
  1.46089881843091951E+00  1.35836363803103022E+00  1.26194216228288880E+00
  1.17134863266148082E+00  1.08630548169194507E+00  1.00654340808187359E+00
  9.31801433532297607E-01  8.61826941801100754E-01  7.96375696414365009E-01
  7.35211838956719821E-01  6.78107868953993997E-01  6.24844604740505849E-01
  5.75211125808085755E-01  5.29004697374660493E-01  4.86030678121652293E-01
  4.46102412389585090E-01  4.09041108722929925E-01  3.74675703530153614E-01
  3.42842713284456202E-01  3.13386076911949196E-01  2.86156989113651783E-01
  2.61013725843899869E-01  2.37821463077066558E-01  2.16452089896854799E-01
  1.96784017013478890E-01  1.78701981835131612E-01  1.62096849133285897E-01
  1.46865409754976889E-01  1.32910177909116856E-01  1.20139187367271666E-01
  1.08465787173129755E-01  9.78084374268950868E-02  8.80905056860049884E-02
  7.92400646574757395E-02  7.11896916583227429E-02  6.38762693845073143E-02
  5.72407896258914153E-02  5.12281600708214269E-02  4.57870144784092159E-02
  4.08695265857641488E-02  3.64312280880899550E-02  3.24308310003083508E-02
  2.88300548059367209E-02  2.55934584616339285E-02  2.26882771505823692E-02
  2.00842645962555112E-02  1.77535408643532816E-02  1.56704457378778715E-02
  1.38113977578558141E-02  1.21547589938479778E-02  1.06807055841217427E-02
  9.37110413951913052E-03  8.20939380614475397E-03  7.18047394484400917E-03
  6.27059760843922450E-03  5.46727061734648793E-03  4.75915612906585919E-03
  4.13598458847507996E-03  3.58846893090314107E-03  3.10822490101122411E-03
  2.68769637267965694E-03  2.32008538061561622E-03  1.99928677127637292E-03
  1.71982734674820973E-03  1.47680927141145271E-03  1.26585755294320273E-03
  1.08307140757433942E-03  9.24979318191006023E-04  7.88497597913110824E-04
  6.70892277789861941E-04  5.69744074348098491E-04  4.82916309222079971E-04
  4.08525595088042994E-04  3.44915098052862271E-04  2.90630204085090191E-04
  2.44396422749141922E-04  2.05099367616978534E-04  1.71766662118623257E-04
  1.43551621244342599E-04  1.19718554634820000E-04  9.96295805406673552E-05
  8.27328173604424785E-05  6.85518319425837809E-05  5.66762332056723676E-05
  4.67533067614593853E-05  3.84805932520926918E-05  3.15993212331485343E-05
  2.58886076932621224E-05  2.11603482100839129E-05  1.72547304019634540E-05
  1.40363024979023330E-05  1.13905368760701402E-05  9.22083392339107702E-06
  7.44591652674854860E-06  5.99757019474129195E-06  4.81868845519991107E-06
  3.86158562457750532E-06  3.08654496926843022E-06  2.46057325462133632E-06
  1.95633484551071502E-06  1.55124197320373511E-06  1.22668044494479097E-06
  9.67352479691519322E-07  7.60720554999384313E-07  5.96538118701663057E-07
  4.66454492600385834E-07  3.63683483350891677E-07  2.82726213928942534E-07
  2.19139947563300503E-07  1.69345852616258509E-07  1.30469635102230262E-07
  1.00209825329311186E-07  7.67292659985440269E-08  5.85659845490055145E-08
  4.45601969586448173E-08  3.37947595061574666E-08  2.55467317871707109E-08
  1.92481037118876637E-08  1.44540581827741807E-08  1.08174093903497404E-08
  8.06808480957279620E-09  5.99671349623692827E-09  4.44154034989136147E-09
  3.27803026664470466E-09  2.41064164656569537E-09  1.76633773481387388E-09
  1.28948710434576247E-09  9.37870553954966980E-10  6.79565945217752702E-10
  4.90527082449120577E-10  3.52709233180003373E-10  2.52622915007629770E-10
  1.80222940405641530E-10  1.28058338771390801E-10  9.06243407035169599E-11
  6.38703762376501585E-11  4.48280423114934091E-11  3.13309417641113902E-11
  2.18045891905461993E-11  1.51095168161894487E-11  1.04245819469158021E-11
  7.16059311895683905E-12  4.89663978585890830E-12  3.33336058551673652E-12
  2.25879692402039467E-12  1.52355514320910794E-12  1.02282220536419270E-12
  6.83404485705876717E-13  4.54428979441786393E-13  3.00704011251298129E-13
  1.98002897016523359E-13  1.29728886380602824E-13  8.45683604190246411E-14
  5.48476424088100581E-14  3.53882476465705561E-14  2.27134365403819081E-14
  1.45011066542244914E-14  9.20843446379695834E-15  5.81578370880515748E-15
  3.65291406783631200E-15  2.28165456435078116E-15  1.41712922989287974E-15
  8.75159860874404618E-16  5.37343761189712966E-16  3.27998551623048052E-16
  1.99028450747561680E-16  1.20046746439056030E-16  7.19690200848656862E-17
  4.28813203528399087E-17  2.53912936211307421E-17  1.49403796874770599E-17
  8.73501616629010699E-18  5.07405540066278910E-18  2.92819658077514596E-18
  1.67866443602902642E-18  9.55896562637122646E-19  5.40636499005380667E-19
  3.03676137207272493E-19  1.69390622593106456E-19  9.38216367916635972E-20
  5.15955129170120909E-20  2.81692477282604797E-20  1.52669827403017034E-20
  8.21309938540469419E-21  4.38528162789140914E-21  2.32372293189291389E-21
  1.22187454680902318E-21  6.37502888157272815E-22  3.29995030029625279E-22
  1.69456030930504225E-22  8.63146862982709055E-23  4.36060779029482757E-23
  2.18474690257635227E-23  1.08543385799993765E-23  5.34698666460596232E-24
  2.61139441635202289E-24  1.26428793033972279E-24  6.06708523073117103E-25
  2.88550997876022550E-25  1.35994690187443045E-25  6.35084030595873441E-26
  2.93834698647836797E-26  1.34675753965930193E-26  6.11421450032950062E-27
  2.74919479588144360E-27  1.22413743788388575E-27  5.39706508548747432E-28
  2.35574011674405167E-28  1.01784998772809597E-28  4.35287204602103765E-29
  1.84226464469063010E-29  7.71541093231128477E-30  3.19699562363156328E-30
  1.31051881289584688E-30  5.31373326149510687E-31  2.13081516189584114E-31
  8.44912386760619212E-32  3.31237276672964861E-32  1.28372834768512117E-32
  4.91764369552903166E-33  1.86179855932903168E-33  6.96528337501859562E-34
  2.57459998693570603E-34  9.40099265564874417E-35  3.39039336349170550E-35
  1.20742936727463455E-35  4.24569027648914965E-36  1.47384015868977356E-36
  5.05018092945167245E-37  1.70786710048773719E-37  5.69932246790700048E-38
  1.87645717939377718E-38  6.09416127216451779E-39  1.95186806329726101E-39
  6.16408143893610977E-40  1.91913359865597870E-40  5.88976472701196016E-41
  1.78148110857644214E-41  5.30988540015734657E-42  1.55930880553785087E-42
  4.51057949637422926E-43  1.28492387371629574E-43  3.60370363294018609E-44
  9.94880244829437675E-45  2.70320067407301411E-45  7.22777231177851948E-46
  1.90143417885804519E-46  4.92076609193273003E-47  1.25247521722077528E-47
  3.13458137034783461E-48  7.71118418097561431E-49  1.86407702222831968E-49
  4.42728512061973578E-50  1.03294636466209566E-50  2.36711345821382661E-51
  5.32708916987994383E-52  1.17708085435626095E-52  2.55305882318358400E-53
  5.43385450517753227E-54  1.13437345040470739E-54  2.32210111324736752E-55
  4.66036549316120489E-56  9.16880141207242862E-57  1.76805917738809053E-57
  3.34118633581035309E-58  6.18628501701737440E-59  1.12188576264330268E-59
  1.99182392174990031E-60  3.46013310630709060E-61  5.87998516253495256E-62
  9.77337961140106458E-63  1.58873605660214094E-63  2.52548378192464764E-64
  3.92512282105744585E-65  5.96303512625152794E-66  8.85116207287148545E-67
  1.28274707978607070E-67  1.81393960452696552E-68  2.50254406599948070E-69
  3.36807768657817588E-70  4.42177226838579806E-71  5.66227531565774399E-72
  7.07132353573148591E-73  8.60965484558458748E-74  1.02132331426750490E-74
  1.17914056515792968E-75  1.32422720071105275E-76  1.44652314471089172E-77
  1.53692280514854593E-78  0.00000000000000000E+00  0.00000000000000000E+00
  0.00000000000000000E+00  0.00000000000000000E+00  0.00000000000000000E+00
  0.00000000000000000E+00  0.00000000000000000E+00  0.00000000000000000E+00
  0.00000000000000000E+00  0.00000000000000000E+00  0.00000000000000000E+00
  0.00000000000000000E+00  0.00000000000000000E+00  0.00000000000000000E+00
  0.00000000000000000E+00  0.00000000000000000E+00  0.00000000000000000E+00
  0.00000000000000000E+00  0.00000000000000000E+00  0.00000000000000000E+00
  0.00000000000000000E+00
                             </PP_AE_NLCC> 
 <PP_AE_VLOC type="real" size="   961" columns="3">
 -2.19288118974598241E+05 -2.16563599799333431E+05 -2.13872925144842244E+05
 -2.11215674587736314E+05 -2.08591432927209651E+05 -2.05999790120164165E+05
 -2.03440341217138892E+05 -2.00912686299035704E+05 -1.98416430414631643E+05
 -1.95951183518866019E+05 -1.93516560411896178E+05 -1.91112180678908771E+05
 -1.88737668630679080E+05 -1.86392653244869085E+05 -1.84076768108053773E+05
 -1.81789651358469331E+05 -1.79530945629470807E+05 -1.77300297993693064E+05
 -1.75097359907905251E+05 -1.72921787158549589E+05 -1.70773239807958307E+05
 -1.68651382141237031E+05 -1.66555882613808877E+05 -1.64486413799609756E+05
 -1.62442652339927328E+05 -1.60424278892876115E+05 -1.58430978083498892E+05
 -1.56462438454489340E+05 -1.54518352417526039E+05 -1.52598416205210669E+05
 -1.50702329823604523E+05 -1.48829797005353321E+05 -1.46980525163395156E+05
 -1.45154225345242914E+05 -1.43350612187834718E+05 -1.41569403872945957E+05
 -1.39810322083154082E+05 -1.38073091958351171E+05 -1.36357442052796570E+05
 -1.34663104292702366E+05 -1.32989813934347127E+05 -1.31337309522708762E+05
 -1.29705332850611521E+05 -1.28093628918380971E+05 -1.26501945893999087E+05
 -1.24930035073755877E+05 -1.23377650843388372E+05 -1.21844550639702953E+05
 -1.20330494912674592E+05 -1.18835247088016156E+05 -1.17358573530213907E+05
 -1.15900243506020910E+05 -1.14460029148404807E+05 -1.13037705420943050E+05
 -1.11633050082660178E+05 -1.10245843653302873E+05 -1.08875869379045223E+05
 -1.07522913198620561E+05 -1.06186763709874227E+05 -1.04867212136731003E+05
 -1.03564052296574126E+05 -1.02277080568028367E+05 -1.01006095859143854E+05
 -9.97508995759752579E+04 -9.85112955915505736E+04 -9.72870902152265626E+04
 -9.60780921624236944E+04 -9.48841125247377786E+04 -9.37049647404226271E+04
 -9.25404645652391482E+04 -9.13904300436671620E+04 -9.02546814804743190E+04
 -8.91330414126383548E+04 -8.80253345816182264E+04 -8.69313879059692554E+04
 -8.58510304542993690E+04 -8.47840934185603110E+04 -8.37304100876711600E+04
 -8.26898158214694413E+04 -8.16621480249855085E+04 -8.06472461230372282E+04
 -7.96449515351393202E+04 -7.86551076507250546E+04 -7.76775598046756350E+04
 -7.67121552531530324E+04 -7.57587431497339858E+04 -7.48171745218396245E+04
 -7.38873022474583122E+04 -7.29689810321574623E+04 -7.20620673863809498E+04
 -7.11664196030287421E+04 -7.02818977353148075E+04 -6.94083635749000678E+04
 -6.85456806302972109E+04 -6.76937141055433312E+04 -6.68523308791382005E+04
 -6.60213994832434691E+04 -6.52007900831406587E+04 -6.43903744569442133E+04
 -6.35900259755664010E+04 -6.27996195829316493E+04 -6.20190317764358988E+04
 -6.12481405876493081E+04 -6.04868255632583459E+04 -5.97349677462446052E+04
 -5.89924496572978023E+04 -5.82591552764592052E+04 -5.75349700249932866E+04
 -5.68197807474846923E+04 -5.61134756941572196E+04 -5.54159445034129894E+04
 -5.47270781845881065E+04 -5.40467691009225600E+04 -5.33749109527419278E+04
 -5.27113987608476164E+04 -5.20561288501138843E+04 -5.14089988332883077E+04
 -5.07699075949934922E+04 -5.01387552759277241E+04 -4.95154432572615551E+04
 -4.88998741452286777E+04 -4.82919517559077285E+04 -4.76915811001935144E+04
 -4.70986683689547062E+04 -4.65131209183758328E+04 -4.59348472554818072E+04
 -4.53637570238417175E+04 -4.47997609894505804E+04 -4.42427710267863076E+04
 -4.36927001050398103E+04 -4.31494622745164888E+04 -4.26129726532062487E+04
 -4.20831474135205863E+04 -4.15599037691943377E+04 -4.10431599623501825E+04
 -4.05328352507237068E+04 -4.00288498950474604E+04 -3.95311251465913956E+04
 -3.90395832348582626E+04 -3.85541473554318291E+04 -3.80747416579759447E+04
 -3.76012912343829230E+04 -3.71337221070689193E+04 -3.66719612174147987E+04
 -3.62159364143506100E+04 -3.57655764430817289E+04 -3.53208109339553121E+04
 -3.48815703914648329E+04 -3.44477861833912393E+04 -3.40193905300791230E+04
 -3.35963164938458503E+04 -3.31784979685226208E+04 -3.27658696691251389E+04
 -3.23583671216527109E+04 -3.19559266530141285E+04 -3.15584853810784516E+04
 -3.11659812048497770E+04 -3.07783527947637267E+04 -3.03955395831045389E+04
 -3.00174817545413862E+04 -2.96441202367819133E+04 -2.92753966913422919E+04
 -2.89112535044315846E+04 -2.85516337779495479E+04 -2.81964813205961837E+04
 -2.78457406390916294E+04 -2.74993569295054403E+04 -2.71572760686932197E+04
 -2.68194446058398244E+04 -2.64858097541075731E+04 -2.61563193823881593E+04
 -2.58309220071571581E+04 -2.55095667844295713E+04 -2.51922035018153656E+04
 -2.48787825706737312E+04 -2.45692550183646708E+04 -2.42635724805970603E+04
 -2.39616871938715703E+04 -2.36635519880175525E+04 -2.33691202788226037E+04
 -2.30783460607536726E+04 -2.27911838997687119E+04 -2.25075889262174205E+04
 -2.22275168278303281E+04 -2.19509238427949749E+04 -2.16777667529179162E+04
 -2.14080028768719603E+04 -2.11415900635270445E+04 -2.08784866853640815E+04
 -2.06186516319706097E+04 -2.03620443036171200E+04 -2.01086246049134315E+04
 -1.98583529385436195E+04 -1.96111901990789011E+04 -1.93670977668673731E+04
 -1.91260375019995336E+04 -1.88879717383489915E+04 -1.86528632776869963E+04
 -1.84206753838701807E+04 -1.81913717771004885E+04 -1.79649166282563383E+04
 -1.77412745532943845E+04 -1.75204106077206125E+04 -1.73022902811302556E+04
 -1.70868794918154999E+04 -1.68741445814401050E+04 -1.66640523097803452E+04
 -1.64565698495311008E+04 -1.62516647811765797E+04 -1.60493050879247294E+04
 -1.58494591507045316E+04 -1.56520957432255491E+04 -1.54571840270987268E+04
 -1.52646935470178814E+04 -1.50745942260010343E+04 -1.48868563606907901E+04
 -1.47014506167132276E+04 -1.45183480240943536E+04 -1.43375199727334802E+04
 -1.41589382079329243E+04 -1.39825748259831053E+04 -1.38084022698026438E+04
 -1.36363933246325178E+04 -1.34665211137837159E+04 -1.32987590944377644E+04
 -1.31330810534993343E+04 -1.29694611035005091E+04 -1.28078736785557940E+04
 -1.26482935303674531E+04 -1.24906957242804529E+04 -1.23350556353863612E+04
 -1.21813489446757758E+04 -1.20295516352384166E+04 -1.18796399885104929E+04
 -1.17315905805686707E+04 -1.15853802784700529E+04 -1.14409862366377110E+04
 -1.12983858932910152E+04 -1.11575569669203815E+04 -1.10184774528057806E+04
 -1.08811256195784845E+04 -1.07454800058255787E+04 -1.06115194167366190E+04
 -1.04792229207919354E+04 -1.03485698464920879E+04 -1.02195397791279884E+04
 -1.00921125575910810E+04 -9.96626827122321083E+03 -9.84198725670560088E+03
 -9.71925009498644613E+03 -9.59803760824675555E+03 -9.47833085690379994E+03
 -9.36011113665186349E+03 -9.24335997553968991E+03 -9.12805913108429195E+03
 -9.01419058742058951E+03 -8.90173655248645082E+03 -8.79067945524274364E+03
 -8.68100194292788365E+03 -8.57268687834648335E+03 -8.46571733719175791E+03
 -8.36007660540108918E+03 -8.25574817654454637E+03 -8.15271574924577726E+03
 -8.05096322463496745E+03 -7.95047470383346899E+03 -7.85123448546962209E+03
 -7.75322706322550130E+03 -7.65643712341410082E+03 -7.56084954258662219E+03
 -7.46644938516953061E+03 -7.37322190113089619E+03 -7.28115252367581252E+03
 -7.19022686697037989E+03 -7.10043072389399367E+03 -7.01175006381958610E+03
 -6.92417103042137751E+03 -6.83767993950994423E+03 -6.75226327689413665E+03
 -6.66790769626956535E+03 -6.58460001713335078E+03 -6.50232722272474257E+03
 -6.42107645799136208E+03 -6.34083502758070063E+03 -6.26159039385655251E+03
 -6.18333017494015075E+03 -6.10604214277556275E+03 -6.02971422121921205E+03
 -5.95433448415306702E+03 -5.87989115362130542E+03 -5.80637259799014919E+03
 -5.73376733013051944E+03 -5.66206400562332510E+03 -5.59125142098701417E+03
 -5.52131851192716476E+03 -5.45225435160783854E+03 -5.38404814894438732E+03
 -5.31668924691751363E+03 -5.25016712090824240E+03 -5.18447137705360637E+03
 -5.11959175062276972E+03 -5.05551810441331418E+03 -4.99224042716747226E+03
 -4.92974883200804015E+03 -4.86803355489371006E+03 -4.80708495309363661E+03
 -4.74689350368091709E+03 -4.68744980204484818E+03 -4.62874456042161546E+03
 -4.57076860644328735E+03 -4.51351288170483986E+03 -4.45696844034896003E+03
 -4.40112644766848007E+03 -4.34597817872616451E+03 -4.29151501699163964E+03
 -4.23772845299530309E+03 -4.18461008299891910E+03 -4.13215160768278929E+03
 -4.08034483084920430E+03 -4.02918165814202393E+03 -3.97865409578218851E+03
 -3.92875424931893076E+03 -3.87947432239653290E+03 -3.83080661553639629E+03
 -3.78274352493426159E+03 -3.73527754127239496E+03 -3.68840124854652231E+03
 -3.64210732290735496E+03 -3.59638853151654121E+03 -3.55123773141680158E+03
 -3.50664786841616251E+03 -3.46261197598602439E+03 -3.41912317417295390E+03
 -3.37617466852400594E+03 -3.33375974902540202E+03 -3.29187178905442397E+03
 -3.25050424434433171E+03 -3.20965065196214528E+03 -3.16930462929917439E+03
 -3.12945987307405903E+03 -3.09011015834825412E+03 -3.05124933755373195E+03
 -3.01287133953278772E+03 -2.97497016858980032E+03 -2.93753990355476799E+03
 -2.90057469685852175E+03 -2.86406877361942406E+03 -2.82801643074143158E+03
 -2.79241203602340011E+03 -2.75725002727944457E+03 -2.72252491147027285E+03
 -2.68823126384530588E+03 -2.65436372709548641E+03 -2.62091701051663404E+03
 -2.58788588918319738E+03 -2.55526520313231413E+03 -2.52304985655800238E+03
 -2.49123481701539777E+03 -2.45981511463489414E+03 -2.42878584134605853E+03
 -2.39814215011122496E+03 -2.36787925416861071E+03 -2.33799242628486581E+03
 -2.30847699801693534E+03 -2.27932835898309395E+03 -2.25054195614308355E+03
 -2.22211329308719178E+03 -2.19403792933419254E+03 -2.16631147963803960E+03
 -2.13892961330317758E+03 -2.11188805350839630E+03 -2.08518257663909890E+03
 -2.05880901162788632E+03 -2.03276323930336503E+03 -2.00704119174705693E+03
 -1.98163885165832608E+03 -1.95655225172722135E+03 -1.93177747401512102E+03
 -1.90731064934310939E+03 -1.88314795668796137E+03 -1.85928562258566399E+03
 -1.83571992054236398E+03 -1.81244717045265520E+03 -1.78946373802512403E+03
 -1.76676603421504183E+03 -1.74435051466413915E+03 -1.72221367914735470E+03
 -1.70035207102647928E+03 -1.67876227671061679E+03 -1.65744092512336033E+03
 -1.63638468717661635E+03 -1.61559027525098622E+03 -1.59505444268261840E+03
 -1.57477398325646618E+03 -1.55474573070585120E+03 -1.53496655821827449E+03
 -1.51543337794737977E+03 -1.49614314053099656E+03 -1.47709283461520454E+03
 -1.45827948638430985E+03 -1.43970015909669451E+03 -1.42135195262643992E+03
 -1.40323200301066640E+03 -1.38533748200251307E+03 -1.36766559662968325E+03
 -1.35021358875849364E+03 -1.33297873466335000E+03 -1.31595834460158699E+03
 -1.29914976239360453E+03 -1.28255036500822462E+03 -1.26615756215322062E+03
 -1.24996879587093440E+03 -1.23398154013893190E+03 -1.21819330047562516E+03
 -1.20260161355080072E+03 -1.18720404680099136E+03 -1.17199819804963317E+03
 -1.15698169513194148E+03 -1.14215219552444978E+03 -1.12750738597915006E+03
 -1.11304498216217917E+03 -1.09876272829698792E+03 -1.08465839681194257E+03
 -1.07072978799229190E+03 -1.05697472963645691E+03 -1.04339107671657575E+03
 -1.02997671104325536E+03 -1.01672954093447470E+03 -1.00364750088858523E+03
 -9.90728551261353914E+02 -9.77970677947002059E+02 -9.65371892063179189E+02
 -9.52930229639831055E+02 -9.40643751311898427E+02 -9.28510542015812348E+02
 -9.16528710689719560E+02 -9.04696389977400486E+02 -8.93011735935827801E+02
 -8.81472927746314781E+02 -8.70078167429207951E+02 -8.58825679562081291E+02
 -8.47713711001374008E+02 -8.36740530607439723E+02 -8.25904428972949518E+02
 -8.15203718154612943E+02 -8.04636731408162518E+02 -7.94201822926568525E+02
 -7.83897367581431467E+02 -7.73721760667510807E+02 -7.63673417650352349E+02
 -7.53750773916963794E+02 -7.43952284529502208E+02 -7.34276423981929952E+02
 -7.24721685959597266E+02 -7.15286583101710448E+02 -7.05969646766647884E+02
 -6.96769426800079145E+02 -6.87684491305854635E+02 -6.78713426419620532E+02
 -6.69854836085121633E+02 -6.61107341833157307E+02 -6.52469582563146332E+02
 -6.43940214327268677E+02 -6.35517910117143970E+02 -6.27201359653010513E+02
 -6.18989269175369827E+02 -6.10880361239057606E+02 -6.02873374509709720E+02
 -5.94967063562583348E+02 -5.87160198683699946E+02 -5.79451565673277287E+02
 -5.71839965651418424E+02 -5.64324214866018110E+02 -5.56903144502855525E+02
 -5.49575600497843311E+02 -5.42340443351394697E+02 -5.35196547944882013E+02
 -5.28142803359152140E+02 -5.21178112695066034E+02 -5.14301392896035964E+02
 -5.07511574572524751E+02 -5.00807601828479221E+02 -4.94188432089665355E+02
 -4.87653035933883530E+02 -4.81200396923029359E+02 -4.74829511436970336E+02
 -4.68539388509211960E+02 -4.62329049664325339E+02 -4.56197528757109694E+02
 -4.50143871813460976E+02 -4.44167136872925141E+02 -4.38266393832902622E+02
 -4.32440724294486586E+02 -4.26689221409902871E+02 -4.21010989731528241E+02
 -4.15405145062474560E+02 -4.09870814308704041E+02 -4.04407135332653525E+02
 -3.99013256808347307E+02 -3.93688338077975914E+02 -3.88431549009921468E+02
 -3.83242069858206605E+02 -3.78119091123348539E+02 -3.73061813414598021E+02
 -3.68069447313543378E+02 -3.63141213239056071E+02 -3.58276341313577575E+02
 -3.53474071230718835E+02 -3.48733652124152684E+02 -3.44054342437787000E+02
 -3.39435409797204045E+02 -3.34876130882350026E+02 -3.30375791301463380E+02
 -3.25933685466225825E+02 -3.21549116468127465E+02 -3.17221395956027948E+02
 -3.12949844014903249E+02 -3.08733789045785159E+02 -3.04572567646868492E+02
 -3.00465524495775242E+02 -2.96412012232973666E+02 -2.92411391346342327E+02
 -2.88463030056875368E+02 -2.84566304205521931E+02 -2.80720597141155338E+02
 -2.76925299609668400E+02 -2.73179809644184161E+02 -2.69483532456393220E+02
 -2.65835880329020654E+02 -2.62236272509402966E+02 -2.58684135104183667E+02
 -2.55178900975127902E+02 -2.51720009636059075E+02 -2.48306907150919272E+02
 -2.44939046032957606E+02 -2.41615885145049106E+02 -2.38336889601146737E+02
 -2.35101530668874261E+02 -2.31909285673283847E+02 -2.28759637901762090E+02
 -2.25652076510097544E+02 -2.22586096429722772E+02 -2.19561198276137674E+02
 -2.16576888258526310E+02 -2.13632678090575951E+02 -2.10728084902511540E+02
 -2.07862631154352698E+02 -2.05035844550409820E+02 -2.02247257955045114E+02
 -1.99496409309691842E+02 -1.96782841551152700E+02 -1.94106102531191851E+02
 -1.91465744937435772E+02 -1.88861326215598922E+02 -1.86292408493047759E+02
 -1.83758558503720366E+02 -1.81259347514414969E+02 -1.78794351252467692E+02
 -1.76363149834836918E+02 -1.73965327698602295E+02 -1.71600473532897269E+02
 -1.69268180212291554E+02 -1.66968044731639168E+02 -1.64699668142407290E+02
 -1.62462655490500367E+02 -1.60256615755594368E+02 -1.58081161791999449E+02
 -1.55935910271057708E+02 -1.53820481625087581E+02 -1.51734499992891017E+02
 -1.49677593166833816E+02 -1.47649392541509258E+02 -1.45649533063993886E+02
 -1.43677653185703832E+02 -1.41733394815858873E+02 -1.39816403276565609E+02
 -1.37926327259526715E+02 -1.36062818784347996E+02 -1.34225533158474889E+02
 -1.32414128938753606E+02 -1.30628267894613288E+02 -1.28867614972865226E+02
 -1.27131838264114620E+02 -1.25420608970777238E+02 -1.23733601376694963E+02
 -1.22070492818360904E+02 -1.20430963657686235E+02 -1.18814697256313039E+02
 -1.17221379951481282E+02 -1.15650701033416681E+02 -1.14102352724216871E+02
 -1.12576030158211708E+02 -1.11071431363771239E+02 -1.09588257246533530E+02
 -1.08126211574046479E+02 -1.06685000961759613E+02 -1.05264334860276222E+02
 -1.03863925543917659E+02 -1.02483488100530323E+02 -1.01122740422489017E+02
 -9.97814031988514358E+01 -9.84591999086160996E+01 -9.71558568150341131E+01
 -9.58711029609431620E+01 -9.46046701650807194E+01 -9.33562930191892946E+01
 -9.21257088859900932E+01 -9.09126578979442002E+01 -8.97168829567270194E+01
 -8.85381297333523349E+01 -8.73761466688823987E+01 -8.62306849756577520E+01
 -8.51014986389939594E+01 -8.39883444193217059E+01 -8.28909818545245685E+01
 -8.18091732625411225E+01 -8.07426837441743714E+01 -7.96912811860083821E+01
 -7.86547362633623663E+01 -7.76328224432121203E+01 -7.66253159870087615E+01
 -7.56319959533358599E+01 -7.46526442003960966E+01 -7.36870453880714678E+01
 -7.27349869796001371E+01 -7.17962592428588238E+01 -7.08706552511414856E+01
 -6.99579708833719423E+01 -6.90580048236901547E+01 -6.81705585603535127E+01
 -6.72954363839049137E+01 -6.64324453846206495E+01 -6.55813954489985633E+01
 -6.47420992553246180E+01 -6.39143722683539011E+01 -6.30980327330082957E+01
 -6.22929016670491364E+01 -6.14988028526876036E+01 -6.07155628270988288E+01
 -5.99430108718148276E+01 -5.91809790010351335E+01 -5.84293019486485221E+01
 -5.76878171540232216E+01 -5.69563647466379308E+01 -5.62347875294834409E+01
 -5.55229309612249722E+01 -5.48206431371205056E+01 -5.41277747686952182E+01
 -5.34441791621833389E+01 -5.27697121958072799E+01 -5.21042322957358977E+01
 -5.14476004108265599E+01 -5.07996799862516468E+01 -5.01603369359880418E+01
 -4.95294396142049820E+01 -4.89068587855909271E+01 -4.82924675946658724E+01
 -4.76861415341359489E+01 -4.70877584123929438E+01 -4.64971983200596171E+01
 -4.59143435957373711E+01 -4.53390787910655035E+01 -4.47712906351149087E+01
 -4.42108679981808308E+01 -4.36577018550409264E+01 -4.31116852477439920E+01
 -4.25727132480037938E+01 -4.20406829192953779E+01 -4.15154932785879396E+01
 -4.09970452578797122E+01 -4.04852416656125982E+01 -3.99799871479996938E+01
 -3.94811881503256075E+01 -3.89887528782782624E+01 -3.85025912593693391E+01
 -3.80226149045084227E+01 -3.75487370698001541E+01 -3.70808726185236708E+01
 -3.66189379834377817E+01 -3.61628511294537702E+01 -3.57125315167086015E+01
 -3.52679000640833564E+01 -3.48288791132097160E+01 -3.43953923930055225E+01
 -3.39673649847858385E+01 -3.35447232879843540E+01 -3.31273949864646440E+01
 -3.27153090155180024E+01 -3.23083955295593270E+01 -3.19065858705386738E+01
 -3.15098125370894309E+01 -3.11180091544313306E+01 -3.07311104450435586E+01
 -3.03490522001280176E+01 -2.99717712518618100E+01 -2.95992054464264740E+01
 -2.92312936178550871E+01 -2.88679755626855510E+01 -2.85091920154167937E+01
 -2.81548846247643958E+01 -2.78049959307096302E+01 -2.74594693423345504E+01
 -2.71182491164378341E+01 -2.67812803369081713E+01 -2.64485088948408169E+01
 -2.61198814693972921E+01 -2.57953455093838713E+01 -2.54748492155309201E+01
 -2.51583415234537782E+01 -2.48457720872755381E+01 -2.45370912638910887E+01
 -2.42322500978535658E+01 -2.39312003068531816E+01 -2.36338942677710477E+01
 -2.33402850032888729E+01 -2.30503261690288284E+01 -2.27639720412007307E+01
 -2.24811775047340916E+01 -2.22018980418724254E+01 -2.19260897212081005E+01
 -2.16537091871365739E+01 -2.13847136497049810E+01 -2.11190608748382438E+01
 -2.08567091749221483E+01 -2.05976173997232443E+01 -2.03417449276265536E+01
 -2.00890516571729734E+01 -1.98394979988792315E+01 -1.95930448673235595E+01
 -1.93496536734816189E+01 -1.91092863172962382E+01 -1.88719051804684810E+01
 -1.86374731194562315E+01 -1.84059534586670992E+01 -1.81773099838342098E+01
 -1.79515069355633869E+01 -1.77285090030414167E+01 -1.75082813178959285E+01
 -1.72907894481973621E+01 -1.70759993925949267E+01 -1.68638775745788365E+01
 -1.66543908368617295E+01 -1.64475064358725476E+01 -1.62431920363567208E+01
 -1.60414157060772951E+01 -1.58421459106116682E+01 -1.56453515082393952E+01
 -1.54510017449167094E+01 -1.52590662493338272E+01 -1.50695150280516259E+01
 -1.48823184607143144E+01 -1.46974472953350759E+01 -1.45148726436522857E+01
 -1.43345659765533693E+01 -1.41564991195645522E+01 -1.39806442484040740E+01
 -1.38069738845972108E+01 -1.36354608911513626E+01 -1.34660784682895400E+01
 -1.32988001492410177E+01 -1.31335997960875819E+01 -1.29704515956643256E+01
 -1.28093300555138416E+01 -1.26502099998926294E+01 -1.24930665658289062E+01
 -1.23378751992307993E+01 -1.21846116510440119E+01 -1.20332519734583325E+01
 -1.18837725161619314E+01 -1.17361499226429906E+01 -1.15903611265377435E+01
 -1.14463833480243462E+01 -1.13041940902619569E+01 -1.11637711358742582E+01
 -1.10250925434770153E+01 -1.08881366442488652E+01 -1.07528820385449002E+01
 -1.06193075925524756E+01 -1.04873924349885783E+01 -1.03571159538384006E+01
 -1.02284577931344014E+01 -1.01013978497754682E+01 -9.97591627038565676E+00
 -9.85199344821191936E+00 -9.72961002006045739E+00 -9.60874686327109906E+00
 -9.48938509272930197E+00 -9.37150605791529578E+00 -9.25509133998984623E+00
 -9.14012274891628351E+00 -9.02658232061824073E+00 -8.91445231417270811E+00
 -8.80371520903799976E+00 -8.69435370231609106E+00 -8.58635070604903738E+00
 -8.47968934454892143E+00 -8.37435295176098471E+00 -8.27032506865953465E+00
 -8.16758944067618486E+00 -8.06613001516003614E+00 -7.96593093886943926E+00
 -7.86697655549485209E+00 -7.76925140321255547E+00 -7.67274021226867475E+00
 -7.57742790259327226E+00 -7.48329958144405172E+00 -7.39034054107931571E+00
 -7.29853625645989901E+00 -7.20787238297953259E+00 -7.11833475422353867E+00
 -7.02990937975526098E+00 -6.94258244293002580E+00 -6.85634029873629558E+00
 -6.77116947166357352E+00 -6.68705665359684875E+00 -6.60398870173717611E+00
 -6.52195263654806201E+00 -6.44093563972742711E+00 -6.36092505220468318E+00
 -6.28190837216274822E+00 -6.20387325308460991E+00 -6.12680750182414080E+00
 -6.05069907670091744E+00 -5.97553608561867122E+00 -5.90130678420712496E+00
 -5.82799957398691415E+00 -5.75560300055729357E+00 -5.68410575180637512E+00
 -5.61349665614357907E+00 -5.54376468075405082E+00 -5.47489892987477056E+00
 -5.40688864309204753E+00 -5.33972319366021075E+00 -5.27339208684113014E+00
 -5.20788495826441977E+00 -5.14319157230796442E+00 -5.07930182049858203E+00
 -5.01620571993257247E+00 -4.95389341171585418E+00 -4.89235515942348886E+00
 -4.83158134757835889E+00 -4.77156248014871398E+00 -4.71228917906441147E+00
 -4.65375218275156666E+00 -4.59594234468540463E+00 -4.53885063196112082E+00
 -4.48246812388244020E+00 -4.42678601056776966E+00 -4.37179559157361552E+00
 -4.31748827453513062E+00 -4.26385557382354197E+00 -4.21088910922024340E+00
 -4.15858060460737811E+00 -4.10692188667468461E+00 -4.05590488364237789E+00
 -4.00552162399994494E+00 -3.95576423526055709E+00 -3.90662494273099314E+00
 -3.85809606829682306E+00 -3.81017002922267878E+00 -3.76283933696745354E+00
 -3.71609659601418274E+00 -3.66993450271449806E+00 -3.62434584414740302E+00
 -3.57932349699224206E+00 -3.53486042641567755E+00 -3.49094968497246905E+00
 -3.44758441151992834E+00 -3.40475783014585343E+00 -3.36246324910977146E+00
 -3.32069405979734933E+00 -3.27944373568777214E+00 -3.23870583133397671E+00
 -3.19847398135552652E+00 -3.15874189944400552E+00 -3.11950337738078654E+00
 -3.08075228406696011E+00 -3.04248256456535771E+00 -3.00468823915444849E+00
 -2.96736340239399032E+00 -2.93050222220230561E+00 -2.89409893894499426E+00
 -2.85814786453498026E+00 -2.82264338154374705E+00 -2.78757994232359119E+00
 -2.75295206814079929E+00 -2.71875434831957996E+00 -2.68498143939663292E+00
 -2.65162806428622799E+00 -2.61868901145564692E+00 -2.58615913411086895E+00
 -2.55403334939237991E+00 -2.52230663758095153E+00 -2.49097404131331768E+00
 -2.46003066480756560E+00 -2.42947167309816026E+00 -2.39929229128047528E+00
 -2.36948780376470181E+00 -2.34005355353902544E+00 -2.31098494144196520E+00
 -2.28227742544374035E+00 -2.25392651993656967E+00 -2.22592779503379079E+00
 -2.19827687587766896E+00 -2.17096944195583186E+00 -2.14400122642617141E+00
 -2.11736801545014464E+00 -2.09106564753435187E+00 -2.06509001288029159E+00
 -2.03943705274219989E+00 -2.01410275879286749E+00 -1.98908317249731947E+00
 -1.96437438449429758E+00 -1.93997253398540193E+00 -1.91587380813184494E+00
 -1.89207444145868542E+00 -1.86857071526645835E+00 -1.84535895705012987E+00
 -1.82243553992525142E+00 -1.79979688206125932E+00 -1.77743944612180482E+00
 -1.75535973871203477E+00 -1.73355430983274772E+00 -1.71201975234131365E+00
 -1.69075270141931355E+00 -1.66974983404677424E+00 -1.64900786848293657E+00
 -1.62852356375348362E+00 -1.60829371914412200E+00 -1.58831517370047592E+00
 -1.56858480573417247E+00 -1.54909953233507602E+00 -1.52985630888957536E+00
 -1.51085212860485396E+00 -1.49208402203908008E+00 -1.47354905663741742E+00
 -1.45524433627381389E+00 -1.43716700079847093E+00 -1.41931422559094078E+00
 -1.40168322111877641E+00 -1.38427123250165884E+00 -1.36707553908094104E+00
 -1.35009345399454217E+00 -1.33332232375711568E+00 -1.31675952784544181E+00
 -1.30040247828896138E+00 -1.28424861926540301E+00 -1.26829542670142947E+00
 -1.25254040787824472E+00 -1.23698110104210390E+00 -1.22161507501965860E+00
 -1.20643992883808027E+00 -1.19145329134990474E+00 -1.17665282086253264E+00
 -1.16203620477233827E+00 -1.14760115920332106E+00 -1.13334542865024201E+00
 -1.11926678562619952E+00 -1.10536303031457628E+00 -1.09163199022531821E+00
 -1.07807151985547511E+00
                             </PP_AE_VLOC> 
                                      </PP_PAW> 
 <PP_GIPAW gipaw_data_format="2">
  <PP_GIPAW_CORE_ORBITALS number_of_core_orbitals=" 1">
   <PP_GIPAW_CORE_ORBITAL.1 type="real" size="   961" columns="3" index="1" label="1S" n="1" l="0">
  5.64944302039563275E-03  5.72024512229577908E-03  5.79193371210640334E-03
  5.86451986886282924E-03  5.93801480896657703E-03  6.01242988797106442E-03
  6.08777660351754284E-03  6.16406659648108257E-03  6.24131165165243886E-03
  6.31952370100011002E-03  6.39871482548064717E-03  6.47889725539571755E-03
  6.56008337340474590E-03  6.64228571687715610E-03  6.72551697831378324E-03
  6.80979000803526389E-03  6.89511781689226225E-03  6.98151357678821350E-03
  7.06899062328913714E-03  7.15756245846258399E-03  7.24724275144423852E-03
  7.33804534126670290E-03  7.42998423958092687E-03  7.52307363127175180E-03
  7.61732787773738897E-03  7.71276151917143094E-03  7.80938927549388456E-03
  7.90722605004530801E-03  8.00628693112140008E-03  8.10658719381033774E-03
  8.20814230356313977E-03  8.31096791711474769E-03  8.41507988566322224E-03
  8.52049425740940454E-03  8.62722727893470986E-03  8.73529539906173561E-03
  8.84471527008732356E-03  8.95550375091689298E-03  9.06767790974153873E-03
  9.18125502575077926E-03  9.29625259298930140E-03  9.41268832162888563E-03
  9.53058014174204028E-03  9.64994620530563833E-03  9.77080488907750705E-03
  9.89317479767620744E-03  1.00170747656232236E-02  1.01425238611802197E-02
  1.02695413880145511E-02  1.03981468892999397E-02  1.05283601494673019E-02
  1.06602011982022508E-02  1.07936903125257170E-02  1.09288480205685691E-02
  1.10656951040066145E-02  1.12042526016591700E-02  1.13445418121944017E-02
  1.14865842976598406E-02  1.16304018863451677E-02  1.17760166763607333E-02
  1.19234510385500276E-02  1.20727276202183247E-02  1.22238693480087174E-02
  1.23768994318527448E-02  1.25318413677663037E-02  1.26887189420341259E-02
  1.28475562339654993E-02  1.30083776202122095E-02  1.31712077776588599E-02
  1.33360716876450361E-02  1.35029946392520583E-02  1.36720022331833363E-02
  1.38431203856359281E-02  1.40163753317676040E-02  1.41917936300582880E-02
  1.43694021656645687E-02  1.45492281547970927E-02  1.47312991485218751E-02
  1.49156430366944280E-02  1.51022880523791914E-02  1.52912627755557428E-02
  1.54825961376080529E-02  1.56763174255047030E-02  1.58724562858470405E-02
  1.60710427295251805E-02  1.62721071358709821E-02  1.64756802570532705E-02
  1.66817932227744901E-02  1.68904775445661223E-02  1.71017651204083063E-02
  1.73156882395118471E-02  1.75322795868140154E-02  1.77515722477347357E-02
  1.79735997130998325E-02  1.81983958838658304E-02  1.84259950759631218E-02
  1.86564320253844521E-02  1.88897418931568348E-02  1.91259602702899129E-02
  1.93651231829918107E-02  1.96072670978746713E-02  1.98524289271306033E-02
  2.01006460337794755E-02  2.03519562371017905E-02  2.06063978180485892E-02
  2.08640095246739633E-02  2.11248305776336048E-02  2.13889006758342555E-02
  2.16562600020882325E-02  2.19269492288186180E-02  2.22010095238017700E-02
  2.24784825560298412E-02  2.27594105016360564E-02  2.30438360498605825E-02
  2.33318024090815312E-02  2.36233533128983944E-02  2.39185330263028233E-02
  2.42173863519285909E-02  2.45199586363511780E-02  2.48262957764551692E-02
  2.51364442258705696E-02  2.54504510014759502E-02  2.57683636899700245E-02
  2.60902304545275431E-02  2.64161000415180890E-02  2.67460217872943426E-02
  2.70800456250527774E-02  2.74182220917669715E-02  2.77606023351943329E-02
  2.81072381209566749E-02  2.84581818396949307E-02  2.88134865142984052E-02
  2.91732058072107329E-02  2.95373940278121430E-02  2.99061061398772435E-02
  3.02793977691100842E-02  3.06573252107566648E-02  3.10399454372960355E-02
  3.14273161062101347E-02  3.18194955678328742E-02  3.22165428732794842E-02
  3.26185177824558775E-02  3.30254807721493335E-02  3.34374930442006141E-02
  3.38546165337581251E-02  3.42769139176147888E-02  3.47044486226277052E-02
  3.51372848342218144E-02  3.55754875049773892E-02  3.60191223633023055E-02
  3.64682559221895242E-02  3.69229554880597596E-02  3.73832891696907824E-02
  3.78493258872324781E-02  3.83211353813084216E-02  3.87987882222065039E-02
  3.92823558191566016E-02  3.97719104296969522E-02  4.02675251691291536E-02
  4.07692740200620574E-02  4.12772318420457363E-02  4.17914743812948936E-02
  4.23120782805025686E-02  4.28391210887400647E-02  4.33726812714521001E-02
  4.39128382205468196E-02  4.44596722645743958E-02  4.50132646789974666E-02
  4.55736976965540122E-02  4.61410545177067324E-02  4.67154193211836433E-02
  4.72968772746271485E-02  4.78855145453295356E-02  4.84814183110601413E-02
  4.90846767709798293E-02  4.96953791566407191E-02  5.03136157431076300E-02
  5.09394778601634374E-02  5.15730579036031075E-02  5.22144493466007095E-02
  5.28637467511987036E-02  5.35210457798990166E-02  5.41864432073319996E-02
  5.48600369319917069E-02  5.55419259881047359E-02  5.62322105576001305E-02
  5.69309919821404040E-02  5.76383727752288189E-02  5.83544566344738752E-02
  5.90793484539159849E-02  5.98131543363997417E-02  6.05559816061019204E-02
  6.13079388211529019E-02  6.20691357862788382E-02  6.28396835655931213E-02
  6.36196944954995763E-02  6.44092821975966734E-02  6.52085615917445682E-02
  6.60176489092308000E-02  6.68366617059278634E-02  6.76657188756500522E-02
  6.85049406635475922E-02  6.93544486795330817E-02  7.02143659119169317E-02
  7.10848167409945664E-02  7.19659269527902906E-02  7.28578237528960532E-02
  7.37606357802894769E-02  7.46744931213825930E-02  7.55995273239906951E-02
  7.65358714114963007E-02  7.74836598970305296E-02  7.84430287977117280E-02
  7.94141156490370814E-02  8.03970595192084747E-02  8.13920010236958563E-02
  8.23990823396790750E-02  8.34184472207417094E-02  8.44502410114479490E-02
  8.54946106621419927E-02  8.65517047436580450E-02  8.76216734622172755E-02
  8.87046686742559154E-02  8.98008439014187226E-02  9.09103543454851948E-02
  9.20333569034593735E-02  9.31700101825734539E-02  9.43204745154704038E-02
  9.54849119752678582E-02  9.66634863908232694E-02  9.78563633618488166E-02
  9.90637102742347314E-02  1.00285696315220094E-01  1.01522492488734656E-01
  1.02774271630641734E-01  1.04041208424051165E-01  1.05323479414643900E-01
  1.06621263025927754E-01  1.07934739574616870E-01  1.09264091285849907E-01
  1.10609502308542287E-01  1.11971158730626991E-01  1.13349248594289492E-01
  1.14743961911243572E-01  1.16155490677850984E-01  1.17584028890331940E-01
  1.19029772559858860E-01  1.20492919727583914E-01  1.21973670479704741E-01
  1.23472226962353673E-01  1.24988793396485873E-01  1.26523576092712170E-01
  1.28076783465958383E-01  1.29648626050129862E-01  1.31239316512654081E-01
  1.32849069668856623E-01  1.34478102496315810E-01  1.36126634149060788E-01
  1.37794885971590814E-01  1.39483081512837753E-01  1.41191446539954774E-01
  1.42920209051899311E-01  1.44669599292915896E-01  1.46439849765838098E-01
  1.48231195245156794E-01  1.50043872789924260E-01  1.51878121756481632E-01
  1.53734183810927572E-01  1.55612302941346786E-01  1.57512725469855036E-01
  1.59435700064366914E-01  1.61381477750074359E-01  1.63350311920669178E-01
  1.65342458349301780E-01  1.67358175199213449E-01  1.69397723034032249E-01
  1.71461364827771773E-01  1.73549365974491249E-01  1.75661994297580976E-01
  1.77799520058658650E-01  1.79962215966099653E-01  1.82150357183171574E-01
  1.84364221335732548E-01  1.86604088519482153E-01  1.88870241306762165E-01
  1.91162964752904924E-01  1.93482546402079264E-01  1.95829276292621313E-01
  1.98203446961827706E-01  2.00605353450220042E-01  2.03035293305242698E-01
  2.05493566584365461E-01  2.07980475857574204E-01  2.10496326209223261E-01
  2.13041425239249738E-01  2.15616083063713770E-01  2.18220612314635160E-01
  2.20855328139105356E-01  2.23520548197650826E-01  2.26216592661824673E-01
  2.28943784211012857E-01  2.31702448028413610E-01  2.34492911796163495E-01
  2.37315505689588147E-01  2.40170562370546237E-01  2.43058416979837516E-01
  2.45979407128661065E-01  2.48933872889074481E-01  2.51922156783431050E-01
  2.54944603772762013E-01  2.58001561244072974E-01  2.61093378996520020E-01
  2.64220409226435082E-01  2.67383006511169641E-01  2.70581527791718124E-01
  2.73816332354080261E-01  2.77087781809333300E-01  2.80396240072374126E-01
  2.83742073339293466E-01  2.87125650063342841E-01  2.90547340929455777E-01
  2.94007518827287317E-01  2.97506558822723421E-01  3.01044838127821290E-01
  3.04622736069137978E-01  3.08240634054401053E-01  3.11898915537482724E-01
  3.15597965981625428E-01  3.19338172820874844E-01  3.23119925419675991E-01
  3.26943615030578560E-01  3.30809634750010240E-01  3.34718379472061900E-01
  3.38670245840233697E-01  3.42665632197093784E-01  3.46704938531793405E-01
  3.50788566425386861E-01  3.54916918993902264E-01  3.59090400829102763E-01
  3.63309417936888757E-01  3.67574377673276442E-01  3.71885688677898618E-01
  3.76243760804967131E-01  3.80649005051633571E-01  3.85101833483692424E-01
  3.89602659158558406E-01  3.94151896045456807E-01  3.98749958942763050E-01
  4.03397263392422933E-01  4.08094225591390469E-01  4.12841262300011835E-01
  4.17638790747292599E-01  4.22487228532971715E-01  4.27386993526336079E-01
  4.32338503761703907E-01  4.37342177330501958E-01  4.42398432269865138E-01
  4.47507686447684572E-01  4.52670357444025784E-01  4.57886862428844188E-01
  4.63157618035915875E-01  4.68483040232912373E-01  4.73863544187532904E-01
  4.79299544129619337E-01  4.84791453209171330E-01  4.90339683350177524E-01
  4.95944645100185377E-01  5.01606747475522696E-01  5.07326397802085105E-01
  5.13104001551612177E-01  5.18939962173356806E-01  5.24834680921068886E-01
  5.30788556675205414E-01  5.36801985760274936E-01  5.42875361757233388E-01
  5.49009075310843642E-01  5.55203513931902481E-01  5.61459061794255088E-01
  5.67776099526498990E-01  5.74155003998295110E-01  5.80596148101185650E-01
  5.87099900523840090E-01  5.93666625521630631E-01  6.00296682680445670E-01
  6.06990426674656747E-01  6.13748207019143233E-01  6.20570367815284185E-01
  6.27457247490833203E-01  6.34409178533575036E-01  6.41426487218687669E-01
  6.48509493329707754E-01  6.55658509873021544E-01  6.62873842785787870E-01
  6.70155790637206206E-01  6.77504644323047800E-01  6.84920686753356933E-01
  6.92404192533248697E-01  6.99955427636713368E-01  7.07574649073344553E-01
  7.15262104547922384E-01  7.23018032112758502E-01  7.30842659812740547E-01
  7.38736205322992667E-01  7.46698875579083987E-01  7.54730866399715872E-01
  7.62832362101817929E-01  7.71003535107993243E-01  7.79244545546242562E-01
  7.87555540841919144E-01  7.95936655301851648E-01  8.04388009690585881E-01
  8.12909710798696672E-01  8.21501851003126338E-01  8.30164507819506459E-01
  8.38897743446432087E-01  8.47701604301652201E-01  8.56576120550153530E-01
  8.65521305624114223E-01  8.74537155734710470E-01  8.83623649375771092E-01
  8.92780746819267113E-01  9.02008389602644511E-01  9.11306500008004838E-01
  9.20674980533154441E-01  9.30113713354537741E-01  9.39622559782087308E-01
  9.49201359706027703E-01  9.58849931035677172E-01  9.68568069130305243E-01
  9.78355546222104522E-01  9.88212110831348300E-01  9.98137487173821558E-01
  1.00813137456060908E+00  1.01819344679034840E+00  1.02832335153405663E+00
  1.03852070971265786E+00  1.04878511486733950E+00  1.05911613252289505E+00
  1.06951329954420604E+00  1.07997612348603322E+00  1.09050408193630233E+00
  1.10109662185309287E+00  1.11175315889554316E+00  1.12247307674889440E+00
  1.13325572644391226E+00  1.14410042567095727E+00  1.15500645808896429E+00
  1.16597307262963690E+00  1.17699948279715882E+00  1.18808486596374663E+00
  1.19922836266139221E+00  1.21042907587016191E+00  1.22168607030342025E+00
  1.23299837169039717E+00  1.24436496605650948E+00  1.25578479900187645E+00
  1.26725677497847378E+00  1.27877975656649401E+00  1.29035256375034435E+00
  1.30197397319482522E+00  1.31364271752205108E+00  1.32535748458969249E+00
  1.33711691677113098E+00  1.34891961023817131E+00  1.36076411424694088E+00
  1.37264893042767144E+00  1.38457251207905685E+00  1.39653326346791729E+00
  1.40852953913493328E+00  1.42055964320717476E+00  1.43262182871832255E+00
  1.44471429693746178E+00  1.45683519670720352E+00  1.46898262379207378E+00
  1.48115462023809763E+00  1.49334917374454723E+00  1.50556421704882437E+00
  1.51779762732551071E+00  1.53004722560062856E+00  1.54231077618218304E+00
  1.55458598610811061E+00  1.56687050461273669E+00  1.57916192261282129E+00
  1.59145777221474449E+00  1.60375552624380235E+00  1.61605259779686983E+00
  1.62834633981977150E+00  1.64063404471068375E+00  1.65291294395093336E+00
  1.66518020776457387E+00  1.67743294480815552E+00  1.68966820189214895E+00
  1.70188296373548398E+00  1.71407415275462616E+00  1.72623862888865820E+00
  1.73837318946252917E+00  1.75047456908946408E+00  1.76253943961424353E+00
  1.77456441009905075E+00  1.78654602685354136E+00  1.79848077351083147E+00
  1.81036507115110745E+00  1.82219527847458829E+00  1.83396769202558652E+00
  1.84567854646937413E+00  1.85732401492326971E+00  1.86890020934486922E+00
  1.88040318097852754E+00  1.89182892086170873E+00  1.90317336039325724E+00
  1.91443237196540261E+00  1.92560176966136565E+00  1.93667731002039378E+00
  1.94765469287208060E+00  1.95852956224180086E+00  1.96929750732889719E+00
  1.97995406355905312E+00  1.99049471371459852E+00  2.00091488914291160E+00
  2.01120997104476285E+00  2.02137529184460574E+00  2.03140613664456104E+00
  2.04129774476377568E+00  2.05104531136487145E+00  2.06064398916908731E+00
  2.07008889026170007E+00  2.07937508798830706E+00  2.08849761894514874E+00
  2.09745148506554502E+00  2.10623165580160876E+00  2.11483307040342483E+00
  2.12325064029700705E+00  2.13147925156223605E+00  2.13951376751184608E+00
  2.14734903137251276E+00  2.15497986906894479E+00  2.16240109211076437E+00
  2.16960750058355556E+00  2.17659388624821748E+00  2.18335503574458789E+00
  2.18988573390085639E+00  2.19618076714931476E+00  2.20223492704855639E+00
  2.20804301391210389E+00  2.21359984054331305E+00  2.21890023607619691E+00
  2.22393904992022495E+00  2.22871115580913459E+00  2.23321145595856585E+00
  2.23743488532452428E+00  2.24137641596317305E+00  2.24503106149101406E+00
  2.24839388164384779E+00  2.25145998693271876E+00  2.25422454339480804E+00
  2.25668277743696555E+00  2.25882998076648311E+00  2.26066151541035909E+00
  2.26217281882472410E+00  2.26335940908219646E+00  2.26421689013670635E+00
  2.26474095716235979E+00  2.26492740196233111E+00  2.26477211844347259E+00
  2.26427110815204280E+00  2.26342048586513522E+00  2.26221648522761587E+00
  2.26065546444209753E+00  2.25873391200101814E+00  2.25644845244869430E+00
  2.25379585217057210E+00  2.25077302520300915E+00  2.24737703905652131E+00
  2.24360512054512196E+00  2.23945466161404338E+00  2.23492322515428299E+00
  2.23000855079542371E+00  2.22470856068622957E+00  2.21902136523391214E+00
  2.21294526879668751E+00  2.20647877532166614E+00  2.19962059391814169E+00
  2.19236964435602211E+00  2.18472506247885789E+00  2.17668620551964498E+00
  2.16825265729934946E+00  2.15942423332057842E+00  2.15020098573498197E+00
  2.14058320816184011E+00  2.13057144035249113E+00  2.12016647268853031E+00
  2.10936935050147500E+00  2.09818137820144024E+00  2.08660412320216393E+00
  2.07463941962072296E+00  2.06228937175109550E+00  2.04955635731599628E+00
  2.03644303045361852E+00  2.02295232443704531E+00  2.00908745411542888E+00
  1.99485191806501461E+00  1.98024950043834735E+00  1.96528427250035520E+00
  1.94996059383409048E+00  1.93428311320258906E+00  1.91825676909764531E+00
  1.90188678992394578E+00  1.88517869381682668E+00  1.86813828809010718E+00
  1.85077166830696838E+00  1.83308521696772009E+00  1.81508560180921097E+00
  1.79677977370750686E+00  1.77817496416772980E+00  1.75927868245088193E+00
  1.74009871229596413E+00  1.72064310823361133E+00  1.70092019150065554E+00
  1.68093854555712818E+00  1.66070701120788988E+00  1.64023468133168482E+00
  1.61953089521773053E+00  1.59860523249555264E+00  1.57746750671527169E+00
  1.55612775854797625E+00  1.53459624859144106E+00  1.51288344979241729E+00
  1.49100003948135607E+00  1.46895689101177851E+00  1.44676506499229918E+00
  1.42443580009208937E+00  1.40198050337796243E+00  1.37941074020810639E+00
  1.35673822362246055E+00  1.33397480316490435E+00  1.31113245310618987E+00
  1.28822326001713705E+00  1.26525940963961347E+00  1.24225317300402005E+00
  1.21921689174529546E+00  1.19616296256205890E+00  1.17310382085073939E+00
  1.15005192349278684E+00  1.12701973079530560E+00  1.10401968765884706E+00
  1.08106420406435100E+00  1.05816563500674232E+00  1.03533626003771895E+00
  1.01258826261003465E+00  9.89933709425702246E-01  9.67384530077833205E-01
  9.44952497206254849E-01  9.22649207384915071E-01  9.00486062980624613E-01
  8.78474255178258168E-01  8.56624748326458296E-01  8.34948265707002757E-01
  8.13455276770478464E-01  7.92155985808229435E-01  7.71060322020937328E-01
  7.50177930815152272E-01  7.29518166127983370E-01  7.09090083569322016E-01
  6.88902434144399778E-01  6.68963658324195465E-01  6.49281880255522692E-01
  6.29864901942123079E-01  6.10720197278027066E-01  5.91854905893923422E-01
  5.73275826794459875E-01  5.54989411832961244E-01  5.37001759113982180E-01
  5.19318606435899888E-01  5.01945324900099243E-01  4.84886912816613946E-01
  4.68147990031119510E-01  4.51732792789370285E-01  4.35645169230614582E-01
  4.19888575588989899E-01  4.04466073168540274E-01  3.89380326138708210E-01
  3.74633600182997184E-01  3.60227762021425979E-01  3.46164279817340437E-01
  3.32444224475737238E-01  3.19068271833487183E-01  3.06036705701997203E-01
  2.93349421775597419E-01  2.81005932387058788E-01  2.69005372088894967E-01
  2.57346504039508983E-01  2.46027727171288790E-01  2.35047084116015020E-01
  2.24402269873703486E-01  2.14090641187717423E-01  2.04109226556259654E-01
  1.94454736900447400E-01  1.85123576841932702E-01  1.76111856551606882E-01
  1.67415404131957019E-01  1.59029778493836454E-01  1.50950282687408149E-01
  1.43171977667283401E-01  1.35689696408864718E-01  1.28498058311058483E-01
  1.21591483897956640E-01  1.14964209749513074E-01  1.08610303611177142E-01
  1.02523679633648529E-01  9.66981136936110874E-02  9.11272587489717900E-02
  8.58046602081730114E-02  8.07237711902957650E-02  7.58779676550029314E-02
  7.12605633957236334E-02  6.68648248265454881E-02  6.26839855176860999E-02
  5.87112604365404578E-02  5.49398598530681792E-02  5.13630028772074018E-02
  4.79739306135527344E-02  4.47659188053243923E-02  4.17322900091313537E-02
  3.88664252775674096E-02  3.61617753059122263E-02  3.36118710186900371E-02
  3.12103335747665640E-02  2.89508837726368748E-02  2.68273508537609194E-02
  2.48336806909206335E-02  2.29639432788868343E-02  2.12123396086658610E-02
  1.95732079033445402E-02  1.80410292072961283E-02  1.66104323312817985E-02
  1.52761981587761168E-02  1.40332633218835968E-02  1.28767232752099222E-02
  1.18018347511500248E-02  1.08040175878263613E-02  9.87885600891518466E-03
  9.02209935146893252E-03  8.22966226062131490E-03  7.49762437422670566E-03
  6.82222952196678053E-03  6.19988446613322676E-03  5.62715722634142719E-03
  5.10077497286500533E-03  4.61762153554656427E-03  4.17473458146283560E-03
  3.76930247515343047E-03  3.39866085058435031E-03  3.06028892440674211E-03
  2.75180557988167606E-03  2.47096525327267441E-03  2.21565365768358309E-03
  1.98388333772761332E-03  1.77378911444467879E-03  1.58362344596855932E-03
  1.41175172269203788E-03  1.25664752094952533E-03  1.11688783804000241E-03
  9.91148330143007622E-04  8.78198576964209221E-04  7.76897388657942878E-04
  6.86188158492532368E-04  6.05094298980288583E-04  5.32714769285347442E-04
  4.68219705295461652E-04  4.10846163896270663E-04  3.59893991549765273E-04
  3.14721825988461938E-04  2.74743241181528615E-04  2.39423034754854974E-04
  2.08273663126671118E-04  1.80851835424537458E-04  1.56755264556848013E-04
  1.35619576494882529E-04  1.17115378050983293E-04  1.00945482508880266E-04
  8.68422918486421835E-05  7.45653344074569005E-05  6.38989503759822882E-05
  5.46501254390685157E-05  4.66464691043066694E-05  3.97343318462691758E-05
  3.37770560786465875E-05  2.86533556559381497E-05  2.42558183525969376E-05
  2.04895258276906239E-05  1.72707851132165952E-05  1.45259641719714859E-05
  1.21904277094608120E-05  1.02075666843093230E-05  8.52791539996860650E-06
  7.10835039098700453E-06  5.91136545065725658E-06  4.90441731237961827E-06
  4.05933682552021746E-06  3.35180018639901167E-06  2.76085530752685776E-06
  2.26849920136001307E-06  1.85930170060630296E-06  1.52007134133015669E-06
  1.23955950937190499E-06  1.00819920204219516E-06  8.17875012650523448E-07
  6.61721222641555630E-07  5.33944928074127994E-07  4.29671652910051900E-07
  3.44811019874473446E-07  2.75940173212785225E-07  2.20202907152477375E-07
  1.75222645614552251E-07  1.39027598140140321E-07  1.09986589052184226E-07
  8.67542073946879127E-08  6.82240397944615018E-08  5.34889591962345782E-08
  4.18075026209225110E-08  3.25754910131053730E-08  2.53021513487190099E-08
  1.95900923887719547E-08  1.51185675887749166E-08  1.16295336853628926E-08
  8.91607389507097859E-09  6.81281659375705513E-09  5.18803798187714981E-09
  3.93717287722216700E-09  2.97750107107293320E-09  2.24381174335291605E-09
  1.68487861372596692E-09  1.26060466107274928E-09  9.39717919172228756E-10
  6.97918095340235307E-10  5.16392036760415478E-10  3.80629323737914136E-10
  2.79480683008254604E-10  2.04412341627018823E-10  1.48917865541459882E-10
  1.08056063800268493E-10  7.80894071704775804E-11  5.62022446160017836E-11
  4.02820377752969253E-11  2.87503295724707996E-11  2.04326606765489436E-11
  1.44588738402987098E-11  1.01870366425428338E-11  7.14564041199923107E-12
  4.98987856665862076E-12  3.46872409649891740E-12  2.40024683386357972E-12
  1.65319290962248100E-12  1.13330659302385477E-12  7.73218008666179596E-13
  5.25002283657788961E-13  3.54730650207891345E-13  2.38499609872425264E-13
  1.59551447841488666E-13  1.06196604648032267E-13  7.03217956262577359E-14
  4.63245250242104357E-14  3.03560714098170994E-14  1.97863255551026622E-14
  1.28274608961849237E-14  8.27069350460961133E-15  5.30321489762761398E-15
  3.38144260091420174E-15  2.14387778578669987E-15  1.35145863336175493E-15
  8.46991970659908499E-16  5.27713520574361744E-16  3.26834268056612463E-16
  2.01203168081850878E-16  1.23108102401080258E-16  7.48598553825900439E-17
  4.52363650133471853E-17  2.71624670193305550E-17  1.62053929322984907E-17
  9.60559500274439170E-18  5.65624524121149388E-18  3.30853431331216741E-18
  1.92225007004594104E-18  1.10920895289945697E-18  6.35634582040922488E-19
  3.61705039847280416E-19  2.04370048531507374E-19  1.14645702559772573E-19
  6.38465873543794992E-20  3.52953682956738578E-20  1.93667908740415225E-20
  1.05466897282416760E-20  5.69968006247963401E-21  3.05644840782932399E-21
  1.62620203194823057E-21  8.58383690244764982E-22  4.49464185522833069E-22
  2.33438756464306535E-22  1.20246185899676924E-22  6.14249523802527891E-23
  3.11133305588395349E-23  1.56252597680952685E-23  7.77926719266734094E-24
  3.83915327922373688E-24  1.87789691386323080E-24  9.10334261216569996E-25
  4.37295502344108674E-25  2.08134811838366820E-25  9.81428436686124096E-26
  4.58419135929122716E-26  2.12080333318279004E-26  9.71670647331501728E-27
  4.40827905773202517E-27  1.98015794386795103E-27  8.80561274425646025E-28
  3.87609926762353890E-28  1.68869035344173376E-28  7.28058220091797175E-29
  3.10584701669628891E-29  1.31077232123686246E-29  5.47207089032269143E-30
  2.25942376514275699E-30  9.22594578947670662E-31  3.72506616537774036E-31
  1.48698684687577630E-31  5.86768566786322942E-32  2.28846649110541185E-32
  8.81992705214662609E-33  3.35859176244318787E-33  1.26346154200494415E-33
  4.69483318425955328E-34  1.72294261658601538E-34  6.24382286403557915E-35
  2.23404570117660110E-35  7.89081559800035728E-36  2.75079416899247571E-36
  9.46259103740019540E-37  3.21147232479612769E-37  1.07517115298544991E-37
  3.55031172734830656E-38  1.15612364104563216E-38  3.71209908031798302E-39
  1.17499768390011406E-39  3.66580704676821263E-40  1.12697762062187438E-40
  3.41325231512200613E-41  1.01825388890441796E-41  2.99165772408198821E-42
  8.65501811213663259E-43  2.46520396733280133E-43  6.91175569118550291E-44
  1.90715107601225403E-44  5.17768646715647710E-45  1.38263700397721710E-45
  3.63069072814551611E-46  9.37363226974620009E-47  2.37900543126054745E-47
  5.93445742040171112E-48  1.45474896531839100E-48  3.50371245777232684E-49
  8.28884919146680613E-50
   </PP_GIPAW_CORE_ORBITAL.1>
  </PP_GIPAW_CORE_ORBITALS>
 </PP_GIPAW>
</UPF> 
