<UPF version="2.0.1">
   <PP_INFO>
         UPF file from ATOMPAW code with following input
           H 1
           XC_LDA_X+XC_LDA_C_PW scalarrelativistic loggrid 1500
           1 0 0 0 0 0
           1 0 1
           0 0 0
           v
           1
           1.0 0.8 0.5 0.6
           y
           12.0
           n
           y
           2.5
           n
           custom polynom gramschmidtortho
           bessel
           1.0
           1.0
           1.0
           PWSCFOUT
           UPFDX 1.25d-2 UPFXMIN -7. UPFZMESH 1.0
           END
  </PP_INFO>
  <!--                               -->
  <!-- END OF HUMAN READABLE SECTION -->
  <PP_HEADER generated="Generated using ATOMPAW code"
             author="   "
             date=" 11/30/2025, 12:23:02.192"
             element="H "
             pseudo_type="PAW"
             relativistic="scalar"
             is_ultrasoft="T"
             is_paw="T"
             is_coulomb="F"
             has_so="F"
             has_wfc="T"
             has_gipaw="T"
             paw_as_gipaw="T"
             core_correction="T"
             functional="SLA PW NOGX NOGC"
             z_valence=" 1.000"
             l_max="1"
             l_max_rho="2"
             mesh_size="   777"
             number_of_wfc="     3"
             number_of_proj=" 3"
                                    /> 
<PP_MESH dx=" 1.2500000000000E-02" mesh="   777" xmin="-7.0000000000000E+00" zmesh=" 1.0000000000000E+00">
 <PP_R type="real" size="   777" columns="3">
  9.11881965554516244E-04  9.23352028669022240E-04  9.34966367416582150E-04
  9.46726796561253971E-04  9.58635153694019858E-04  9.70693299519908887E-04
  9.82903118148738654E-04  9.95266517389511302E-04  1.00778542904851045E-03
  1.02046180923115459E-03  1.03329763864763702E-03  1.04629492292241852E-03
  1.05945569290761014E-03  1.07278200500029682E-03  1.08627594146385787E-03
  1.09993961075331823E-03  1.11377514784480325E-03  1.12778471456913233E-03
  1.14197049994960750E-03  1.15633472054405776E-03  1.17087962079117443E-03
  1.18560747336121284E-03  1.20052057951110084E-03  1.21562126944401469E-03
  1.23091190267348100E-03  1.24639486839204952E-03  1.26207258584461451E-03
  1.27794750470642442E-03  1.29402210546584800E-03  1.31029889981196007E-03
  1.32678043102699150E-03  1.34346927438372681E-03  1.36036803754789387E-03
  1.37747936098561708E-03  1.39480591837599878E-03  1.41235041702888163E-03
  1.43011559830787441E-03  1.44810423805869556E-03  1.46631914704290303E-03
  1.48476317137708684E-03  1.50343919297757237E-03  1.52235013001073157E-03
  1.54149893734895028E-03  1.56088860703233225E-03  1.58052216873621706E-03
  1.60040269024456431E-03  1.62053327792930670E-03  1.64091707723572604E-03
  1.66155727317393392E-03  1.68245709081654119E-03  1.70361979580257398E-03
  1.72504869484774235E-03  1.74674713626111968E-03  1.76871851046832068E-03
  1.79096625054126976E-03  1.81349383273461521E-03  1.83630477702890712E-03
  1.85940264768060101E-03  1.88279105377897734E-03  1.90647364981007652E-03
  1.93045413622770930E-03  1.95473626003166709E-03  1.97932381535319670E-03
  2.00422064404783907E-03  2.02943063629573402E-03  2.05495773120945892E-03
  2.08080591744952935E-03  2.10697923384763411E-03  2.13348177003770808E-03
  2.16031766709495450E-03  2.18749111818288509E-03  2.21500636920851689E-03
  2.24286771948580335E-03  2.27107952240740690E-03  2.29964618612493602E-03
  2.32857217423771377E-03  2.35786200649023290E-03  2.38752025947837343E-03
  2.41755156736450346E-03  2.44796062260158303E-03  2.47875217666635849E-03
  2.50993104080179854E-03  2.54150208676885833E-03  2.57347024760769998E-03
  2.60584051840849831E-03  2.63861795709192156E-03  2.67180768519945057E-03
  2.70541488869362667E-03  2.73944481876836838E-03  2.77390279266948861E-03
  2.80879419452551276E-03  2.84412447618896756E-03  2.87989915808824302E-03
  2.91612383009016768E-03  2.95280415237344660E-03  2.98994585631306032E-03
  3.02755474537581533E-03  3.06563669602714309E-03  3.10419765864930865E-03
  3.14324365847118035E-03  3.18278079650966689E-03  3.22281525052302634E-03
  3.26335327597614827E-03  3.30440120701798196E-03  3.34596545747127203E-03
  3.38805252183471163E-03  3.43066897629773450E-03  3.47382147976805361E-03
  3.51751677491212843E-03  3.56176168920872968E-03  3.60656313601573049E-03
  3.65192811565034350E-03  3.69786371648293203E-03  3.74437711604458032E-03
  3.79147558214860785E-03  3.83916647402616357E-03  3.88745724347613029E-03
  3.93635543602948324E-03  3.98586869212829049E-03  4.03600474831955838E-03
  4.08677143846406660E-03  4.13817669496043677E-03  4.19022854998457941E-03
  4.24293513674474029E-03  4.29630469075233980E-03  4.35034555110876912E-03
  4.40506616180840610E-03  4.46047507305800169E-03  4.51658094261266595E-03
  4.57339253712867305E-03  4.63091873353324579E-03  4.68916852041161101E-03
  4.74815099941147765E-03  4.80787538666518997E-03  4.86835101422976313E-03
  4.92958733154505186E-03  4.99159390691021696E-03  5.05438042897881409E-03
  5.11795670827265570E-03  5.18233267871472461E-03  5.24751839918138462E-03
  5.31352405507407553E-03  5.38035995991082046E-03  5.44803655693772929E-03
  5.51656442076077155E-03  5.58595425899809962E-03  5.65621691395310801E-03
  5.72736336430858511E-03  5.79940472684214656E-03  5.87235225816325201E-03
  5.94621735647209420E-03  6.02101156334055882E-03  6.09674656551563790E-03
  6.17343419674550725E-03  6.25108643962856130E-03  6.32971542748574697E-03
  6.40933344625638311E-03  6.48995293641788703E-03  6.57158649492961891E-03
  6.65424687720117362E-03  6.73794699908546700E-03  6.82269993889682725E-03
  6.90851893945453217E-03  6.99541741015201682E-03  7.08340892905211846E-03
  7.17250724500869893E-03  7.26272627981489147E-03  7.35408013037843616E-03
  7.44658307092434420E-03  7.54024955522526914E-03  7.63509421885996166E-03
  7.73113188150007045E-03  7.82837754922577345E-03  7.92684641687050294E-03
  8.02655387039515403E-03  8.12751548929221100E-03  8.22974704902003015E-03
  8.33326452346780898E-03  8.43808408745153754E-03  8.54422211924133965E-03
  8.65169520312063407E-03  8.76052013197742806E-03  8.87071390992825830E-03
  8.98229375497512465E-03  9.09527710169581553E-03  9.20968160396814020E-03
  9.32552513772832645E-03  9.44282580376421161E-03  9.56160193054351321E-03
  9.68187207707768387E-03  9.80365503582182780E-03  9.92696983561101171E-03
  1.00518357446335860E-02  1.01782722734418771E-02  1.03062991780007406E-02
  1.04359364627745043E-02  1.05672043838526547E-02  1.07001234521149277E-02
  1.08347144364361620E-02  1.09709983669314774E-02  1.11089965382423061E-02
  1.12487305128636649E-02  1.13902221245133772E-02  1.15334934815436319E-02
  1.16785669703954424E-02  1.18254652590966177E-02  1.19742113008036218E-02
  1.21248283373880991E-02  1.22773399030684481E-02  1.24317698280870820E-02
  1.25881422424339983E-02  1.27464815796170684E-02  1.29068125804798726E-02
  1.30691602970674919E-02  1.32335500965409282E-02  1.34000076651408281E-02
  1.35685590122009338E-02  1.37392304742121434E-02  1.39120487189376314E-02
  1.40870407495797233E-02  1.42642339089992555E-02  1.44436558839878791E-02
  1.46253347095942222E-02  1.48092987735044136E-02  1.49955768204777032E-02
  1.51841979568379457E-02  1.53751916550214328E-02  1.55685877581820901E-02
  1.57644164848545001E-02  1.59627084336756084E-02  1.61634945881658741E-02
  1.63668063215704276E-02  1.65726754017612547E-02  1.67811339962009726E-02
  1.69922146769690662E-02  1.72059504258513830E-02  1.74223746394935146E-02
  1.76415211346191633E-02  1.78634241533140517E-02  1.80881183683762985E-02
  1.83156388887341787E-02  1.85460212649318848E-02  1.87793014946844097E-02
  1.90155160285022558E-02  1.92547017753869308E-02  1.94968961085979949E-02
  1.97421368714927811E-02  1.99904623834394300E-02  2.02419114458043913E-02
  2.04965233480152581E-02  2.07543378736997422E-02  2.10153953069020308E-02
  2.12797364383771753E-02  2.15474025719647709E-02  2.18184355310427729E-02
  2.20928776650624430E-02  2.23707718561656013E-02  2.26521615258849715E-02
  2.29370906419289304E-02  2.32256037250515752E-02  2.35177458560091070E-02
  2.38135626826038796E-02  2.41131004268168754E-02  2.44164058920300353E-02
  2.47235264703393985E-02  2.50345101499601479E-02  2.53494055227249451E-02
  2.56682617916764340E-02  2.59911287787553472E-02  2.63180569325853139E-02
  2.66490973363554852E-02  2.69843017158024855E-02  2.73237224472925692E-02
  2.76674125660055781E-02  2.80154257742218221E-02  2.83678164497131007E-02
  2.87246396542394332E-02  2.90859511421524761E-02  2.94518073691072899E-02
  2.98222655008837101E-02  3.01973834223185009E-02  3.05772197463500955E-02
  3.09618338231768923E-02  3.13512857495308883E-02  3.17456363780679526E-02
  3.21449473268760680E-02  3.25492809891034310E-02  3.29587005427073657E-02
  3.33732699603260796E-02  3.37930540192745571E-02  3.42181183116660320E-02
  3.46485292546610257E-02  3.50843541008450388E-02  3.55256609487369646E-02
  3.59725187534296678E-02  3.64249973373642344E-02  3.68831674012400149E-02
  3.73471005350616211E-02  3.78168692293250827E-02  3.82925468863446611E-02
  3.87742078317220087E-02  3.92619273259598167E-02  3.97557815762213176E-02
  4.02558477482378510E-02  4.07622039783662252E-02  4.12749293857975486E-02
  4.17941040849199169E-02  4.23198091978363167E-02  4.28521268670401870E-02
  4.33911402682503750E-02  4.39369336234074204E-02  4.44895922138335217E-02
  4.50492023935578217E-02  4.56158516028094055E-02  4.61896283816801215E-02
  4.67706223839589805E-02  4.73589243911409288E-02  4.79546263266114742E-02
  4.85578212700099737E-02  4.91686034717735837E-02  4.97870683678639445E-02
  5.04133125946793770E-02  5.10474340041544156E-02  5.16895316790493900E-02
  5.23397059484324093E-02  5.29980584033558286E-02  5.36646919127301350E-02
  5.43397106393974927E-02  5.50232200564072307E-02  5.57153269634964241E-02
  5.64161395037773711E-02  5.71257671806352924E-02  5.78443208748384841E-02
  5.85719128618635287E-02  5.93086568294387481E-02  6.00546678953079727E-02
  6.08100626252179727E-02  6.15749590511322359E-02  6.23494766896734304E-02
  6.31337365607984036E-02  6.39278612067075980E-02  6.47319747109925542E-02
  6.55462027180243600E-02  6.63706724525855996E-02  6.72055127397497842E-02
  6.80508540250102240E-02  6.89068283946625837E-02  6.97735695964436659E-02
  7.06512130604295963E-02  7.15398959201972579E-02  7.24397570342514979E-02
  7.33509370077221334E-02  7.42735782143339046E-02  7.52078248186524023E-02
  7.61538227986103544E-02  7.71117199683167415E-02  7.80816660011531688E-02
  7.90638124531606867E-02  8.00583127867205424E-02  8.10653223945332763E-02
  8.20849986238988277E-02  8.31175008013025629E-02  8.41629902573104022E-02
  8.52216303517768364E-02  8.62935864993705365E-02  8.73790261954204284E-02
  8.84781190420873137E-02  8.95910367748647130E-02  9.07179532894125118E-02
  9.18590446687289341E-02  9.30144892106635340E-02  9.41844674557766881E-02
  9.53691622155496549E-02  9.65687586009488230E-02  9.77834440513500880E-02
  9.90134083638263413E-02  1.00258843722803748E-01  1.01519944730091086E-01
  1.02796908435286397E-01  1.04089934366566689E-01  1.05399224561864388E-01
  1.06724983600436210E-01  1.08067418634829313E-01  1.09426739423248931E-01
  1.10803158362333912E-01  1.12196890520343789E-01  1.13608153670763767E-01
  1.15037168326332429E-01  1.16484157773496966E-01  1.17949348107302524E-01
  1.19432968266719675E-01  1.20935250070416694E-01  1.22456428252981947E-01
  1.23996740501601227E-01  1.25556427493197259E-01  1.27135732932035644E-01
  1.28734903587804234E-01  1.30354189334171700E-01  1.31993843187830223E-01
  1.33654121348030452E-01  1.35335283236612730E-01  1.37037591538542475E-01
  1.38761312242955293E-01  1.40506714684718148E-01  1.42274071586513617E-01
  1.44063659101453301E-01  1.45875756856227418E-01  1.47710647994796856E-01
  1.49568619222635091E-01  1.51449960851526594E-01  1.53354966844928498E-01
  1.55283934863903017E-01  1.57237166313627663E-01  1.59214966390490292E-01
  1.61217644129776794E-01  1.63245512453958436E-01  1.65298888221586560E-01
  1.67378092276802559E-01  1.69483449499470140E-01  1.71615288855938769E-01
  1.73773943450445167E-01  1.75959750577161567E-01  1.78173051772898494E-01
  1.80414192870470835E-01  1.82683524052734692E-01  1.84981399907304334E-01
  1.87308179481957104E-01  1.89664226340735320E-01  1.92049908620754162E-01
  1.94465599089723579E-01  1.96911675204194087E-01  1.99388519168535228E-01
  2.01896517994655467E-01  2.04436063562474069E-01  2.07007552681152673E-01
  2.09611387151097867E-01  2.12247973826743153E-01  2.14917724680120659E-01
  2.17621056865232948E-01  2.20358392783233908E-01  2.23130160148429874E-01
  2.25936792055110941E-01  2.28778727045222507E-01  2.31656409176888872E-01
  2.34570288093797708E-01  2.37520819095458191E-01  2.40508463208342238E-01
  2.43533687257920795E-01  2.46596963941606545E-01  2.49698771902613609E-01
  2.52839595804746520E-01  2.56019926408130150E-01  2.59240260645891618E-01
  2.62501101701807349E-01  2.65802959088926649E-01  2.69146348729183915E-01
  2.72531793034012704E-01  2.75959820985973214E-01  2.79430968221407394E-01
  2.82945777114132935E-01  2.86504796860190147E-01  2.90108583563655431E-01
  2.93757700323532933E-01  2.97452717321740667E-01  3.01194211912202192E-01
  3.04982768711059338E-01  3.08818979688019968E-01  3.12703444258853880E-01
  3.16636769379053329E-01  3.20619569638670721E-01  3.24652467358349794E-01
  3.28736092686564230E-01  3.32871083698079662E-01  3.37058086493654374E-01
  3.41297755300993766E-01  3.45590752576974580E-01  3.49937749111155494E-01
  3.54339424130588831E-01  3.58796465405951726E-01  3.63309569359011375E-01
  3.67879441171442445E-01  3.72506794895013094E-01  3.77192353563157057E-01
  3.81936849303949055E-01  3.86741023454501343E-01  3.91605626676799101E-01
  3.96531419074993008E-01  4.01519170314166784E-01  4.06569659740599221E-01
  4.11683676503538598E-01  4.16862019678508555E-01  4.22105498392165601E-01
  4.27414931948726817E-01  4.32791149957987398E-01  4.38234992464949402E-01
  4.43747310081080037E-01  4.49328964117221785E-01  4.54980826718173692E-01
  4.60703780998965973E-01  4.66498721182848519E-01  4.72366552741014856E-01
  4.78308192534084242E-01  4.84324568955362633E-01  4.90416622075906306E-01
  4.96585303791409693E-01  5.02831577970941135E-01  5.09156420607549398E-01
  5.15560819970764306E-01  5.22045776761016156E-01  5.28612304265997479E-01
  5.35261428518990390E-01  5.41994188459187343E-01  5.48811636094026611E-01
  5.55714836663571576E-01  5.62704868806955916E-01  5.69782824730923232E-01
  5.76949810380486872E-01  5.84206945611736028E-01  5.91555364366815217E-01
  5.98996214851105657E-01  6.06530659712633646E-01  6.14159876223738022E-01
  6.21885056465020347E-01  6.29707407511610251E-01  6.37628151621773553E-01
  6.45648526427892278E-01  6.53769785129847514E-01  6.61993196690834229E-01
  6.70320046035639550E-01  6.78751634251414604E-01  6.87289278790972458E-01
  6.95934313678642225E-01  7.04688089718713662E-01  7.13551974706502778E-01
  7.22527353642072434E-01  7.31615628946642116E-01  7.40818220681718209E-01
  7.50136566770982061E-01  7.59572123224968809E-01  7.69126364368570847E-01
  7.78800783071405212E-01  7.88596890981076881E-01  7.98516218759377394E-01
  8.08560316321452754E-01  8.18730753077982154E-01  8.29029118180400704E-01
  8.39457020769207696E-01  8.50016090225398480E-01  8.60707976425058141E-01
  8.71534349997158175E-01  8.82496902584595788E-01  8.93597347108516016E-01
  9.04837418035959962E-01  9.16218871650878008E-01  9.27743486328553191E-01
  9.39413062813476141E-01  9.51229424500714349E-01  9.63194417720822149E-01
  9.75309912028333059E-01  9.87577800493881774E-01  1.00000000000000044E+00
  1.01257845154063486E+00  1.02531512052442930E+00  1.03821199708182554E+00
  1.05127109637602456E+00  1.06449445891785976E+00  1.07788415088463196E+00
  1.09144226444295223E+00  1.10517091807564816E+00  1.11907225691278089E+00
  1.13314845306682677E+00  1.14740170597207269E+00  1.16183424272828351E+00
  1.17644831844869091E+00  1.19124621661235852E+00  1.20623024942098112E+00
  1.22140275816017030E+00  1.23676611356528521E+00  1.25232271619186486E+00
  1.26807499679071989E+00  1.28402541668774206E+00  1.30017646816849153E+00
  1.31653067486762221E+00  1.33309059216320325E+00  1.34985880757600363E+00
  1.36683794117379698E+00  1.38403064598075187E+00  1.40143960839197379E+00
  1.41906754859325779E+00  1.43691722098612495E+00  1.45499141461820192E+00
  1.47329295361901602E+00  1.49182469764127101E+00  1.51058954230767317E+00
  1.52959041966337939E+00  1.54883029863413380E+00  1.56831218549016937E+00
  1.58803912431594396E+00  1.60801419748578356E+00  1.62824052614551062E+00
  1.64872127070012886E+00  1.66945963130764352E+00  1.69045884837909210E+00
  1.71172220308486511E+00  1.73325301786739594E+00  1.75505465696029939E+00
  1.77713052691403917E+00  1.79948407712820946E+00  1.82211880039050977E+00
  1.84503823342250062E+00  1.86824595743222321E+00  1.89174559867377035E+00
  1.91554082901389688E+00  1.93963536650575485E+00  1.96403297596984783E+00
  1.98873746958229281E+00  2.01375270747047752E+00  2.03908259831621619E+00
  2.06473109996648718E+00  2.09070222005185657E+00  2.11700001661267567E+00
  2.14362859873316003E+00  2.17059212718344341E+00  2.19789481506970263E+00
  2.22554092849246876E+00  2.25353478721320943E+00  2.28188076532930451E+00
  2.31058329195750511E+00  2.33964685192599209E+00  2.36907598647514073E+00
  2.39887529396709898E+00  2.42904943060428913E+00  2.45960311115695074E+00
  2.49054110969983178E+00  2.52186826035814926E+00  2.55358945806292814E+00
  2.58570965931584729E+00  2.61823388296370219E+00  2.65116721098260788E+00
  2.68451478927207132E+00  2.71828182845904642E+00  2.75247360471210545E+00
  2.78709546056585156E+00  2.82215280575570171E+00  2.85765111806316519E+00
  2.89359594417176202E+00  2.92999290053370265E+00  2.96684767424746854E+00
  3.00416602394643473E+00  3.04195378069866518E+00  3.08021684891803282E+00
  3.11896120728679360E+00  3.15819290968976896E+00  3.19791808616027717E+00
  3.23814294383796231E+00  3.27887376793867524E+00  3.32011692273654901E+00
  3.36187885255843044E+00  3.40416608279082089E+00  3.44698522089947623E+00
  3.49034295746184275E+00  3.53424606721247114E+00  3.57870141010158038E+00
  3.62371593236694389E+00  3.66929666761924622E+00  3.71545073794110570E+00
  3.76218535499991180E+00  3.80950782117466247E+00  3.85742553069697625E+00
  3.90594597080645389E+00  3.95507672292057899E+00  4.00482546381932636E+00
  4.05519996684467632E+00  4.10620810311521467E+00  4.15785784275600978E+00
  4.21015725614396263E+00  4.26311451516881945E+00  4.31673789451004630E+00
  4.37103577292976020E+00  4.42601663458193606E+00  4.48168907033806718E+00
  4.53806177912950481E+00  4.59514356930669088E+00  4.65294336001547304E+00
  4.71147018259074368E+00  4.77073318196760532E+00  4.83074161811028091E+00
  4.89150486745900714E+00  4.95303242439511759E+00  5.01533390272456181E+00
  5.07841903718008325E+00  5.14229768494228789E+00  5.20697982717985131E+00
  5.27247557060909422E+00  5.33879514907317887E+00  5.40594892514116943E+00
  5.47394739172720168E+00  5.54280117373002579E+00  5.61252102969316002E+00
  5.68311785348594611E+00  5.75460267600573339E+00  5.82698666690147604E+00
  5.90028113631901974E+00  5.97449753666832706E+00  6.04964746441294920E+00
  6.12574266188198902E+00  6.20279501910486797E+00  6.28081657566916718E+00
  6.35981952260183547E+00  6.43981620427406209E+00  6.52081912033011513E+00
  6.60284092764042985E+00  6.68589444227927299E+00  6.76999264152727953E+00
  6.85514866589918181E+00  6.94137582119703822E+00  7.02868758058929632E+00
  7.11709758671599868E+00  7.20661965382047143E+00  7.29726776990783499E+00
  7.38905609893065307E+00  7.48199898300208321E+00  7.57611094463684864E+00
  7.67140668902043377E+00  7.76790110630677777E+00  7.86560927394489529E+00
  7.96454645903477676E+00  8.06472812071287493E+00  8.16616991256765523E+00
  8.26888768508547400E+00  8.37289748812726842E+00  8.47821557343637799E+00
  8.58485839717789645E+00  8.69284262251000861E+00  8.80218512218761262E+00
  8.91290298119874080E+00  9.02501349943412734E+00  9.13853419439032777E+00
  9.25348280390689837E+00  9.36987728893793559E+00  9.48773583635852980E+00
  9.60707686180650811E+00  9.72791901255988734E+00  9.85028117045058949E+00
  9.97418245481472709E+00  1.00996422254800571E+01  1.02266800857910045E+01
  1.03553158856716951E+01  1.04855697247275792E+01  1.06174619553860108E+01
  1.07510131860763600E+01  1.08862442844501448E+01  1.10231763806416048E+01
  1.11618308705693732E+01  1.13022294192795894E+01  1.14443939643311268E+01
  1.15883467192233969E+01  1.17341101768672136E+01  1.18817071130994059E+01
  1.20311605902415391E+01  1.21824939607034786E+01  1.23357308706322613E+01
  1.24908952636068129E+01  1.26480113843792328E+01  1.28071037826630416E+01
  1.29681973169691407E+01  1.31313171584900239E+01  1.32964887950327881E+01
  1.34637380350016969E+01  1.36330910114307642E+01  1.38045741860671018E+01
  1.39782143535056402E+01  1.41540386453758078E+01  1.43320745345809364E+01
  1.45123498395909252E+01  1.46948927287889486E+01  1.48797317248728440E+01
                               </PP_R> 
 <PP_RAB type="real" size="   777" columns="3">
  1.13985245694314530E-05  1.15419003583627793E-05  1.16870795927072776E-05
  1.18340849570156746E-05  1.19829394211752492E-05  1.21336662439988611E-05
  1.22862889768592339E-05  1.24408314673688916E-05  1.25973178631063820E-05
  1.27557726153894338E-05  1.29162204830954631E-05  1.30786865365302326E-05
  1.32431961613451274E-05  1.34097750625037113E-05  1.35784492682982241E-05
  1.37492451344164785E-05  1.39221893480600413E-05  1.40973089321141541E-05
  1.42746312493700948E-05  1.44541840068007234E-05  1.46359952598896810E-05
  1.48200934170151618E-05  1.50065072438887615E-05  1.51952658680501836E-05
  1.53863987834185132E-05  1.55799358549006183E-05  1.57759073230576834E-05
  1.59743438088303059E-05  1.61752763183231014E-05  1.63787362476495009E-05
  1.65847553878373938E-05  1.67933659297965858E-05  1.70046004693486740E-05
  1.72184920123202155E-05  1.74350739796999854E-05  1.76543802128610197E-05
  1.78764449788484322E-05  1.81013029757336958E-05  1.83289893380362905E-05
  1.85595396422135882E-05  1.87929899122196553E-05  1.90293766251341460E-05
  1.92687367168618785E-05  1.95111075879041551E-05  1.97565271092027132E-05
  2.00050336280570539E-05  2.02566659741163357E-05  2.05114634654465769E-05
  2.07694659146741753E-05  2.10307136352067655E-05  2.12952474475321761E-05
  2.15631086855967808E-05  2.18343392032639959E-05  2.21089813808540085E-05
  2.23870781317658727E-05  2.26686729091826908E-05  2.29538097128613410E-05
  2.32425330960075153E-05  2.35348881722372188E-05  2.38309206226259578E-05
  2.41306767028463676E-05  2.44342032503958400E-05  2.47415476919149587E-05
  2.50527580505979910E-05  2.53678829536966780E-05  2.56869716401182385E-05
  2.60100739681191189E-05  2.63372404230954291E-05  2.66685221254713537E-05
  2.70039708386869340E-05  2.73436389772860664E-05  2.76875796151064611E-05
  2.80358464935725419E-05  2.83884940300925882E-05  2.87455773265617029E-05
  2.91071521779714242E-05  2.94732750811279139E-05  2.98440032434796706E-05
  3.02193945920562952E-05  3.05995077825197906E-05  3.09844022083294811E-05
  3.13741380100224858E-05  3.17687760846107318E-05  3.21683780950962484E-05
  3.25730064801062276E-05  3.29827244636490209E-05  3.33975960649931321E-05
  3.38176861086703374E-05  3.42430602346046074E-05  3.46737849083686116E-05
  3.51099274315689122E-05  3.55515559523620944E-05  3.59987394761030418E-05
  3.64515478761270959E-05  3.69100519046680880E-05  3.73743232039132567E-05
  3.78444343171976971E-05  3.83204587003392941E-05  3.88024707331163581E-05
  3.92905457308897571E-05  3.97847599563708402E-05  4.02851906315378292E-05
  4.07919159497018575E-05  4.13050150877247759E-05  4.18245682183909030E-05
  4.23506565229338967E-05  4.28833622037216825E-05  4.34227684971006715E-05
  4.39689596864016054E-05  4.45220211151091237E-05  4.50820392001966366E-05
  4.56491014456292978E-05  4.62232964560366544E-05  4.68047139505572580E-05
  4.73934447768576021E-05  4.79895809253270459E-05  4.85932155434516314E-05
  4.92044429503685419E-05  4.98233586516036352E-05  5.04500593539944839E-05
  5.10846429808008325E-05  5.17272086870054624E-05  5.23778568748072440E-05
  5.30366892093092577E-05  5.37038086344042529E-05  5.43793193888596140E-05
  5.50633270226050790E-05  5.57559384132250266E-05  5.64572617826583270E-05
  5.71674067141084131E-05  5.78864841691655764E-05  5.86146065051451430E-05
  5.93518874926434706E-05  6.00984423333148800E-05  6.08543876778720405E-05
  6.16198416443131564E-05  6.23949238363777174E-05  6.31797553622351761E-05
  6.39744588534081989E-05  6.47791584839340631E-05  6.55939799897673078E-05
  6.64190506884259523E-05  6.72544994988852639E-05  6.81004569617216243E-05
  6.89570552595096525E-05  6.98244282374762426E-05  7.07027114244138474E-05
  7.15920420538573193E-05  7.24925590855268401E-05  7.34044032270406556E-05
  7.43277169559011775E-05  7.52626445417569880E-05  7.62093320689454765E-05
  7.71679274593188461E-05  7.81385804953570271E-05  7.91214428435718480E-05
  8.01166680782047942E-05  8.11244117052235879E-05  8.21448311866202418E-05
  8.31780859650146703E-05  8.42243374885683402E-05  8.52837492362103488E-05
  8.63564867431816603E-05  8.74427176269002129E-05  8.85426116131514889E-05
  8.96563405626087367E-05  9.07840784976861516E-05  9.19260016297304629E-05
  9.30822883865543025E-05  9.42531194403158670E-05  9.54386777357495235E-05
  9.66391485187508806E-05  9.78547193653221681E-05  9.90855802108812976E-05
  1.00331923379939431E-04  1.01593943616152638E-04  1.02871838112750382E-04
  1.04165806543347615E-04  1.05476051093144219E-04  1.06802776490516754E-04
  1.08146190039007931E-04  1.09506501649717851E-04  1.10883923874103240E-04
  1.12278671937189061E-04  1.13690963771197700E-04  1.15121020049601761E-04
  1.16569064221604083E-04  1.18035322547052656E-04  1.19520024131793915E-04
  1.21023400963471054E-04  1.22545687947772858E-04  1.24087122945137652E-04
  1.25647946807919825E-04  1.27228403418023470E-04  1.28828739725009268E-04
  1.30449205784681298E-04  1.32090054798158189E-04  1.33751543151436602E-04
  1.35433930455452041E-04  1.37137479586643468E-04  1.38862456728028837E-04
  1.40609131410795828E-04  1.42377776556417215E-04  1.44168668519295415E-04
  1.45982087129943030E-04  1.47818315738707721E-04  1.49677641260045278E-04
  1.51560354217351244E-04  1.53466748788355618E-04  1.55397122851088531E-04
  1.57351778030424990E-04  1.59331019745213355E-04  1.61335157255998424E-04
  1.63364503713343649E-04  1.65419376206761608E-04  1.67500095814260367E-04
  1.69606987652511684E-04  1.71740380927651814E-04  1.73900608986720398E-04
  1.76088009369746541E-04  1.78302923862490715E-04  1.80545698549848500E-04
  1.82816683869927788E-04  1.85116234668805175E-04  1.87444710255971295E-04
  1.89802474460474337E-04  1.92189895687767931E-04  1.94607346977276137E-04
  1.97055206060681257E-04  1.99533855420945126E-04  2.02043682352073448E-04
  2.04585079019630351E-04  2.07158442522015706E-04  2.09764174952512173E-04
  2.12402683462113338E-04  2.15074380323142304E-04  2.17779682993668949E-04
  2.20519014182739558E-04  2.23292801916425668E-04  2.26101479604703753E-04
  2.28945486109177255E-04  2.31825265811648582E-04  2.34741268683555122E-04
  2.37693950356278214E-04  2.40683772192336657E-04  2.43711201357474936E-04
  2.46776710893659786E-04  2.49880779792992886E-04  2.53023893072554880E-04
  2.56206541850190726E-04  2.59429223421246767E-04  2.62692441336275385E-04
  2.65996705479714692E-04  2.69342532149559658E-04  2.72730444138034672E-04
  2.76160970813280526E-04  2.79634648202070049E-04  2.83152019073562176E-04
  2.86713633024111663E-04  2.90320046563144723E-04  2.93971823200113837E-04
  2.97669533532548517E-04  3.01413755335210986E-04  3.05205073650375474E-04
  3.09044080879242503E-04  3.12931376874501892E-04  3.16867569034061814E-04
  3.20853272395955468E-04  3.24889109734441883E-04  3.28975711657316424E-04
  3.33113716704443576E-04  3.37303771447531079E-04  3.41546530591157137E-04
  3.45842657075069769E-04  3.50192822177772787E-04  3.54597705621413791E-04
  3.59057995677992937E-04  3.63574389276905983E-04  3.68147592113841123E-04
  3.72778318761046409E-04  3.77467292778981272E-04  3.82215246829376205E-04
  3.87022922789711176E-04  3.91891071869136136E-04  3.96820454725849408E-04
  4.01811841585950850E-04  4.06866012363792909E-04  4.11983756783842071E-04
  4.17165874504076028E-04  4.22413175240931964E-04  4.27726478895825411E-04
  4.33106615683262833E-04  4.38554426260562996E-04  4.44070761859212079E-04
  4.49656484417870880E-04  4.55312466717052952E-04  4.61039592515500207E-04
  4.66838756688270275E-04  4.72710865366563556E-04  4.78656836079308264E-04
  4.84677597896525131E-04  4.90774091574497687E-04  4.96947269702766492E-04
  5.03198096852973181E-04  5.09527549729577793E-04  5.15936617322469335E-04
  5.22426301061498961E-04  5.28997614972953980E-04  5.35651585838002402E-04
  5.42389253353129709E-04  5.49211670292592776E-04  5.56119902672919044E-04
  5.63115029919472815E-04  5.70198145035117547E-04  5.77370354771001540E-04
  5.84632779799487321E-04  5.91986554889261675E-04  5.99432829082643471E-04
  6.06972765875124715E-04  6.14607543397169796E-04  6.22338354598299349E-04
  6.30166407433492256E-04  6.38092925051930281E-04  6.46119145988117440E-04
  6.54246324355405202E-04  6.62475730041947944E-04  6.70808648909126688E-04
  6.79246382992468680E-04  6.87790250705090449E-04  6.96441587043705322E-04
  7.05201743797217204E-04  7.14072089757941154E-04  7.23054010935481137E-04
  7.32148910773294196E-04  7.41358210367984438E-04  7.50683348691349702E-04
  7.60125782815224702E-04  7.69686988139152970E-04  7.79368458620917945E-04
  7.89171707009980045E-04  7.99098265083844996E-04  8.09149683887406992E-04
  8.19327533975304522E-04  8.29633405657319994E-04  8.40068909246872368E-04
  8.50635675312627843E-04  8.61335354933282383E-04  8.72169619955545888E-04
  8.83140163255369975E-04  8.94248699002465766E-04  9.05496962928143789E-04
  9.16886712596526711E-04  9.28419727679173851E-04  9.40097810233155072E-04
  9.51922784982629474E-04  9.63896499603959333E-04  9.76020825014414610E-04
  9.88297655664508541E-04  1.00072890983400674E-03  1.01331652993166604E-03
  1.02606248279873535E-03  1.03896876001628204E-03  1.05203737821638011E-03
  1.06527037939721059E-03  1.07866983124213175E-03  1.09223782744275540E-03
  1.10597648802609138E-03  1.11988795968580887E-03  1.13397441611765644E-03
  1.14823805835911181E-03  1.16268111513329422E-03  1.17730584319720869E-03
  1.19211452769437082E-03  1.20710948251186037E-03  1.22229305064187627E-03
  1.23766760454782935E-03  1.25323554653504693E-03  1.26899930912613857E-03
  1.28496135544108004E-03  1.30112417958208365E-03  1.31749030702330494E-03
  1.33406229500545280E-03  1.35084273293536658E-03  1.36783424279061168E-03
  1.38503947952917398E-03  1.40246113150429750E-03  1.42010192088454722E-03
  1.43796460407915553E-03  1.45605197216871216E-03  1.47436685134128172E-03
  1.49291210333399598E-03  1.51169062588020877E-03  1.53070535316227442E-03
  1.54995925627001547E-03  1.56945534366496582E-03  1.58919666165044556E-03
  1.60918629484755292E-03  1.62942736667714624E-03  1.64992303984787779E-03
  1.67067651685038070E-03  1.69169104045765930E-03  1.71296989423178102E-03
  1.73451640303694124E-03  1.75633393355897698E-03  1.77842589483142026E-03
  1.80079573876816643E-03  1.82344696070284285E-03  1.84638309993496075E-03
  1.86960774028293881E-03  1.89312451064408251E-03  1.91693708556160626E-03
  1.94104918579878784E-03  1.96546457892034579E-03  1.99018707988112865E-03
  2.01522055162221001E-03  2.04056890567448071E-03  2.06623610276983208E-03
  2.09222615346003199E-03  2.11854311874337675E-03  2.14519111069923479E-03
  2.17217429313056477E-03  2.19949688221451976E-03  2.22716314716123144E-03
  2.25517741088088544E-03  2.28354405065918364E-03  2.31226749884130443E-03
  2.34135224352446372E-03  2.37080282925919168E-03  2.40062385775942702E-03
  2.43081998862154473E-03  2.46139594005242643E-03  2.49235648960669052E-03
  2.52370647493319359E-03  2.55545079453092620E-03  2.58759440851440842E-03
  2.62014233938872351E-03  2.65309967283428949E-03  2.68647155850150823E-03
  2.72026321081541211E-03  2.75447990979042420E-03  2.78912700185537368E-03
  2.82420990068888702E-03  2.85973408806528169E-03  2.89570511471111099E-03
  2.93212860117247160E-03  2.96901023869322774E-03  3.00635579010427806E-03
  3.04417109072400993E-03  3.08246204927008216E-03  3.12123464878267046E-03
  3.16049494755933158E-03  3.20024908010162722E-03  3.24050325807364540E-03
  3.28126377127259221E-03  3.32253698861158329E-03  3.36432935911479920E-03
  3.40664741292515897E-03  3.44949776232466535E-03  3.49288710276759269E-03
  3.53682221392666177E-03  3.58130996075237693E-03  3.62635729454569315E-03
  3.67197125404416201E-03  3.71815896652175851E-03  3.76492764890252758E-03
  3.81228460888824189E-03  3.86023724610024986E-03  3.90879305323567350E-03
  3.95795961723816644E-03  4.00774462048338401E-03  4.05815584197937243E-03
  4.10920115858205270E-03  4.16088854622599560E-03  4.21322608117068002E-03
  4.26622194126242190E-03  4.31988440721218277E-03  4.37422186388944367E-03
  4.42924280163236022E-03  4.48495581757439674E-03  4.54136961698764236E-03
  4.59849301464303108E-03  4.65633493618766367E-03  4.71490441953946373E-03
  4.77421061629936319E-03  4.83426279318126696E-03  4.89507033345998929E-03
  4.95664273843741260E-03  5.01898962892708550E-03  5.08212074675749078E-03
  5.14604595629423317E-03  5.21077524598135763E-03  5.27631872990207054E-03
  5.34268664935908574E-03  5.40988937447484282E-03  5.47793740581186805E-03
  5.54684137601350099E-03  5.61661205146527301E-03  5.68726033397717184E-03
  5.75879726248707501E-03  5.83123401478560701E-03  5.90458190926268587E-03
  5.97885240667605372E-03  6.05405711194203361E-03  6.13020777594882899E-03
  6.20731629739262186E-03  6.28539472463676436E-03  6.36445525759436748E-03
  6.44451024963455400E-03  6.52557220951270264E-03  6.60765380332496884E-03
  6.69076785648738039E-03  6.77492735573984213E-03  6.86014545117533299E-03
  6.94643545829464523E-03  7.03381086008694929E-03  7.12228530913654092E-03
  7.21187262975608607E-03  7.30258682014670035E-03  7.39444205458519074E-03
  7.48745268563882124E-03  7.58163324640792093E-03  7.67699845279672544E-03
  7.77356320581275469E-03  7.87134259389512918E-03  7.97035189527216942E-03
  8.07060658034865382E-03  8.17212231412309427E-03  8.27491495863542752E-03
  8.37900057544549437E-03  8.48439542814268324E-03  8.59111598488715607E-03
  8.69917892098302781E-03  8.80860112148392112E-03  8.91939968383128473E-03
  9.03159192052590577E-03  9.14519536183302714E-03  9.26022775852147761E-03
  9.37670708463727610E-03  9.49465154031211081E-03  9.61407955460713559E-03
  9.73500978839256584E-03  9.85746113726346240E-03  9.98145273449221881E-03
  1.01070039540181594E-02  1.02341344134747776E-02  1.03628639772550095E-02
  1.04932127596150965E-02  1.06252011278174813E-02  1.07588497053132271E-02
  1.08941793749644782E-02  1.10312112823074474E-02  1.11699668388564512E-02
  1.13104677254495002E-02  1.14527358956359755E-02  1.15967935791069163E-02
  1.17426632851684518E-02  1.18903678062589301E-02  1.20399302215102779E-02
  1.21913739003541646E-02  1.23447225061735222E-02  1.25000000000000059E-02
  1.26572306442579371E-02  1.28164390065553663E-02  1.29776499635228196E-02
  1.31408887047003084E-02  1.33061807364732478E-02  1.34735518860579009E-02
  1.36430283055369028E-02  1.38146364759456023E-02  1.39884032114097612E-02
  1.41643556633353346E-02  1.43425213246509090E-02  1.45229280341035438E-02
  1.47056039806086371E-02  1.48905777076544822E-02  1.50778781177622646E-02
  1.52675344770021298E-02  1.54595764195660651E-02  1.56540339523983107E-02
  1.58509374598839979E-02  1.60503177085967765E-02  1.62522058521061448E-02
  1.64566334358452783E-02  1.66636324020400413E-02  1.68732350947000467E-02
  1.70854742646724643E-02  1.73003830747593991E-02  1.75179951048996738E-02
  1.77383443574157217E-02  1.79614652623265626E-02  1.81873926827275240E-02
  1.84161619202377023E-02  1.86478087205158884E-02  1.88823692788459147E-02
  1.91198802457922430E-02  1.93603787329266752E-02  1.96039023186271172E-02
  1.98504890539493023E-02  2.01001774685722959E-02  2.03530065768188842E-02
  2.06090158837516114E-02  2.08682453913455468E-02  2.11307356047386527E-02
  2.13965275385608160E-02  2.16656627233424506E-02  2.19381832120037444E-02
  2.22141315864254896E-02  2.24935509641026182E-02  2.27764850048813722E-02
  2.30629779177812591E-02  2.33530744679027909E-02  2.36468199834221314E-02
  2.39442603626737124E-02  2.42454420813219378E-02  2.45504121996230999E-02
  2.48592183697786615E-02  2.51719088433809690E-02  2.54885324789527051E-02
  2.58091387495810905E-02  2.61337777506482072E-02  2.64625002076584459E-02
  2.67953574841645024E-02  2.71324015897930447E-02  2.74736851883712850E-02
  2.78192616061558595E-02  2.81691848401651179E-02  2.85235095666163084E-02
  2.88822911494688167E-02  2.92455856490749025E-02  2.96134498309392619E-02
  2.99859411745887379E-02  3.03631178825536155E-02  3.07450388894618849E-02
  3.11317638712479000E-02  3.15233532544768671E-02  3.19198682257866018E-02
  3.23213707414480925E-02  3.27279235370462815E-02  3.31395901372825985E-02
  3.35564348659008957E-02  3.39785228557380817E-02  3.44059200589013209E-02
  3.48386932570731445E-02  3.52769100719462700E-02  3.57206389757895662E-02
  3.61699493021470295E-02  3.66249112566712845E-02  3.70855959280933581E-02
  3.75520752993304396E-02  3.80244222587333147E-02  3.85027106114754145E-02
  3.89870150910849242E-02  3.94774113711221161E-02  3.99739760770034674E-02
  4.04767867979745344E-02  4.09859220992334419E-02  4.15014615342068627E-02
  4.20234856569803861E-02  4.25520760348852625E-02  4.30873152612434585E-02
  4.36292869682730344E-02  4.41780758401558935E-02  4.47337676262697589E-02
  4.52964491545868042E-02  4.58662083452405778E-02  4.64431342242638268E-02
  4.70273169374988975E-02  4.76188477646832808E-02  4.82178191337122031E-02
  4.88243246350806778E-02  4.94384590365072388E-02  5.00603182977415809E-02
  5.06899995855584554E-02  5.13276012889401848E-02  5.19732230344501223E-02
  5.26269657017995329E-02  5.32889314396102487E-02  5.39592236813755816E-02
  5.46379471616220067E-02  5.53252079322742035E-02  5.60211133792258426E-02
  5.67257722391188157E-02  5.74392946163336388E-02  5.81617920001934186E-02
  5.88933772823843002E-02  5.96341647745950720E-02  6.03842702263785169E-02
  6.11438108432375907E-02  6.19129053049389741E-02  6.26916737840570309E-02
  6.34802379647510379E-02  6.42787210617786070E-02  6.50872478397481469E-02
  6.59059446326136777E-02  6.67349393634147359E-02  6.75743615642646206E-02
  6.84243423965900238E-02  6.92850146716253307E-02  7.01565128711645059E-02
  7.10389731685743264E-02  7.19325334500716673E-02  7.28373333362684477E-02
  7.37535142039877495E-02  7.46812192083540910E-02  7.56205933051618678E-02
  7.65717832735248738E-02  7.75349377388108579E-02  7.85102071958646008E-02
  7.94977440325229517E-02  8.04977025534257817E-02  8.15102390041264474E-02
  8.25355115955053731E-02  8.35736805284909151E-02  8.46249080190910052E-02
  8.56893583237397782E-02  8.67671977649629861E-02  8.78585947573662096E-02
  8.89637198339499891E-02  9.00827456727558984E-02  9.12158471238479485E-02
  9.23632012366331634E-02  9.35249872875260485E-02  9.47013868079606136E-02
  9.58925836127554332E-02  9.70987638288347277E-02  9.83201159243111966E-02
  9.95568307379347123E-02  1.00809101508910939E-01  1.02077123907095696E-01
  1.03361096063568428E-01  1.04661218601590861E-01  1.05977694667954730E-01
  1.07310729964723711E-01  1.08660532781375108E-01  1.10027314027345169E-01
  1.11411287264984268E-01  1.12812668742926600E-01  1.14231677429879108E-01
  1.15668535048836230E-01  1.17123466111724195E-01  1.18596697954481634E-01
  1.20088460772581354E-01  1.21598987656998600E-01  1.23128514630632374E-01
  1.24677280685184091E-01  1.26245527818500708E-01  1.27833501072387556E-01
  1.29441448570896206E-01  1.31069621559094740E-01  1.32718274442325146E-01
  1.34387664825954517E-01  1.36078053555626827E-01  1.37789704758020076E-01
  1.39522885882117170E-01  1.41277867740994878E-01  1.43054924554139096E-01
  1.44854333990292461E-01  1.46676377210840175E-01  1.48521338913742584E-01
  1.50389507378019260E-01  1.52281174508793499E-01  1.54196635882903277E-01
  1.56136190795085172E-01  1.58100142304740426E-01  1.60088797283288037E-01
  1.62102466462114264E-01  1.64141464481125321E-01  1.66206109937909852E-01
  1.68296725437521222E-01  1.70413637642884558E-01  1.72557177325838779E-01
  1.74727679418820503E-01  1.76925483067197603E-01  1.79150931682261705E-01
  1.81404372994886570E-01  1.83686159109861857E-01  1.85996646560910556E-01
                             </PP_RAB> 
                                  </PP_MESH>
 <PP_NLCC type="real" size="   777" columns="3">
  0.00000000000000000E+00  0.00000000000000000E+00  0.00000000000000000E+00
  0.00000000000000000E+00  0.00000000000000000E+00  0.00000000000000000E+00
  0.00000000000000000E+00  0.00000000000000000E+00  0.00000000000000000E+00
  0.00000000000000000E+00  0.00000000000000000E+00  0.00000000000000000E+00
  0.00000000000000000E+00  0.00000000000000000E+00  0.00000000000000000E+00
  0.00000000000000000E+00  0.00000000000000000E+00  0.00000000000000000E+00
  0.00000000000000000E+00  0.00000000000000000E+00  0.00000000000000000E+00
  0.00000000000000000E+00  0.00000000000000000E+00  0.00000000000000000E+00
  0.00000000000000000E+00  0.00000000000000000E+00  0.00000000000000000E+00
  0.00000000000000000E+00  0.00000000000000000E+00  0.00000000000000000E+00
  0.00000000000000000E+00  0.00000000000000000E+00  0.00000000000000000E+00
  0.00000000000000000E+00  0.00000000000000000E+00  0.00000000000000000E+00
  0.00000000000000000E+00  0.00000000000000000E+00  0.00000000000000000E+00
  0.00000000000000000E+00  0.00000000000000000E+00  0.00000000000000000E+00
  0.00000000000000000E+00  0.00000000000000000E+00  0.00000000000000000E+00
  0.00000000000000000E+00  0.00000000000000000E+00  0.00000000000000000E+00
  0.00000000000000000E+00  0.00000000000000000E+00  0.00000000000000000E+00
  0.00000000000000000E+00  0.00000000000000000E+00  0.00000000000000000E+00
  0.00000000000000000E+00  0.00000000000000000E+00  0.00000000000000000E+00
  0.00000000000000000E+00  0.00000000000000000E+00  0.00000000000000000E+00
  0.00000000000000000E+00  0.00000000000000000E+00  0.00000000000000000E+00
  0.00000000000000000E+00  0.00000000000000000E+00  0.00000000000000000E+00
  0.00000000000000000E+00  0.00000000000000000E+00  0.00000000000000000E+00
  0.00000000000000000E+00  0.00000000000000000E+00  0.00000000000000000E+00
  0.00000000000000000E+00  0.00000000000000000E+00  0.00000000000000000E+00
  0.00000000000000000E+00  0.00000000000000000E+00  0.00000000000000000E+00
  0.00000000000000000E+00  0.00000000000000000E+00  0.00000000000000000E+00
  0.00000000000000000E+00  0.00000000000000000E+00  0.00000000000000000E+00
  0.00000000000000000E+00  0.00000000000000000E+00  0.00000000000000000E+00
  0.00000000000000000E+00  0.00000000000000000E+00  0.00000000000000000E+00
  0.00000000000000000E+00  0.00000000000000000E+00  0.00000000000000000E+00
  0.00000000000000000E+00  0.00000000000000000E+00  0.00000000000000000E+00
  0.00000000000000000E+00  0.00000000000000000E+00  0.00000000000000000E+00
  0.00000000000000000E+00  0.00000000000000000E+00  0.00000000000000000E+00
  0.00000000000000000E+00  0.00000000000000000E+00  0.00000000000000000E+00
  0.00000000000000000E+00  0.00000000000000000E+00  0.00000000000000000E+00
  0.00000000000000000E+00  0.00000000000000000E+00  0.00000000000000000E+00
  0.00000000000000000E+00  0.00000000000000000E+00  0.00000000000000000E+00
  0.00000000000000000E+00  0.00000000000000000E+00  0.00000000000000000E+00
  0.00000000000000000E+00  0.00000000000000000E+00  0.00000000000000000E+00
  0.00000000000000000E+00  0.00000000000000000E+00  0.00000000000000000E+00
  0.00000000000000000E+00  0.00000000000000000E+00  0.00000000000000000E+00
  0.00000000000000000E+00  0.00000000000000000E+00  0.00000000000000000E+00
  0.00000000000000000E+00  0.00000000000000000E+00  0.00000000000000000E+00
  0.00000000000000000E+00  0.00000000000000000E+00  0.00000000000000000E+00
  0.00000000000000000E+00  0.00000000000000000E+00  0.00000000000000000E+00
  0.00000000000000000E+00  0.00000000000000000E+00  0.00000000000000000E+00
  0.00000000000000000E+00  0.00000000000000000E+00  0.00000000000000000E+00
  0.00000000000000000E+00  0.00000000000000000E+00  0.00000000000000000E+00
  0.00000000000000000E+00  0.00000000000000000E+00  0.00000000000000000E+00
  0.00000000000000000E+00  0.00000000000000000E+00  0.00000000000000000E+00
  0.00000000000000000E+00  0.00000000000000000E+00  0.00000000000000000E+00
  0.00000000000000000E+00  0.00000000000000000E+00  0.00000000000000000E+00
  0.00000000000000000E+00  0.00000000000000000E+00  0.00000000000000000E+00
  0.00000000000000000E+00  0.00000000000000000E+00  0.00000000000000000E+00
  0.00000000000000000E+00  0.00000000000000000E+00  0.00000000000000000E+00
  0.00000000000000000E+00  0.00000000000000000E+00  0.00000000000000000E+00
  0.00000000000000000E+00  0.00000000000000000E+00  0.00000000000000000E+00
  0.00000000000000000E+00  0.00000000000000000E+00  0.00000000000000000E+00
  0.00000000000000000E+00  0.00000000000000000E+00  0.00000000000000000E+00
  0.00000000000000000E+00  0.00000000000000000E+00  0.00000000000000000E+00
  0.00000000000000000E+00  0.00000000000000000E+00  0.00000000000000000E+00
  0.00000000000000000E+00  0.00000000000000000E+00  0.00000000000000000E+00
  0.00000000000000000E+00  0.00000000000000000E+00  0.00000000000000000E+00
  0.00000000000000000E+00  0.00000000000000000E+00  0.00000000000000000E+00
  0.00000000000000000E+00  0.00000000000000000E+00  0.00000000000000000E+00
  0.00000000000000000E+00  0.00000000000000000E+00  0.00000000000000000E+00
  0.00000000000000000E+00  0.00000000000000000E+00  0.00000000000000000E+00
  0.00000000000000000E+00  0.00000000000000000E+00  0.00000000000000000E+00
  0.00000000000000000E+00  0.00000000000000000E+00  0.00000000000000000E+00
  0.00000000000000000E+00  0.00000000000000000E+00  0.00000000000000000E+00
  0.00000000000000000E+00  0.00000000000000000E+00  0.00000000000000000E+00
  0.00000000000000000E+00  0.00000000000000000E+00  0.00000000000000000E+00
  0.00000000000000000E+00  0.00000000000000000E+00  0.00000000000000000E+00
  0.00000000000000000E+00  0.00000000000000000E+00  0.00000000000000000E+00
  0.00000000000000000E+00  0.00000000000000000E+00  0.00000000000000000E+00
  0.00000000000000000E+00  0.00000000000000000E+00  0.00000000000000000E+00
  0.00000000000000000E+00  0.00000000000000000E+00  0.00000000000000000E+00
  0.00000000000000000E+00  0.00000000000000000E+00  0.00000000000000000E+00
  0.00000000000000000E+00  0.00000000000000000E+00  0.00000000000000000E+00
  0.00000000000000000E+00  0.00000000000000000E+00  0.00000000000000000E+00
  0.00000000000000000E+00  0.00000000000000000E+00  0.00000000000000000E+00
  0.00000000000000000E+00  0.00000000000000000E+00  0.00000000000000000E+00
  0.00000000000000000E+00  0.00000000000000000E+00  0.00000000000000000E+00
  0.00000000000000000E+00  0.00000000000000000E+00  0.00000000000000000E+00
  0.00000000000000000E+00  0.00000000000000000E+00  0.00000000000000000E+00
  0.00000000000000000E+00  0.00000000000000000E+00  0.00000000000000000E+00
  0.00000000000000000E+00  0.00000000000000000E+00  0.00000000000000000E+00
  0.00000000000000000E+00  0.00000000000000000E+00  0.00000000000000000E+00
  0.00000000000000000E+00  0.00000000000000000E+00  0.00000000000000000E+00
  0.00000000000000000E+00  0.00000000000000000E+00  0.00000000000000000E+00
  0.00000000000000000E+00  0.00000000000000000E+00  0.00000000000000000E+00
  0.00000000000000000E+00  0.00000000000000000E+00  0.00000000000000000E+00
  0.00000000000000000E+00  0.00000000000000000E+00  0.00000000000000000E+00
  0.00000000000000000E+00  0.00000000000000000E+00  0.00000000000000000E+00
  0.00000000000000000E+00  0.00000000000000000E+00  0.00000000000000000E+00
  0.00000000000000000E+00  0.00000000000000000E+00  0.00000000000000000E+00
  0.00000000000000000E+00  0.00000000000000000E+00  0.00000000000000000E+00
  0.00000000000000000E+00  0.00000000000000000E+00  0.00000000000000000E+00
  0.00000000000000000E+00  0.00000000000000000E+00  0.00000000000000000E+00
  0.00000000000000000E+00  0.00000000000000000E+00  0.00000000000000000E+00
  0.00000000000000000E+00  0.00000000000000000E+00  0.00000000000000000E+00
  0.00000000000000000E+00  0.00000000000000000E+00  0.00000000000000000E+00
  0.00000000000000000E+00  0.00000000000000000E+00  0.00000000000000000E+00
  0.00000000000000000E+00  0.00000000000000000E+00  0.00000000000000000E+00
  0.00000000000000000E+00  0.00000000000000000E+00  0.00000000000000000E+00
  0.00000000000000000E+00  0.00000000000000000E+00  0.00000000000000000E+00
  0.00000000000000000E+00  0.00000000000000000E+00  0.00000000000000000E+00
  0.00000000000000000E+00  0.00000000000000000E+00  0.00000000000000000E+00
  0.00000000000000000E+00  0.00000000000000000E+00  0.00000000000000000E+00
  0.00000000000000000E+00  0.00000000000000000E+00  0.00000000000000000E+00
  0.00000000000000000E+00  0.00000000000000000E+00  0.00000000000000000E+00
  0.00000000000000000E+00  0.00000000000000000E+00  0.00000000000000000E+00
  0.00000000000000000E+00  0.00000000000000000E+00  0.00000000000000000E+00
  0.00000000000000000E+00  0.00000000000000000E+00  0.00000000000000000E+00
  0.00000000000000000E+00  0.00000000000000000E+00  0.00000000000000000E+00
  0.00000000000000000E+00  0.00000000000000000E+00  0.00000000000000000E+00
  0.00000000000000000E+00  0.00000000000000000E+00  0.00000000000000000E+00
  0.00000000000000000E+00  0.00000000000000000E+00  0.00000000000000000E+00
  0.00000000000000000E+00  0.00000000000000000E+00  0.00000000000000000E+00
  0.00000000000000000E+00  0.00000000000000000E+00  0.00000000000000000E+00
  0.00000000000000000E+00  0.00000000000000000E+00  0.00000000000000000E+00
  0.00000000000000000E+00  0.00000000000000000E+00  0.00000000000000000E+00
  0.00000000000000000E+00  0.00000000000000000E+00  0.00000000000000000E+00
  0.00000000000000000E+00  0.00000000000000000E+00  0.00000000000000000E+00
  0.00000000000000000E+00  0.00000000000000000E+00  0.00000000000000000E+00
  0.00000000000000000E+00  0.00000000000000000E+00  0.00000000000000000E+00
  0.00000000000000000E+00  0.00000000000000000E+00  0.00000000000000000E+00
  0.00000000000000000E+00  0.00000000000000000E+00  0.00000000000000000E+00
  0.00000000000000000E+00  0.00000000000000000E+00  0.00000000000000000E+00
  0.00000000000000000E+00  0.00000000000000000E+00  0.00000000000000000E+00
  0.00000000000000000E+00  0.00000000000000000E+00  0.00000000000000000E+00
  0.00000000000000000E+00  0.00000000000000000E+00  0.00000000000000000E+00
  0.00000000000000000E+00  0.00000000000000000E+00  0.00000000000000000E+00
  0.00000000000000000E+00  0.00000000000000000E+00  0.00000000000000000E+00
  0.00000000000000000E+00  0.00000000000000000E+00  0.00000000000000000E+00
  0.00000000000000000E+00  0.00000000000000000E+00  0.00000000000000000E+00
  0.00000000000000000E+00  0.00000000000000000E+00  0.00000000000000000E+00
  0.00000000000000000E+00  0.00000000000000000E+00  0.00000000000000000E+00
  0.00000000000000000E+00  0.00000000000000000E+00  0.00000000000000000E+00
  0.00000000000000000E+00  0.00000000000000000E+00  0.00000000000000000E+00
  0.00000000000000000E+00  0.00000000000000000E+00  0.00000000000000000E+00
  0.00000000000000000E+00  0.00000000000000000E+00  0.00000000000000000E+00
  0.00000000000000000E+00  0.00000000000000000E+00  0.00000000000000000E+00
  0.00000000000000000E+00  0.00000000000000000E+00  0.00000000000000000E+00
  0.00000000000000000E+00  0.00000000000000000E+00  0.00000000000000000E+00
  0.00000000000000000E+00  0.00000000000000000E+00  0.00000000000000000E+00
  0.00000000000000000E+00  0.00000000000000000E+00  0.00000000000000000E+00
  0.00000000000000000E+00  0.00000000000000000E+00  0.00000000000000000E+00
  0.00000000000000000E+00  0.00000000000000000E+00  0.00000000000000000E+00
  0.00000000000000000E+00  0.00000000000000000E+00  0.00000000000000000E+00
  0.00000000000000000E+00  0.00000000000000000E+00  0.00000000000000000E+00
  0.00000000000000000E+00  0.00000000000000000E+00  0.00000000000000000E+00
  0.00000000000000000E+00  0.00000000000000000E+00  0.00000000000000000E+00
  0.00000000000000000E+00  0.00000000000000000E+00  0.00000000000000000E+00
  0.00000000000000000E+00  0.00000000000000000E+00  0.00000000000000000E+00
  0.00000000000000000E+00  0.00000000000000000E+00  0.00000000000000000E+00
  0.00000000000000000E+00  0.00000000000000000E+00  0.00000000000000000E+00
  0.00000000000000000E+00  0.00000000000000000E+00  0.00000000000000000E+00
  0.00000000000000000E+00  0.00000000000000000E+00  0.00000000000000000E+00
  0.00000000000000000E+00  0.00000000000000000E+00  0.00000000000000000E+00
  0.00000000000000000E+00  0.00000000000000000E+00  0.00000000000000000E+00
  0.00000000000000000E+00  0.00000000000000000E+00  0.00000000000000000E+00
  0.00000000000000000E+00  0.00000000000000000E+00  0.00000000000000000E+00
  0.00000000000000000E+00  0.00000000000000000E+00  0.00000000000000000E+00
  0.00000000000000000E+00  0.00000000000000000E+00  0.00000000000000000E+00
  0.00000000000000000E+00  0.00000000000000000E+00  0.00000000000000000E+00
  0.00000000000000000E+00  0.00000000000000000E+00  0.00000000000000000E+00
  0.00000000000000000E+00  0.00000000000000000E+00  0.00000000000000000E+00
  0.00000000000000000E+00  0.00000000000000000E+00  0.00000000000000000E+00
  0.00000000000000000E+00  0.00000000000000000E+00  0.00000000000000000E+00
  0.00000000000000000E+00  0.00000000000000000E+00  0.00000000000000000E+00
  0.00000000000000000E+00  0.00000000000000000E+00  0.00000000000000000E+00
  0.00000000000000000E+00  0.00000000000000000E+00  0.00000000000000000E+00
  0.00000000000000000E+00  0.00000000000000000E+00  0.00000000000000000E+00
  0.00000000000000000E+00  0.00000000000000000E+00  0.00000000000000000E+00
  0.00000000000000000E+00  0.00000000000000000E+00  0.00000000000000000E+00
  0.00000000000000000E+00  0.00000000000000000E+00  0.00000000000000000E+00
  0.00000000000000000E+00  0.00000000000000000E+00  0.00000000000000000E+00
  0.00000000000000000E+00  0.00000000000000000E+00  0.00000000000000000E+00
  0.00000000000000000E+00  0.00000000000000000E+00  0.00000000000000000E+00
  0.00000000000000000E+00  0.00000000000000000E+00  0.00000000000000000E+00
  0.00000000000000000E+00  0.00000000000000000E+00  0.00000000000000000E+00
  0.00000000000000000E+00  0.00000000000000000E+00  0.00000000000000000E+00
  0.00000000000000000E+00  0.00000000000000000E+00  0.00000000000000000E+00
  0.00000000000000000E+00  0.00000000000000000E+00  0.00000000000000000E+00
  0.00000000000000000E+00  0.00000000000000000E+00  0.00000000000000000E+00
  0.00000000000000000E+00  0.00000000000000000E+00  0.00000000000000000E+00
  0.00000000000000000E+00  0.00000000000000000E+00  0.00000000000000000E+00
  0.00000000000000000E+00  0.00000000000000000E+00  0.00000000000000000E+00
  0.00000000000000000E+00  0.00000000000000000E+00  0.00000000000000000E+00
  0.00000000000000000E+00  0.00000000000000000E+00  0.00000000000000000E+00
  0.00000000000000000E+00  0.00000000000000000E+00  0.00000000000000000E+00
  0.00000000000000000E+00  0.00000000000000000E+00  0.00000000000000000E+00
  0.00000000000000000E+00  0.00000000000000000E+00  0.00000000000000000E+00
  0.00000000000000000E+00  0.00000000000000000E+00  0.00000000000000000E+00
  0.00000000000000000E+00  0.00000000000000000E+00  0.00000000000000000E+00
  0.00000000000000000E+00  0.00000000000000000E+00  0.00000000000000000E+00
  0.00000000000000000E+00  0.00000000000000000E+00  0.00000000000000000E+00
  0.00000000000000000E+00  0.00000000000000000E+00  0.00000000000000000E+00
  0.00000000000000000E+00  0.00000000000000000E+00  0.00000000000000000E+00
  0.00000000000000000E+00  0.00000000000000000E+00  0.00000000000000000E+00
  0.00000000000000000E+00  0.00000000000000000E+00  0.00000000000000000E+00
  0.00000000000000000E+00  0.00000000000000000E+00  0.00000000000000000E+00
  0.00000000000000000E+00  0.00000000000000000E+00  0.00000000000000000E+00
  0.00000000000000000E+00  0.00000000000000000E+00  0.00000000000000000E+00
  0.00000000000000000E+00  0.00000000000000000E+00  0.00000000000000000E+00
  0.00000000000000000E+00  0.00000000000000000E+00  0.00000000000000000E+00
  0.00000000000000000E+00  0.00000000000000000E+00  0.00000000000000000E+00
  0.00000000000000000E+00  0.00000000000000000E+00  0.00000000000000000E+00
  0.00000000000000000E+00  0.00000000000000000E+00  0.00000000000000000E+00
  0.00000000000000000E+00  0.00000000000000000E+00  0.00000000000000000E+00
  0.00000000000000000E+00  0.00000000000000000E+00  0.00000000000000000E+00
  0.00000000000000000E+00  0.00000000000000000E+00  0.00000000000000000E+00
  0.00000000000000000E+00  0.00000000000000000E+00  0.00000000000000000E+00
  0.00000000000000000E+00  0.00000000000000000E+00  0.00000000000000000E+00
  0.00000000000000000E+00  0.00000000000000000E+00  0.00000000000000000E+00
  0.00000000000000000E+00  0.00000000000000000E+00  0.00000000000000000E+00
  0.00000000000000000E+00  0.00000000000000000E+00  0.00000000000000000E+00
  0.00000000000000000E+00  0.00000000000000000E+00  0.00000000000000000E+00
  0.00000000000000000E+00  0.00000000000000000E+00  0.00000000000000000E+00
  0.00000000000000000E+00  0.00000000000000000E+00  0.00000000000000000E+00
  0.00000000000000000E+00  0.00000000000000000E+00  0.00000000000000000E+00
  0.00000000000000000E+00  0.00000000000000000E+00  0.00000000000000000E+00
  0.00000000000000000E+00  0.00000000000000000E+00  0.00000000000000000E+00
  0.00000000000000000E+00  0.00000000000000000E+00  0.00000000000000000E+00
  0.00000000000000000E+00  0.00000000000000000E+00  0.00000000000000000E+00
  0.00000000000000000E+00  0.00000000000000000E+00  0.00000000000000000E+00
  0.00000000000000000E+00  0.00000000000000000E+00  0.00000000000000000E+00
  0.00000000000000000E+00  0.00000000000000000E+00  0.00000000000000000E+00
  0.00000000000000000E+00  0.00000000000000000E+00  0.00000000000000000E+00
  0.00000000000000000E+00  0.00000000000000000E+00  0.00000000000000000E+00
  0.00000000000000000E+00  0.00000000000000000E+00  0.00000000000000000E+00
  0.00000000000000000E+00  0.00000000000000000E+00  0.00000000000000000E+00
  0.00000000000000000E+00  0.00000000000000000E+00  0.00000000000000000E+00
  0.00000000000000000E+00  0.00000000000000000E+00  0.00000000000000000E+00
  0.00000000000000000E+00  0.00000000000000000E+00  0.00000000000000000E+00
  0.00000000000000000E+00  0.00000000000000000E+00  0.00000000000000000E+00
  0.00000000000000000E+00  0.00000000000000000E+00  0.00000000000000000E+00
  0.00000000000000000E+00  0.00000000000000000E+00  0.00000000000000000E+00
  0.00000000000000000E+00  0.00000000000000000E+00  0.00000000000000000E+00
  0.00000000000000000E+00  0.00000000000000000E+00  0.00000000000000000E+00
  0.00000000000000000E+00  0.00000000000000000E+00  0.00000000000000000E+00
  0.00000000000000000E+00  0.00000000000000000E+00  0.00000000000000000E+00
  0.00000000000000000E+00  0.00000000000000000E+00  0.00000000000000000E+00
  0.00000000000000000E+00  0.00000000000000000E+00  0.00000000000000000E+00
  0.00000000000000000E+00  0.00000000000000000E+00  0.00000000000000000E+00
  0.00000000000000000E+00  0.00000000000000000E+00  0.00000000000000000E+00
  0.00000000000000000E+00  0.00000000000000000E+00  0.00000000000000000E+00
  0.00000000000000000E+00  0.00000000000000000E+00  0.00000000000000000E+00
  0.00000000000000000E+00  0.00000000000000000E+00  0.00000000000000000E+00
  0.00000000000000000E+00  0.00000000000000000E+00  0.00000000000000000E+00
  0.00000000000000000E+00  0.00000000000000000E+00  0.00000000000000000E+00
  0.00000000000000000E+00  0.00000000000000000E+00  0.00000000000000000E+00
  0.00000000000000000E+00  0.00000000000000000E+00  0.00000000000000000E+00
  0.00000000000000000E+00  0.00000000000000000E+00  0.00000000000000000E+00
  0.00000000000000000E+00  0.00000000000000000E+00  0.00000000000000000E+00
  0.00000000000000000E+00  0.00000000000000000E+00  0.00000000000000000E+00
  0.00000000000000000E+00  0.00000000000000000E+00  0.00000000000000000E+00
                             </PP_NLCC> 
 <PP_LOCAL type="real" size="   777" columns="3">
 -6.34469755490597542E+00 -6.34469732632198014E+00 -6.34469709195135945E+00
 -6.34469685164762520E+00 -6.34469660526057933E+00 -6.34469635263622411E+00
 -6.34469609361665832E+00 -6.34469582803998922E+00 -6.34469555574022159E+00
 -6.34469527654716092E+00 -6.34469499028630235E+00 -6.34469469677872411E+00
 -6.34469439584097561E+00 -6.34469408728496109E+00 -6.34469377091782594E+00
 -6.34469344654182965E+00 -6.34469311395422775E+00 -6.34469277294714296E+00
 -6.34469242330743555E+00 -6.34469206481657011E+00 -6.34469169725047877E+00
 -6.34469132037942263E+00 -6.34469093396784434E+00 -6.34469053777422776E+00
 -6.34469013155093986E+00 -6.34468971504407886E+00 -6.34468928799331611E+00
 -6.34468885013173090E+00 -6.34468840118564881E+00 -6.34468794087446408E+00
 -6.34468746891046909E+00 -6.34468698499867401E+00 -6.34468648883661857E+00
 -6.34468598011418816E+00 -6.34468545851341670E+00 -6.34468492370828940E+00
 -6.34468437536453855E+00 -6.34468381313943208E+00 -6.34468323668156309E+00
 -6.34468264563063045E+00 -6.34468203961720967E+00 -6.34468141826252818E+00
 -6.34468078117822110E+00 -6.34468012796609226E+00 -6.34467945821786472E+00
 -6.34467877151493109E+00 -6.34467806742808182E+00 -6.34467734551724583E+00
 -6.34467660533120537E+00 -6.34467584640732607E+00 -6.34467506827126027E+00
 -6.34467427043665388E+00 -6.34467345240483827E+00 -6.34467261366452195E+00
 -6.34467175369147007E+00 -6.34467087194817925E+00 -6.34466996788353743E+00
 -6.34466904093248107E+00 -6.34466809051563985E+00 -6.34466711603897959E+00
 -6.34466611689343107E+00 -6.34466509245450183E+00 -6.34466404208189516E+00
 -6.34466296511910066E+00 -6.34466186089299011E+00 -6.34466072871339737E+00
 -6.34465956787268226E+00 -6.34465837764529272E+00 -6.34465715728731094E+00
 -6.34465590603598351E+00 -6.34465462310924977E+00 -6.34465330770525160E+00
 -6.34465195900183243E+00 -6.34465057615602479E+00 -6.34464915830352094E+00
 -6.34464770455813287E+00 -6.34464621401123630E+00 -6.34464468573120843E+00
 -6.34464311876284537E+00 -6.34464151212676075E+00 -6.34463986481877384E+00
 -6.34463817580928602E+00 -6.34463644404263327E+00 -6.34463466843642987E+00
 -6.34463284788088888E+00 -6.34463098123813030E+00 -6.34462906734146870E+00
 -6.34462710499468496E+00 -6.34462509297128108E+00 -6.34462303001370831E+00
 -6.34462091483258472E+00 -6.34461874610588783E+00 -6.34461652247813124E+00
 -6.34461424255951645E+00 -6.34461190492506066E+00 -6.34460950811370505E+00
 -6.34460705062741326E+00 -6.34460453093022725E+00 -6.34460194744730277E+00
 -6.34459929856393146E+00 -6.34459658262453274E+00 -6.34459379793161204E+00
 -6.34459094274470736E+00 -6.34458801527930039E+00 -6.34458501370569827E+00
 -6.34458193614789145E+00 -6.34457878068238035E+00 -6.34457554533697810E+00
 -6.34457222808956889E+00 -6.34456882686685208E+00 -6.34456533954304724E+00
 -6.34456176393856097E+00 -6.34455809781862357E+00 -6.34455433889189813E+00
 -6.34455048480904793E+00 -6.34454653316126027E+00 -6.34454248147875255E+00
 -6.34453832722922417E+00 -6.34453406781626761E+00 -6.34452970057775723E+00
 -6.34452522278417774E+00 -6.34452063163692515E+00 -6.34451592426654809E+00
 -6.34451109773095911E+00 -6.34450614901360765E+00 -6.34450107502157934E+00
 -6.34449587258366687E+00 -6.34449053844839295E+00 -6.34448506928197542E+00
 -6.34447946166624543E+00 -6.34447371209651134E+00 -6.34446781697936757E+00
 -6.34446177263044930E+00 -6.34445557527213566E+00 -6.34444922103118181E+00
 -6.34444270593629778E+00 -6.34443602591567668E+00 -6.34442917679444474E+00
 -6.34442215429205003E+00 -6.34441495401959354E+00 -6.34440757147708290E+00
 -6.34440000205062127E+00 -6.34439224100952792E+00 -6.34438428350337968E+00
 -6.34437612455897959E+00 -6.34436775907725004E+00 -6.34435918183005221E+00
 -6.34435038745691138E+00 -6.34434137046167201E+00 -6.34433212520906853E+00
 -6.34432264592119832E+00 -6.34431292667390956E+00 -6.34430296139310990E+00
 -6.34429274385096598E+00 -6.34428226766201053E+00 -6.34427152627915980E+00
 -6.34426051298961546E+00 -6.34424922091068044E+00 -6.34423764298545034E+00
 -6.34422577197841786E+00 -6.34421360047093152E+00 -6.34420112085658516E+00
 -6.34418832533645549E+00 -6.34417520591422512E+00 -6.34416175439119989E+00
 -6.34414796236118139E+00 -6.34413382120521341E+00 -6.34411932208620577E+00
 -6.34410445594341166E+00 -6.34408921348676547E+00 -6.34407358519108389E+00
 -6.34405756129012044E+00 -6.34404113177045836E+00 -6.34402428636525784E+00
 -6.34400701454785487E+00 -6.34398930552517548E+00 -6.34397114823099884E+00
 -6.34395253131904813E+00 -6.34393344315591001E+00 -6.34391387181375865E+00
 -6.34389380506291634E+00 -6.34387323036421602E+00 -6.34385213486117294E+00
 -6.34383050537195015E+00 -6.34380832838114017E+00 -6.34378559003130871E+00
 -6.34376227611437304E+00 -6.34373837206269453E+00 -6.34371386294001294E+00
 -6.34368873343211259E+00 -6.34366296783725758E+00 -6.34363655005639604E+00
 -6.34360946358311129E+00 -6.34358169149331541E+00 -6.34355321643468528E+00
 -6.34352402061584009E+00 -6.34349408579522667E+00 -6.34346339326973929E+00
 -6.34343192386304988E+00 -6.34339965791363447E+00 -6.34336657526251546E+00
 -6.34333265524067080E+00 -6.34329787665613942E+00 -6.34326221778080157E+00
 -6.34322565633681901E+00 -6.34318816948274655E+00 -6.34314973379925817E+00
 -6.34311032527456664E+00 -6.34306991928941954E+00 -6.34302849060175600E+00
 -6.34298601333096457E+00 -6.34294246094172731E+00 -6.34289780622748101E+00
 -6.34285202129345294E+00 -6.34280507753925349E+00 -6.34275694564105308E+00
 -6.34270759553328300E+00 -6.34265699638991531E+00 -6.34260511660521509E+00
 -6.34255192377405397E+00 -6.34249738467170321E+00 -6.34244146523313201E+00
 -6.34238413053175965E+00 -6.34232534475770127E+00 -6.34226507119544713E+00
 -6.34220327220097424E+00 -6.34213990917830728E+00 -6.34207494255545257E+00
 -6.34200833175975909E+00 -6.34194003519263205E+00 -6.34187001020362917E+00
 -6.34179821306388991E+00 -6.34172459893889595E+00 -6.34164912186057528E+00
 -6.34157173469863977E+00 -6.34149238913127977E+00 -6.34141103561505126E+00
 -6.34132762335405076E+00 -6.34124210026829083E+00 -6.34115441296129312E+00
 -6.34106450668685184E+00 -6.34097232531497212E+00 -6.34087781129694950E+00
 -6.34078090562957009E+00 -6.34068154781840310E+00 -6.34057967584018023E+00
 -6.34047522610422742E+00 -6.34036813341292138E+00 -6.34025833092116464E+00
 -6.34014575009481973E+00 -6.34003032066812278E+00 -6.33991197060001532E+00
 -6.33979062602937571E+00 -6.33966621122914642E+00 -6.33953864855927840E+00
 -6.33940785841851984E+00 -6.33927375919498903E+00 -6.33913626721550028E+00
 -6.33899529669362138E+00 -6.33885075967643452E+00 -6.33870256598995763E+00
 -6.33855062318319717E+00 -6.33839483647080382E+00 -6.33823510867427586E+00
 -6.33807134016172213E+00 -6.33790342878607582E+00 -6.33773126982179491E+00
 -6.33755475589996919E+00 -6.33737377694178683E+00 -6.33718822009036664E+00
 -6.33699796964085849E+00 -6.33680290696881166E+00 -6.33660291045676427E+00
 -6.33639785541896128E+00 -6.33618761402423658E+00 -6.33597205521694118E+00
 -6.33575104463591821E+00 -6.33552444453142893E+00 -6.33529211368004663E+00
 -6.33505390729740103E+00 -6.33480967694874586E+00 -6.33455927045732903E+00
 -6.33430253181045622E+00 -6.33403930106321678E+00 -6.33376941423983997E+00
 -6.33349270323256608E+00 -6.33320899569803331E+00 -6.33291811495108448E+00
 -6.33261987985591279E+00 -6.33231410471455280E+00 -6.33200059915257096E+00
 -6.33167916800193620E+00 -6.33134961118097994E+00 -6.33101172357141451E+00
 -6.33066529489226060E+00 -6.33031010957070173E+00 -6.32994594660973853E+00
 -6.32957257945253549E+00 -6.32918977584348674E+00 -6.32879729768580290E+00
 -6.32839490089561085E+00 -6.32798233525244758E+00 -6.32755934424609467E+00
 -6.32712566491964523E+00 -6.32668102770866891E+00 -6.32622515627649484E+00
 -6.32575776734541950E+00 -6.32527857052377307E+00 -6.32478726812875180E+00
 -6.32428355500492856E+00 -6.32376711833833660E+00 -6.32323763746595802E+00
 -6.32269478368061666E+00 -6.32213822003111225E+00 -6.32156760111746330E+00
 -6.32098257288115484E+00 -6.32038277239033519E+00 -6.31976782761977596E+00
 -6.31913735722548431E+00 -6.31849097031386364E+00 -6.31782826620527960E+00
 -6.31714883419196482E+00 -6.31645225329000226E+00 -6.31573809198537184E+00
 -6.31500590797388561E+00 -6.31425524789488168E+00 -6.31348564705849036E+00
 -6.31269662916638907E+00 -6.31188770602584803E+00 -6.31105837725698304E+00
 -6.31020812999299974E+00 -6.30933643857328530E+00 -6.30844276422919847E+00
 -6.30752655476242374E+00 -6.30658724421569961E+00 -6.30562425253574332E+00
 -6.30463698522820337E+00 -6.30362483300449039E+00 -6.30258717142030900E+00
 -6.30152336050571638E+00 -6.30043274438648737E+00 -6.29931465089661469E+00
 -6.29816839118180472E+00 -6.29699325929371589E+00 -6.29578853177483300E+00
 -6.29455346723366382E+00 -6.29328730591014729E+00 -6.29198926923102775E+00
 -6.29065855935503215E+00 -6.28929435870763154E+00 -6.28789582950517278E+00
 -6.28646211326812754E+00 -6.28499233032329840E+00 -6.28348557929475948E+00
 -6.28194093658331187E+00 -6.28035745583422766E+00 -6.27873416739306478E+00
 -6.27707007774928183E+00 -6.27536416896748950E+00 -6.27361539810609692E+00
 -6.27182269662310965E+00 -6.26998496976888386E+00 -6.26810109596554987E+00
 -6.26616992617287405E+00 -6.26419028324037619E+00 -6.26216096124543231E+00
 -6.26008072481714706E+00 -6.25794830844576389E+00 -6.25576241577739456E+00
 -6.25352171889375086E+00 -6.25122485757670887E+00 -6.24887043855751223E+00
 -6.24645703475031766E+00 -6.24398318446990164E+00 -6.24144739063329013E+00
 -6.23884811994512489E+00 -6.23618380206644662E+00 -6.23345282876675721E+00
 -6.23065355305916935E+00 -6.22778428831840980E+00 -6.22484330738148905E+00
 -6.22182884163084982E+00 -6.21873908005983367E+00 -6.21557216832024562E+00
 -6.21232620775183353E+00 -6.20899925439358658E+00 -6.20558931797669011E+00
 -6.20209436089902066E+00 -6.19851229718100249E+00 -6.19484099140280087E+00
 -6.19107825762272945E+00 -6.18722185827676530E+00 -6.18326950305910916E+00
 -6.17921884778377617E+00 -6.17506749322723092E+00 -6.17081298395204403E+00
 -6.16645280711157717E+00 -6.16198439123579433E+00 -6.15740510499822857E+00
 -6.15271225596430860E+00 -6.14790308932105045E+00 -6.14297478658831331E+00
 -6.13792446431190175E+00 -6.13274917273871445E+00 -6.12744589447423316E+00
 -6.12201154312266560E+00 -6.11644296191012860E+00 -6.11073692229126486E+00
 -6.10489012253981134E+00 -6.09889918632363859E+00 -6.09276066126473470E+00
 -6.08647101748483532E+00 -6.08002664613745303E+00 -6.07342385792702899E+00
 -6.06665888161607114E+00 -6.05972786252116702E+00 -6.05262686099889358E+00
 -6.04535185092269156E+00 -6.03789871815186441E+00 -6.03026325899399751E+00
 -6.02244117866220385E+00 -6.01442808972841814E+00 -6.00621951057455838E+00
 -5.99781086384316175E+00 -5.98919747488932419E+00 -5.98037457023585528E+00
 -5.97133727603372932E+00 -5.96208061653003352E+00 -5.95259951254578912E+00
 -5.94288877996611653E+00 -5.93294312824549142E+00 -5.92275715893085852E+00
 -5.91232536420577226E+00 -5.90164212545846834E+00 -5.89070171187754088E+00
 -5.87949827907874756E+00 -5.86802586776680357E+00 -5.85627840243620490E+00
 -5.84424969011531736E+00 -5.83193341915833763E+00 -5.81932315808984857E+00
 -5.80641235450706183E+00 -5.79319433404506956E+00 -5.77966229941072118E+00
 -5.76580932949109126E+00 -5.75162837854280617E+00 -5.73711227546874092E+00
 -5.72225372318887970E+00 -5.70704529811285166E+00 -5.69147944972169384E+00
 -5.67554850026690083E+00 -5.65924464459515697E+00 -5.64255995010761868E+00
 -5.62548635686307019E+00 -5.60801567783460087E+00 -5.59013959933009641E+00
 -5.57184968158714611E+00 -5.55313735955360155E+00 -5.53399394386542909E+00
 -5.51441062203413690E+00 -5.49437845985652640E+00 -5.47388840306022306E+00
 -5.45293127919861398E+00 -5.43149779980990655E+00 -5.40957856285557970E+00
 -5.38716405545391286E+00 -5.36424465692507635E+00 -5.34081064216492152E+00
 -5.31685218536529813E+00 -5.29235936409946905E+00 -5.26732216379186280E+00
 -5.24173048259224306E+00 -5.21557413667506520E+00 -5.18884286598560163E+00
 -5.16152634045522873E+00 -5.13361416670907200E+00 -5.10509589529001850E+00
 -5.07596102842402885E+00 -5.04619902835244094E+00 -5.01579932625802538E+00
 -4.98475133181185015E+00 -4.95304444336974203E+00 -4.92066805884753489E+00
 -4.88761158730536049E+00 -4.85386446127203897E+00 -4.81941614984168076E+00
 -4.78425617257544822E+00 -4.74837411424243516E+00 -4.71175964043449724E+00
 -4.67440251409083452E+00 -4.63629261296905160E+00 -4.59741994810031862E+00
 -4.55777468326720303E+00 -4.51734715554362865E+00 -4.47612789693730750E+00
 -4.43410765717584532E+00 -4.39127742767860596E+00 -4.34762846675721448E+00
 -4.30315232608829845E+00 -4.25784087849962400E+00 -4.21168634704138167E+00
 -4.16468133403636287E+00 -4.11681882748573091E+00 -4.06809182543171222E+00
 -4.01848709379928870E+00 -3.96860315044198897E+00 -3.91934382210958976E+00
 -3.87071767622312546E+00 -3.82271765293646082E+00 -3.77533562018154401E+00
 -3.72856337020744810E+00 -3.68239270042747346E+00 -3.63681541683037501E+00
 -3.59182333119820552E+00 -3.54740825806285320E+00 -3.50356201192364036E+00
 -3.46027640481368026E+00 -3.41754324427193978E+00 -3.37535433177940547E+00
 -3.33370146172167248E+00 -3.29257642094426783E+00 -3.25197098897072268E+00
 -3.21187693895692217E+00 -3.17228603945811516E+00 -3.13319005708786991E+00
 -3.09458076015154537E+00 -3.05644992332686138E+00 -3.01878933347786527E+00
 -2.98159079668216043E+00 -2.94484614654434429E+00 -2.90854725386509028E+00
 -2.87268603772786868E+00 -2.83725447805551889E+00 -2.80224462967660504E+00
 -2.76764863792637872E+00 -2.73345875578920383E+00 -2.69966736256828677E+00
 -2.66626698404533036E+00 -2.63325031408002364E+00 -2.60061023776748623E+00
 -2.56833985888282390E+00 -2.53643256907822146E+00 -2.50488293641387250E+00
 -2.47371702980317698E+00 -2.44294689892565442E+00 -2.41256648109337135E+00
 -2.38257003839040182E+00 -2.35295194354102444E+00 -2.32370667159929267E+00
 -2.29482880659569144E+00 -2.26631304912255782E+00 -2.23815422363004712E+00
 -2.21034728506839206E+00 -2.18288732451133294E+00 -2.15576957332310482E+00
 -2.12898940534268988E+00 -2.10254233645003552E+00 -2.07642402076350496E+00
 -2.05063024257565685E+00 -2.02515690297058848E+00 -1.99999999988451216E+00
 -1.97515560085674080E+00 -1.95061982391005206E+00 -1.92638883528070060E+00
 -1.90245884882783667E+00 -1.87882612544266081E+00 -1.85548697246425287E+00
 -1.83243774310259933E+00 -1.80967483586878064E+00 -1.78719469401223940E+00
 -1.76499380496503311E+00 -1.74306869979299695E+00 -1.72141595265371961E+00
 -1.70003218026125036E+00 -1.67891404135746369E+00 -1.65805823618997872E+00
 -1.63746150599657248E+00 -1.61712063249599503E+00 -1.59703243738510881E+00
 -1.57719378184227565E+00 -1.55760156603691335E+00 -1.53825272864513929E+00
 -1.51914424637143819E+00 -1.50027313347626623E+00 -1.48163644130952576E+00
 -1.46323125784983477E+00 -1.44505470724951723E+00 -1.42710394938524887E+00
 -1.40937617941428406E+00 -1.39186862733619221E+00 -1.37457855756012659E+00
 -1.35750326847784453E+00 -1.34064009204120782E+00 -1.32398639334505686E+00
 -1.30753957021550238E+00 -1.29129705280333540E+00 -1.27525630318248684E+00
 -1.25941481495347452E+00 -1.24377011285177508E+00 -1.22831975236106228E+00
 -1.21306131933125072E+00 -1.19799242960128005E+00 -1.18311072862658673E+00
 -1.16841389111120941E+00 -1.15389962064445273E+00 -1.13956564934207050E+00
 -1.12540973749191164E+00 -1.11142967320395747E+00 -1.09762327206471122E+00
 -1.08398837679588400E+00 -1.07052285691731286E+00 -1.05722460841407284E+00
 -1.04409155340772108E+00 -1.03112163983162453E+00 -1.01831284111032305E+00
 -1.00566315584287103E+00 -9.93170607490118429E-01 -9.80833244065872689E-01
 -9.68649137831896767E-01 -9.56616384996696323E-01 -9.44733105418051000E-01
 -9.32997442309238423E-01 -9.21407561948907161E-01 -9.09961653394556258E-01
 -8.98657928199570133E-01 -8.87494620133772782E-01 -8.76469984907449540E-01
 -8.65582299898800422E-01 -8.54829863884775110E-01 -8.44210996775255906E-01
 -8.33724039350539847E-01 -8.23367353002080860E-01 -8.13139319476466005E-01
 -8.03038340622718061E-01 -7.93062838142541415E-01 -7.83211253343566782E-01
 -7.73482046895795472E-01 -7.63873698591078787E-01 -7.54384707105583252E-01
 -7.45013589765206263E-01 -7.35758882313906515E-01 -7.26619138684911792E-01
 -7.17592930774768822E-01 -7.08678848220199664E-01 -6.99875498177731981E-01
 -6.91181505106063465E-01 -6.82595510551130880E-01 -6.74116172933852287E-01
 -6.65742167340499180E-01 -6.57472185315680635E-01 -6.49304934657893074E-01
 -6.41239139217610443E-01 -6.33273538697886496E-01 -6.25406888457429200E-01
 -6.17637959316124641E-01 -6.09965537362974430E-01 -6.02388423766420655E-01
 -5.94905434587027604E-01 -5.87515400592485970E-01 -5.80217167074922102E-01
 -5.73009593670469553E-01 -5.65891554181087386E-01 -5.58861936398588721E-01
 -5.51919641930855742E-01 -5.45063586030216207E-01 -5.38292697423946809E-01
 -5.31605918146886181E-01 -5.25002203376126242E-01 -5.18480521267755790E-01
 -5.12039852795633688E-01 -5.05679191592163679E-01 -4.99397543791048004E-01
 -4.93193927871992510E-01 -4.87067374507345274E-01 -4.81016926410633650E-01
 -4.75041638186988913E-01 -4.69140576185425706E-01 -4.63312818352957290E-01
 -4.57557454090522953E-01 -4.51873584110705218E-01 -4.46260320297215685E-01
 -4.40716785566180158E-01 -4.35242113729098268E-01 -4.29835449357434674E-01
 -4.24495947648952210E-01 -4.19222774295710254E-01 -4.14015105353703061E-01
 -4.08872127114116635E-01 -4.03793035976185877E-01 -3.98777038321630473E-01
 -3.93823350390650473E-01 -3.88931198159462255E-01 -3.84099817219357154E-01
 -3.79328452657259785E-01 -3.74616358937773064E-01 -3.69962799786685670E-01
 -3.65367048075928347E-01 -3.60828385709958899E-01 -3.56346103513559553E-01
 -3.51919501121025435E-01 -3.47547886866731381E-01 -3.43230577677059057E-01
 -3.38966898963664609E-01 -3.34756184518073208E-01 -3.30597776407582922E-01
 -3.26491024872461233E-01 -3.22435288224419303E-01 -3.18429932746346234E-01
 -3.14474332593290384E-01 -3.10567869694669707E-01 -3.06709933657697054E-01
 -3.02899921672005024E-01 -2.99137238415455697E-01 -2.95421295961120878E-01
 -2.91751513685416741E-01 -2.88127318177380853E-01 -2.84548143149075172E-01
 -2.81013429347103216E-01 -2.77522624465224632E-01 -2.74075183058056893E-01
 -2.70670566455848416E-01 -2.67308242680310004E-01 -2.63987686361493334E-01
 -2.60708378655698347E-01 -2.57469807164407150E-01 -2.54271465854216061E-01
 -2.51112854977769862E-01 -2.47993480995673643E-01 -2.44912856499378745E-01
 -2.41870500135021871E-01 -2.38865936528213446E-01 -2.35898696209758479E-01
 -2.32968315542302906E-01 -2.30074336647892647E-01 -2.27216307336457479E-01
 -2.24393781035136547E-01 -2.21606316718483937E-01 -2.18853478839559690E-01
 -2.16134837261870272E-01 -2.13449967192162249E-01 -2.10798449114047881E-01
 -2.08179868722452754E-01 -2.05593816858882228E-01 -2.03039889447486993E-01
 -2.00517687431928493E-01 -1.98026816713022413E-01 -1.95566888087163493E-01
 -1.93137517185509061E-01 -1.90738324413923993E-01 -1.88368934893660356E-01
 -1.86028978402794809E-01 -1.83718089318365946E-01 -1.81435906559259008E-01
 -1.79182073529779495E-01 -1.76956238063927324E-01 -1.74758052370391187E-01
 -1.72587172978178688E-01 -1.70443260682967307E-01 -1.68325980494101413E-01
 -1.66235001582238223E-01 -1.64169997227669479E-01 -1.62130644769252180E-01
 -1.60116625554025033E-01 -1.58127624887374002E-01 -1.56163331983890291E-01
 -1.54223439918814931E-01 -1.52307645580059270E-01 -1.50415649620848385E-01
 -1.48547156412963788E-01 -1.46701874000523730E-01 -1.44879514054400027E-01
 -1.43079791827139841E-01 -1.41302426108462109E-01 -1.39547139181367713E-01
 -1.37813656778674604E-01 -1.36101708040227504E-01 -1.34411025470565215E-01
                             </PP_LOCAL> 
<PP_NONLOCAL> 
 <PP_BETA.1 type="real" size="   777" angular_momentum="0" columns="3" cutoff_radius_index="   562" norm_conserving_radius="    0.994950" label= "1S">
  2.12936898809052344E-03  2.15615402213867368E-03  2.18327600366175498E-03
  2.21073917220672650E-03  2.23854782069599946E-03  2.26670629610065816E-03
  2.29521900012224101E-03  2.32409038988316179E-03  2.35332497862588731E-03
  2.38292733642100516E-03  2.41290209088425821E-03  2.44325392790270155E-03
  2.47398759237007354E-03  2.50510788893151034E-03  2.53661968273772957E-03
  2.56852790020877745E-03  2.60083752980751074E-03  2.63355362282291072E-03
  2.66668129416335097E-03  2.70022572315997949E-03  2.73419215438029098E-03
  2.76858589845208449E-03  2.80341233289790057E-03  2.83867690298009569E-03
  2.87438512255669540E-03  2.91054257494813328E-03  2.94715491381506616E-03
  2.98422786404736349E-03  3.02176722266444707E-03  3.05977885972713972E-03
  3.09826871926113714E-03  3.13724282019229358E-03  3.17670725729384939E-03
  3.21666820214576866E-03  3.25713190410635480E-03  3.29810469129627939E-03
  3.33959297159522545E-03  3.38160323365128621E-03  3.42414204790329182E-03
  3.46721606761624980E-03  3.51083202993003607E-03  3.55499675692158394E-03
  3.59971715668068503E-03  3.64500022439959897E-03  3.69085304347667106E-03
  3.73728278663410440E-03  3.78429671705017090E-03  3.83190218950596202E-03
  3.88010665154690446E-03  3.92891764465924317E-03  3.97834280546166194E-03
  4.02838986691233646E-03  4.07906665953153801E-03  4.13038111264001778E-03
  4.18234125561340198E-03  4.23495521915279519E-03  4.28823123657187406E-03
  4.34217764510062571E-03  4.39680288720596668E-03  4.45211551192950267E-03
  4.50812417624263731E-03  4.56483764641929610E-03  4.62226479942650509E-03
  4.68041462433307475E-03  4.73929622373660958E-03  4.79891881520904968E-03
  4.85929173276115033E-03  4.92042442832608690E-03  4.98232647326241496E-03
  5.04500755987663356E-03  5.10847750296570483E-03  5.17274624137993924E-03
  5.23782383960625167E-03  5.30372048937206766E-03  5.37044651127049650E-03
  5.43801235640693596E-03  5.50642860806727953E-03  5.57570598340796295E-03
  5.64585533516854827E-03  5.71688765340701809E-03  5.78881406725777290E-03
  5.86164584671295362E-03  5.93539440442754536E-03  6.01007129754840049E-03
  6.08568822956761547E-03  6.16225705220051385E-03  6.23978976728865702E-03
  6.31829852872834840E-03  6.39779564442489925E-03  6.47829357827312945E-03
  6.55980495216434284E-03  6.64234254802020634E-03  6.72591930985410712E-03
  6.81054834586025584E-03  6.89624293053115508E-03  6.98301650680343677E-03
  7.07088268823252188E-03  7.15985526119745398E-03  7.24994818713550065E-03
  7.34117560480666235E-03  7.43355183258954076E-03  7.52709137080862477E-03
  7.62180890409316133E-03  7.71771930376850303E-03  7.81483763028036245E-03
  7.91317913565249033E-03  8.01275926597819557E-03  8.11359366394628391E-03
  8.21569817140214119E-03  8.31908883194448258E-03  8.42378189355800534E-03
  8.52979381128265990E-03  8.63714124992085233E-03  8.74584108678215857E-03
  8.85591041446663445E-03  8.96736654368779015E-03  9.08022700613463248E-03
  9.19450955737492921E-03  9.31023217979983463E-03  9.42741308560945783E-03
  9.54607071984229540E-03  9.66622376344742490E-03  9.78789113640066502E-03
  9.91109200086615939E-03  1.00358457644027892E-02  1.01621720832181881E-02
  1.02900908654694756E-02  1.04196222746115504E-02  1.05507867327950863E-02
  1.06836049243148757E-02  1.08180977991073849E-02  1.09542865763013440E-02
  1.10921927478207435E-02  1.12318380820405662E-02  1.13732446274982472E-02
  1.15164347166603932E-02  1.16614309697452203E-02  1.18082562986040109E-02
  1.19569339106609628E-02  1.21074873129123489E-02  1.22599403159872663E-02
  1.24143170382709153E-02  1.25706419100906856E-02  1.27289396779671424E-02
  1.28892354089312332E-02  1.30515544949089089E-02  1.32159226571737839E-02
  1.33823659508697165E-02  1.35509107696056806E-02  1.37215838501228669E-02
  1.38944122770361840E-02  1.40694234876516007E-02  1.42466452768610172E-02
  1.44261058021165345E-02  1.46078335884851137E-02  1.47918575337855091E-02
  1.49782069138095809E-02  1.51669113876305005E-02  1.53580010029963129E-02
  1.55515062018168389E-02  1.57474578257394693E-02  1.59458871218197788E-02
  1.61468257482872031E-02  1.63503057804113387E-02  1.65563597164644881E-02
  1.67650204837898678E-02  1.69763214449729569E-02  1.71902964041201027E-02
  1.74069796132485417E-02  1.76264057787845693E-02  1.78486100681828595E-02
  1.80736281166574177E-02  1.83014960340343730E-02  1.85322504117319022E-02
  1.87659283298598732E-02  1.90025673644541315E-02  1.92422055948399603E-02
  1.94848816111334033E-02  1.97306345218790646E-02  1.99795039618321027E-02
  2.02315300998855280E-02  2.04867536471484632E-02  2.07452158651743671E-02
  2.10069585743499279E-02  2.12720241624446069E-02  2.15404555933249829E-02
  2.18122964158376786E-02  2.20875907728697481E-02  2.23663834105846775E-02
  2.26487196878432454E-02  2.29346455858128531E-02  2.32242077177700554E-02
  2.35174533391008279E-02  2.38144303575062964E-02  2.41151873434158094E-02
  2.44197735406182885E-02  2.47282388771102452E-02  2.50406339761760043E-02
  2.53570101676974281E-02  2.56774194997048642E-02  2.60019147501768869E-02
  2.63305494390891626E-02  2.66633778407291307E-02  2.70004549962755136E-02
  2.73418367266568402E-02  2.76875796456886487E-02  2.80377411735101521E-02
  2.83923795503166626E-02  2.87515538503993057E-02  2.91153239965106364E-02
  2.94837507745522275E-02  2.98568958486011560E-02  3.02348217762840876E-02
  3.06175920245103823E-02  3.10052709855751472E-02  3.13979239936358970E-02
  3.17956173415886237E-02  3.21984182983439324E-02  3.26063951265136848E-02
  3.30196171005378430E-02  3.34381545252389473E-02  3.38620787548420191E-02
  3.42914622124591076E-02  3.47263784100593983E-02  3.51669019689362997E-02
  3.56131086406919206E-02  3.60650753287485165E-02  3.65228801104130474E-02
  3.69866022595009003E-02  3.74563222695464132E-02  3.79321218776132243E-02
  3.84140840887256668E-02  3.89022932009413999E-02  3.93968348310833744E-02
  3.98977959411595320E-02  4.04052648654767976E-02  4.09193313384981078E-02
  4.14400865234374957E-02  4.19676230416361901E-02  4.25020350027408428E-02
  4.30434180357109619E-02  4.35918693206755609E-02  4.41474876216774725E-02
  4.47103733203322237E-02  4.52806284504235421E-02  4.58583567334767059E-02
  4.64436636153406496E-02  4.70366563038049357E-02  4.76374438072963285E-02
  4.82461369746865001E-02  4.88628485362423357E-02  4.94876931457743918E-02
  5.01207874240006609E-02  5.07622500031891105E-02  5.14122015731073440E-02
  5.20707649283266225E-02  5.27380650169377782E-02  5.34142289907028750E-02
  5.40993862567247727E-02  5.47936685306470578E-02  5.54972098914812417E-02
  5.62101468380685823E-02  5.69326183472852604E-02  5.76647659339926399E-02
  5.84067337128506073E-02  5.91586684620155970E-02  5.99207196888025262E-02
  6.06930396973962352E-02  6.14757836586335427E-02  6.22691096820046572E-02
  6.30731788898648976E-02  6.38881554939988300E-02  6.47142068745957533E-02
  6.55515036616966945E-02  6.64002198192509691E-02  6.72605327318251955E-02
  6.81326232940682730E-02  6.90166760030674897E-02  6.99128790536132499E-02
  7.08214244365776846E-02  7.17425080404296839E-02  7.26763297560260174E-02
  7.36230935848210255E-02  7.45830077505766631E-02  7.55562848146693194E-02
  7.65431417952374543E-02  7.75438002901446821E-02  7.85584866039983759E-02
  7.95874318793604735E-02  8.06308722322395810E-02  8.16890488920348073E-02
  8.27622083461705127E-02  8.38506024894273422E-02  8.49544887782530123E-02
  8.60741303902338439E-02  8.72097963888054523E-02  8.83617618934450788E-02
  8.95303082556046931E-02  9.07157232404641883E-02  9.19183012147226780E-02
  9.31383433407506622E-02  9.43761577772392612E-02  9.56320598864940918E-02
  9.69063724487617961E-02  9.81994258837785849E-02  9.95115584797244407E-02
  1.00843116629834570E-01  1.02194455077115470E-01  1.03565937167239316E-01
  1.04957935109913733E-01  1.06370830249141859E-01  1.07805013342634620E-01
  1.09260884850615830E-01  1.10738855234329511E-01  1.12239345264734017E-01
  1.13762786341645619E-01  1.15309620823595582E-01  1.16880302368807504E-01
  1.18475296287819748E-01  1.20095079908014393E-01  1.21740142950404626E-01
  1.23410987919095577E-01  1.25108130504059917E-01  1.26832099997456066E-01
  1.28583439723990223E-01  1.30362707485686818E-01  1.32170476021774036E-01
  1.34007333484097602E-01  1.35873883928474048E-01  1.37770747822501427E-01
  1.39698562570405610E-01  1.41657983055692133E-01  1.43649682201868301E-01
  1.45674351551916798E-01  1.47732701867033328E-01  1.49825463745480919E-01
  1.51953388262111355E-01  1.54117247629079857E-01  1.56317835878497458E-01
  1.58555969567543836E-01  1.60832488507125865E-01  1.63148256514587725E-01
  1.65504162191116133E-01  1.67901119724688380E-01  1.70340069719158188E-01
  1.72821980050649804E-01  1.75347846751891467E-01  1.77918694925215143E-01
  1.80535579685089237E-01  1.83199587131012420E-01  1.85911835351690535E-01
  1.88673475461670376E-01  1.91485692670962465E-01  1.94349707388702553E-01
  1.97266776361753382E-01  2.00238193849059526E-01  2.03265292833121142E-01
  2.06349446269459724E-01  2.09492068374883711E-01  2.12694615955604571E-01
  2.15958589776275578E-01  2.19285535970774936E-01  2.22677047496092267E-01
  2.26134765630479156E-01  2.29660381516517409E-01  2.33255637750221984E-01
  2.36922330017383553E-01  2.40662308777987333E-01  2.44477480999692798E-01
  2.48369811942082352E-01  2.52341326992129134E-01  2.56394113551929925E-01
  2.60530322979721285E-01  2.64752172585284162E-01  2.69061947680452551E-01
  2.73462003685626565E-01  2.77954768293943999E-01  2.82542743693269260E-01
  2.87228508846878450E-01  2.92014721833636859E-01  2.96904122248489499E-01
  3.01899533663778585E-01  3.07003866151777438E-01  3.12220118869401431E-01
  3.17551382705825946E-01  3.23000842992487103E-01  3.28571782276068647E-01
  3.34267583154576109E-01  3.40091731176526746E-01  3.46047817803047386E-01
  3.52139543432303026E-01  3.58370720486283934E-01  3.64745276559858889E-01
  3.71267257630264136E-01  3.77940831326434690E-01  3.84770290256857994E-01
  3.91760055394772155E-01  3.98914679518691195E-01  4.06238850706586940E-01
  4.13737395880768299E-01  4.21415284401975176E-01  4.29277631709966745E-01
  4.37329703006280157E-01  4.45576916976059112E-01  4.54024849544941489E-01
  4.62679237666598187E-01  4.71545983136097746E-01  4.80631156423660943E-01
  4.89941000522978565E-01  4.99481934806938976E-01  5.09260558885824333E-01
  5.19283656459330945E-01  5.29558199153720155E-01  5.40091350335657472E-01
  5.50890468893211138E-01  5.61963112973784984E-01  5.73317043667847970E-01
  5.84960228626655310E-01  5.96900845601270658E-01  6.09147285888948287E-01
  6.21708157671931994E-01  6.34592289235856977E-01  6.47808732048884117E-01
  6.61366763684256176E-01  6.75275890567993753E-01  6.89545850532130244E-01
  7.04186615152484929E-01  7.19208391849133544E-01  7.34621625726212812E-01
  7.50437001126722403E-01  7.66665442876470205E-01  7.83318117189902519E-01
  8.00406432208812357E-01  8.17942038147709383E-01  8.35936827011970029E-01
  8.54402931856658610E-01  8.73352725552938636E-01  8.92798819027176505E-01
  9.12754058936720236E-01  9.33231524744930430E-01  9.54244525157170731E-01
  9.75806593878017381E-01  9.97931484649258294E-01  1.02063316552712324E+00
  1.04392581235656934E+00  1.06782380139842314E+00  1.09234170106803163E+00
  1.11749426274321539E+00  1.14329641059436837E+00  1.16976323039476293E+00
  1.19690995726808191E+00  1.22475196233122263E+00  1.25330473819173682E+00
  1.28258388326051320E+00  1.31260508484308080E+00  1.34338410097493743E+00
  1.37493674097013385E+00  1.40727884465582886E+00  1.44042626027053600E+00
  1.47439482100892483E+00  1.50920032020214956E+00  1.54485848512935986E+00
  1.58138494946976693E+00  1.61879522440607015E+00  1.65710466840418347E+00
  1.69632845570718693E+00  1.73648154359445073E+00  1.77757863847163011E+00
  1.81963416087461183E+00  1.86266220948881855E+00  1.90667652430602041E+00
  1.95169044906386269E+00  1.99771689313817258E+00  2.04476829308553310E+00
  2.09285657406413739E+00  2.14199311139297421E+00  2.19218869254591198E+00
  2.24345347991499278E+00  2.29579697471975885E+00  2.34922798248407316E+00
  2.40375458055226998E+00  2.45938408816490339E+00  2.51612303967210593E+00
  2.57397716152243472E+00  2.63295135372747158E+00  2.69304967656950422E+00
  2.75427534339043945E+00  2.81663072037394935E+00  2.88011733431126338E+00
  2.94473588942177944E+00  3.01048629438418125E+00  3.07736770082068922E+00
  3.14537855456638127E+00  3.21451666114635470E+00  3.28477926697560907E+00
  3.35616315788821451E+00  3.42866477669363690E+00  3.50228036154656808E+00
  3.57700610700247434E+00  3.65283834973073596E+00  3.72977378135745852E+00
  3.80780969867943186E+00  3.88694443039946780E+00  3.96718011489100686E+00
  4.04856097730605580E+00  4.12741591526108653E+00  4.19809812122976567E+00
  4.26033051421843112E+00  4.31394133877148800E+00  4.35877754779379067E+00
  4.39470012221316697E+00  4.42158499389958060E+00  4.43932450550120805E+00
  4.44782897578333269E+00  4.44702833309070833E+00  4.43687381146892168E+00
  4.41733970570829992E+00  4.38842518072833965E+00  4.35015612952998598E+00
  4.30258707257157713E+00  4.24580308986500654E+00  4.17992177532337550E+00
  4.10509520089549351E+00  4.02151187577141478E+00  3.92939868341015996E+00
  3.82902277629523446E+00  3.72069340508132473E+00  3.60476365527655451E+00
  3.48163206056185270E+00  3.35174405734660263E+00  3.21559324015265036E+00
  3.07372237182260699E+00  2.92672409631063424E+00  2.77524129486650084E+00
  2.61996701869381710E+00  2.46164392256910691E+00  2.30106311436056288E+00
  2.13906232478628411E+00  1.97652328999348770E+00  1.81436822650478691E+00
  1.65355526363492844E+00  1.49507268248938097E+00  1.33993179295832721E+00
  1.18915826054504437E+00  1.04378167322710791E+00  9.04823114638000359E-01
  7.73280483447797096E-01  6.50111269667616232E-01  5.36212466432340218E-01
  4.32397260331062461E-01  3.39368104229633150E-01  2.57685733407583162E-01
  1.87733638320564888E-01  1.29677454971839162E-01  8.34186762194246562E-02
  4.85420236138825525E-02  2.42557492788820356E-02  9.32403718145604667E-03
  1.99022122209554370E-03 -1.16358102277788519E-04  8.40607570497631541E-06
  7.13186031613644081E-07  0.00000000000000000E+00  0.00000000000000000E+00
  0.00000000000000000E+00  0.00000000000000000E+00  0.00000000000000000E+00
  0.00000000000000000E+00  0.00000000000000000E+00  0.00000000000000000E+00
  0.00000000000000000E+00  0.00000000000000000E+00  0.00000000000000000E+00
  0.00000000000000000E+00  0.00000000000000000E+00  0.00000000000000000E+00
  0.00000000000000000E+00  0.00000000000000000E+00  0.00000000000000000E+00
  0.00000000000000000E+00  0.00000000000000000E+00  0.00000000000000000E+00
  0.00000000000000000E+00  0.00000000000000000E+00  0.00000000000000000E+00
  0.00000000000000000E+00  0.00000000000000000E+00  0.00000000000000000E+00
  0.00000000000000000E+00  0.00000000000000000E+00  0.00000000000000000E+00
  0.00000000000000000E+00  0.00000000000000000E+00  0.00000000000000000E+00
  0.00000000000000000E+00  0.00000000000000000E+00  0.00000000000000000E+00
  0.00000000000000000E+00  0.00000000000000000E+00  0.00000000000000000E+00
  0.00000000000000000E+00  0.00000000000000000E+00  0.00000000000000000E+00
  0.00000000000000000E+00  0.00000000000000000E+00  0.00000000000000000E+00
  0.00000000000000000E+00  0.00000000000000000E+00  0.00000000000000000E+00
  0.00000000000000000E+00  0.00000000000000000E+00  0.00000000000000000E+00
  0.00000000000000000E+00  0.00000000000000000E+00  0.00000000000000000E+00
  0.00000000000000000E+00  0.00000000000000000E+00  0.00000000000000000E+00
  0.00000000000000000E+00  0.00000000000000000E+00  0.00000000000000000E+00
  0.00000000000000000E+00  0.00000000000000000E+00  0.00000000000000000E+00
  0.00000000000000000E+00  0.00000000000000000E+00  0.00000000000000000E+00
  0.00000000000000000E+00  0.00000000000000000E+00  0.00000000000000000E+00
  0.00000000000000000E+00  0.00000000000000000E+00  0.00000000000000000E+00
  0.00000000000000000E+00  0.00000000000000000E+00  0.00000000000000000E+00
  0.00000000000000000E+00  0.00000000000000000E+00  0.00000000000000000E+00
  0.00000000000000000E+00  0.00000000000000000E+00  0.00000000000000000E+00
  0.00000000000000000E+00  0.00000000000000000E+00  0.00000000000000000E+00
  0.00000000000000000E+00  0.00000000000000000E+00  0.00000000000000000E+00
  0.00000000000000000E+00  0.00000000000000000E+00  0.00000000000000000E+00
  0.00000000000000000E+00  0.00000000000000000E+00  0.00000000000000000E+00
  0.00000000000000000E+00  0.00000000000000000E+00  0.00000000000000000E+00
  0.00000000000000000E+00  0.00000000000000000E+00  0.00000000000000000E+00
  0.00000000000000000E+00  0.00000000000000000E+00  0.00000000000000000E+00
  0.00000000000000000E+00  0.00000000000000000E+00  0.00000000000000000E+00
  0.00000000000000000E+00  0.00000000000000000E+00  0.00000000000000000E+00
  0.00000000000000000E+00  0.00000000000000000E+00  0.00000000000000000E+00
  0.00000000000000000E+00  0.00000000000000000E+00  0.00000000000000000E+00
  0.00000000000000000E+00  0.00000000000000000E+00  0.00000000000000000E+00
  0.00000000000000000E+00  0.00000000000000000E+00  0.00000000000000000E+00
  0.00000000000000000E+00  0.00000000000000000E+00  0.00000000000000000E+00
  0.00000000000000000E+00  0.00000000000000000E+00  0.00000000000000000E+00
  0.00000000000000000E+00  0.00000000000000000E+00  0.00000000000000000E+00
  0.00000000000000000E+00  0.00000000000000000E+00  0.00000000000000000E+00
  0.00000000000000000E+00  0.00000000000000000E+00  0.00000000000000000E+00
  0.00000000000000000E+00  0.00000000000000000E+00  0.00000000000000000E+00
  0.00000000000000000E+00  0.00000000000000000E+00  0.00000000000000000E+00
  0.00000000000000000E+00  0.00000000000000000E+00  0.00000000000000000E+00
  0.00000000000000000E+00  0.00000000000000000E+00  0.00000000000000000E+00
  0.00000000000000000E+00  0.00000000000000000E+00  0.00000000000000000E+00
  0.00000000000000000E+00  0.00000000000000000E+00  0.00000000000000000E+00
  0.00000000000000000E+00  0.00000000000000000E+00  0.00000000000000000E+00
  0.00000000000000000E+00  0.00000000000000000E+00  0.00000000000000000E+00
  0.00000000000000000E+00  0.00000000000000000E+00  0.00000000000000000E+00
  0.00000000000000000E+00  0.00000000000000000E+00  0.00000000000000000E+00
  0.00000000000000000E+00  0.00000000000000000E+00  0.00000000000000000E+00
  0.00000000000000000E+00  0.00000000000000000E+00  0.00000000000000000E+00
  0.00000000000000000E+00  0.00000000000000000E+00  0.00000000000000000E+00
  0.00000000000000000E+00  0.00000000000000000E+00  0.00000000000000000E+00
  0.00000000000000000E+00  0.00000000000000000E+00  0.00000000000000000E+00
  0.00000000000000000E+00  0.00000000000000000E+00  0.00000000000000000E+00
  0.00000000000000000E+00  0.00000000000000000E+00  0.00000000000000000E+00
  0.00000000000000000E+00  0.00000000000000000E+00  0.00000000000000000E+00
  0.00000000000000000E+00  0.00000000000000000E+00  0.00000000000000000E+00
  0.00000000000000000E+00  0.00000000000000000E+00  0.00000000000000000E+00
  0.00000000000000000E+00  0.00000000000000000E+00  0.00000000000000000E+00
  0.00000000000000000E+00  0.00000000000000000E+00  0.00000000000000000E+00
  0.00000000000000000E+00  0.00000000000000000E+00  0.00000000000000000E+00
  0.00000000000000000E+00  0.00000000000000000E+00  0.00000000000000000E+00
  0.00000000000000000E+00  0.00000000000000000E+00  0.00000000000000000E+00
  0.00000000000000000E+00  0.00000000000000000E+00  0.00000000000000000E+00
  0.00000000000000000E+00  0.00000000000000000E+00  0.00000000000000000E+00
                              </PP_BETA.1>
 <PP_BETA.2 type="real" size="   777" angular_momentum="0" columns="3" cutoff_radius_index="   562" norm_conserving_radius="    0.994950" label= "0S">
  3.48851355451593919E-03  3.53239113016430529E-03  3.57682052136156859E-03
  3.62180866540886583E-03  3.66736258672708398E-03  3.71348939794729268E-03
  3.76019630101471309E-03  3.80749058830635563E-03  3.85537964376249766E-03
  3.90387094403216433E-03  3.95297205963275004E-03  4.00269065612401075E-03
  4.05303449529655687E-03  4.10401143637502235E-03  4.15562943723610679E-03
  4.20789655564160134E-03  4.26082095048668438E-03  4.31441088306359390E-03
  4.36867471834087757E-03  4.42362092625841682E-03  4.47925808303831306E-03
  4.53559487251196936E-03  4.59264008746348117E-03  4.65040263098951464E-03
  4.70889151787590512E-03  4.76811587599110936E-03  4.82808494769681757E-03
  4.88880809127582860E-03  4.95029478237743546E-03  5.01255461548048582E-03
  5.07559730537430684E-03  5.13943268865778898E-03  5.20407072525674256E-03
  5.26952149995978461E-03  5.33579522397296512E-03  5.40290223649331994E-03
  5.47085300630163838E-03  5.53965813337460242E-03  5.60932835051643295E-03
  5.67987452501038988E-03  5.75130766029029617E-03  5.82363889763240234E-03
  5.89687951786775025E-03  5.97104094311514538E-03  6.04613473853512183E-03
  6.12217261410504584E-03  6.19916642641567608E-03  6.27712818048931174E-03
  6.35607003161986657E-03  6.43600428723517526E-03  6.51694340878158224E-03
  6.59890001363091540E-03  6.68188687701032433E-03  6.76591693395538034E-03
  6.85100328128656483E-03  6.93715917960915744E-03  7.02439805533704165E-03
  7.11273350274059437E-03  7.20217928601863192E-03  7.29274934139500369E-03
  7.38445777924017638E-03  7.47731888621802968E-03  7.57134712745765118E-03
  7.66655714875078605E-03  7.76296377877515060E-03  7.86058203134377617E-03
  7.95942710768076517E-03  8.05951439872362556E-03  8.16085948745247022E-03
  8.26347815124651650E-03  8.36738636426774887E-03  8.47260029987205801E-03
  8.57913633304845449E-03  8.68701104288657419E-03  8.79624121507246309E-03
  8.90684384441276997E-03  9.01883613738815523E-03  9.13223551473615024E-03
  9.24705961406295518E-03  9.36332629248509164E-03  9.48105362930072235E-03
  9.60025992869122623E-03  9.72096372245367761E-03  9.84318377276386519E-03
  9.96693907497012838E-03  1.00922488604181654E-02  1.02191325993070264E-02
  1.03476100035772879E-02  1.04777010298312996E-02  1.06094258822849279E-02
  1.07428050157518176E-02  1.08778591386606144E-02  1.10146092161042750E-02
  1.11530764729223190E-02  1.12932823968178719E-02  1.14352487415067851E-02
  1.15789975298989743E-02  1.17245510573166217E-02  1.18719318947455941E-02
  1.20211628921183152E-02  1.21722671816335455E-02  1.23252681811109356E-02
  1.24801895973795096E-02  1.26370554297001343E-02  1.27958899732232689E-02
  1.29567178224836120E-02  1.31195638749282886E-02  1.32844533344801327E-02
  1.34514117151361291E-02  1.36204648446039932E-02  1.37916388679723105E-02
  1.39649602514141102E-02  1.41404557859308843E-02  1.43181525911296095E-02
  1.44980781190351907E-02  1.46802601579401060E-02  1.48647268362874663E-02
  1.50515066265925722E-02  1.52406283493998849E-02  1.54321211772698256E-02
  1.56260146388109110E-02  1.58223386227403368E-02  1.60211233819787836E-02
  1.62223995377859115E-02  1.64261980839261572E-02  1.66325503908717198E-02
  1.68414882100392550E-02  1.70530436780581308E-02  1.72672493210728091E-02
  1.74841380590895386E-02  1.77037432103376233E-02  1.79260984956763625E-02
  1.81512380430332958E-02  1.83791963918663766E-02  1.86100084976691810E-02
  1.88437097364961524E-02  1.90803359095233806E-02  1.93199232476388046E-02
  1.95625084160594431E-02  1.98081285189770293E-02  2.00568211042321393E-02
  2.03086241680142769E-02  2.05635761595863546E-02  2.08217159860343698E-02
  2.10830830170395250E-02  2.13477170896785653E-02  2.16156585132350927E-02
  2.18869480740408878E-02  2.21616270403303395E-02  2.24397371671108542E-02
  2.27213207010585824E-02  2.30064203854175829E-02  2.32950794649145754E-02
  2.35873416906920430E-02  2.38832513252399369E-02  2.41828531473447239E-02
  2.44861924570363189E-02  2.47933150805412679E-02  2.51042673752389714E-02
  2.54190962346121443E-02  2.57378490932004302E-02  2.60605739315412401E-02
  2.63873192811017697E-02  2.67181342292088092E-02  2.70530684239514221E-02
  2.73921720790748918E-02  2.77354959788507112E-02  2.80830914829166937E-02
  2.84350105311055902E-02  2.87913056482155365E-02  2.91520299487741802E-02
  2.95172371417486076E-02  2.98869815351965433E-02  3.02613180409118145E-02
  3.06403021789640739E-02  3.10239900822175292E-02  3.14124385007795159E-02
  3.18057048063688577E-02  3.22038469966210300E-02  3.26069236993097242E-02
  3.30149941764869628E-02  3.34281183285212516E-02  3.38463566980454350E-02
  3.42697704737951261E-02  3.46984214943361069E-02  3.51323722516718867E-02
  3.55716858947153561E-02  3.60164262326267068E-02  3.64666577380211160E-02
  3.69224455499971363E-02  3.73838554770161147E-02  3.78509539996087774E-02
  3.83238082728944024E-02  3.88024861289082493E-02  3.92870560787166243E-02
  3.97775873143320496E-02  4.02741497103762877E-02  4.07768138255331161E-02
  4.12856509037159911E-02  4.18007328749864446E-02  4.23221323561952037E-02
  4.28499226513056539E-02  4.33841777514334601E-02  4.39249723345407003E-02
  4.44723817647930189E-02  4.50264820915472416E-02  4.55873500479829635E-02
  4.61550630493152772E-02  4.67296991905940193E-02  4.73113372440713137E-02
  4.79000566561242416E-02  4.84959375436710555E-02  4.90990606900992971E-02
  4.97095075406763856E-02  5.03273601974020685E-02  5.09527014132885800E-02
  5.15856145860134271E-02  5.22261837510112556E-02  5.28744935738123811E-02
  5.35306293417711562E-02  5.41946769550513616E-02  5.48667229168440726E-02
  5.55468543228154754E-02  5.62351588497435120E-02  5.69317247432830353E-02
  5.76366408048476220E-02  5.83499963775581457E-02  5.90718813312198915E-02
  5.98023860462852247E-02  6.05416013967615962E-02  6.12896187319962246E-02
  6.20465298573611365E-02  6.28124270136565660E-02  6.35874028553701925E-02
  6.43715504275300943E-02  6.51649631412617447E-02  6.59677347479224047E-02
  6.67799593117513191E-02  6.76017311809760657E-02  6.84331449573413464E-02
  6.92742954639772313E-02  7.01252777114867304E-02  7.09861868622937153E-02
  7.18571181930710984E-02  7.27381670552171150E-02  7.36294288333008834E-02
  7.45309989014112939E-02  7.54429725772505222E-02  7.63654450740173102E-02
  7.72985114497940357E-02  7.82422665545813856E-02  7.91968049746190755E-02
  8.01622209741611053E-02  8.11386084343488218E-02  8.21260607892292521E-02
  8.31246709587847021E-02  8.41345312787686733E-02  8.51557334273486399E-02
  8.61883683482895374E-02  8.72325261706940469E-02  8.82882961250243542E-02
  8.93557664553835118E-02  9.04350243277841914E-02  9.15261557343710896E-02
  9.26292453933539872E-02  9.37443766445234666E-02  9.48716313402126893E-02
  9.60110897313823236E-02  9.71628303488938916E-02  9.83269298795077518E-02
  9.95034630366387757E-02  1.00692502425519331E-01  1.01894118402571260E-01
  1.03108378928965960E-01  1.04335349417738157E-01  1.05575092574678217E-01
  1.06827668232503309E-01  1.08093133177978432E-01  1.09371540972029238E-01
  1.10662941762352710E-01  1.11967382088107664E-01  1.13284904676999851E-01
  1.14615548233581291E-01  1.15959347219276407E-01  1.17316331623340292E-01
  1.18686526724484945E-01  1.20069952843041158E-01  1.21466625083111790E-01
  1.22876553064268812E-01  1.24299740642781070E-01  1.25736185621662222E-01
  1.27185879449102451E-01  1.28648806905180352E-01  1.30124945776329520E-01
  1.31614266516674183E-01  1.33116731896451540E-01  1.34632296636850779E-01
  1.36160907030233064E-01  1.37702500545979628E-01  1.39257005421362129E-01
  1.40824340236135853E-01  1.42404413471206026E-01  1.43997123050551956E-01
  1.45602355865580013E-01  1.47219987281221820E-01  1.48849880623829561E-01
  1.50491886649676693E-01  1.52145842993300806E-01  1.53811573595239087E-01
  1.55488888108894080E-01  1.57177581285076723E-01  1.58877432333552421E-01
  1.60588204261321948E-01  1.62309643187067781E-01  1.64041477629734450E-01
  1.65783417771494634E-01  1.67535154694041427E-01  1.69296359587642081E-01
  1.71066682931048208E-01  1.72845753642180106E-01  1.74633178198622285E-01
  1.76428539727290251E-01  1.78231397061128727E-01  1.80041283762606058E-01
  1.81857707113288969E-01  1.83680147068489508E-01  1.85508055174897712E-01
  1.87340853450816414E-01  1.89177933227919676E-01  1.91018653953903716E-01
  1.92862341954091826E-01  1.94708289150543834E-01  1.96555751738354989E-01
  1.98403948817614556E-01  2.00252060980501162E-01  2.02099228850882551E-01
  2.03944551575608174E-01  2.05787085266890324E-01  2.07625841394409261E-01
  2.09459785125954673E-01  2.11287833614205667E-01  2.13108854229168004E-01
  2.14921662735018809E-01  2.16725021410419910E-01  2.18517637111146634E-01
  2.20298159272334315E-01  2.22065177849833484E-01  2.23817221199947736E-01
  2.25552753896062441E-01  2.27270174481423004E-01  2.28967813156473465E-01
  2.30643929398201303E-01  2.32296709512454402E-01  2.33924264117653685E-01
  2.35524625558871353E-01  2.37095745251978962E-01  2.38635490955905666E-01
  2.40141643971629043E-01  2.41611896269338849E-01  2.43043847542086078E-01
  2.44435002185903361E-01  2.45782766206693870E-01  2.47084444052564162E-01
  2.48337235370646447E-01  2.49538231690918433E-01  2.50684413036624032E-01
  2.51772644461684791E-01  2.52799672516689389E-01  2.53762121644851790E-01
  2.54656490505957900E-01  2.55479148233191122E-01  2.56226330624457599E-01
  2.56894136270037043E-01  2.57478522619902783E-01  2.57975301993569273E-01
  2.58380137537655541E-01  2.58688539130316308E-01  2.58895859241539628E-01
  2.58997288753904487E-01  2.58987852749093750E-01  2.58862406267093004E-01
  2.58615630044586320E-01  2.58242026243022893E-01  2.57735914171327518E-01
  2.57091426012895363E-01  2.56302502570597557E-01  2.55362889039945917E-01
  2.54266130823445125E-01  2.53005569399563535E-01  2.51574338261867259E-01
  2.49965358946029365E-01  2.48171337160988686E-01  2.46184759040047191E-01
  2.43997887538711045E-01  2.41602759000407674E-01  2.38991179913642798E-01
  2.36154723888519963E-01  2.33084728879685871E-01  2.29772294688153356E-01
  2.26208280776909409E-01  2.22383304431483270E-01  2.18287739303438866E-01
  2.13911714382875345E-01  2.09245113442633773E-01  2.04277575001181849E-01
  1.98998492855457287E-01  1.93397017238482571E-01  1.87462056659207427E-01
  1.81182280489089964E-01  1.74546122364345524E-01  1.67541784465391502E-01
  1.60157242756313961E-01  1.52380253266595572E-01  1.44198359500563617E-01
  1.35598901066471517E-01  1.26569023623590599E-01  1.17095690251409631E-01
  1.07165694352698807E-01  9.67656742079716220E-02  8.58821293088531390E-02
  7.45014386056971900E-02  6.26098807970219273E-02  5.01936568232882463E-02
  3.72389147220965194E-02  2.37317770118743963E-02  9.65837078189188576E-03
 -4.99513932358969497E-03 -2.02425150274340229E-02 -3.60974050385856685E-02
 -5.25733021454019567E-02 -6.96834965501162279E-02 -8.74410251947554396E-02
 -1.05858616816142614E-01 -1.24948632473957794E-01 -1.44723001248805855E-01
 -1.65193150808236128E-01 -1.86369932525376952E-01 -2.08263540817127502E-01
 -2.30883426351672305E-01 -2.54238202760297127E-01 -2.78335546468575057E-01
 -3.03182089247506337E-01 -3.28783303065380006E-01 -3.55143376803147504E-01
 -3.82265084378254238E-01 -4.10149643795163055E-01 -4.38796566640679397E-01
 -4.68203497518799749E-01 -4.98366042876568438E-01 -5.29277588674696098E-01
 -5.60929106336796934E-01 -5.93308946388099723E-01 -6.26402619178143327E-01
 -6.60192562064543353E-01 -6.94657892417345879E-01 -7.29774145788724682E-01
 -7.65512998577425052E-01 -8.01841974505509980E-01 -8.38724134211587646E-01
 -8.76117747257957435E-01 -9.13975945837308235E-01 -9.52246359456381697E-01
 -9.90870729910883985E-01 -1.02978450581438241E+00 -1.06891641597022646E+00
 -1.10818802089522461E+00 -1.14751324181336711E+00 -1.18679786646080765E+00
 -1.22593903106884139E+00 -1.26482467792974740E+00 -1.30333298799040476E+00
 -1.34133178797178965E+00 -1.37867793157242846E+00 -1.41521665438695354E+00
 -1.45078090225218603E+00 -1.48519063283065300E+00 -1.51825209035102326E+00
 -1.54975705354888249E+00 -1.57948205699211197E+00 -1.60718758613049917E+00
 -1.63261724662188579E+00 -1.65549690863379317E+00 -1.67553382706899856E+00
 -1.69241573891311559E+00 -1.70580993917346113E+00 -1.71536233717995401E+00
 -1.72069649535052127E+00 -1.72141265289131540E+00 -1.71708673729814199E+00
 -1.70726936696559095E+00 -1.69148484868396354E+00 -1.66923017432204523E+00
 -1.63997402155532090E+00 -1.60315576410466321E+00 -1.55818449760731359E+00
 -1.50443808794684886E+00 -1.44126224962714033E+00 -1.36796966258886576E+00
 -1.28383913673388106E+00 -1.18811483429650111E+00 -1.08000555996619485E+00
 -9.58684107205176828E-01 -8.23286275793254307E-01 -6.72903259610522109E-01
 -5.06471056672096909E-01 -3.33756234431615506E-01 -1.70608638116494404E-01
 -1.74032419940738647E-02  1.25778878575382114E-01  2.58896361925623431E-01
  3.81931196704873521E-01  4.94888438301266109E-01  5.97797268075843324E-01
  6.90712133895417302E-01  7.73713856880953066E-01  8.46910683187884872E-01
  9.10439266065089736E-01  9.64465562719278857E-01  1.00918562917912924E+00
  1.04482629494011103E+00  1.07164569773164353E+00  1.08993365730263037E+00
  1.10001186569036125E+00  1.10223387004999407E+00  1.09698482280253695E+00
  1.08468097263735719E+00  1.06576886894258860E+00  1.04072425134260116E+00
  1.01005059547615961E+00  9.74277286001447806E-01  9.33957388084963980E-01
  8.89664989479101886E-01  8.41992086842021759E-01  7.91544992346654430E-01
  7.38940240052731401E-01  6.84799976171050706E-01  6.29746823479461537E-01
  5.74398218031338725E-01  5.19360226249064749E-01  4.65220862891095377E-01
  4.12542945647720982E-01  3.61856540752152678E-01  3.13651076555061414E-01
  2.68367229158392451E-01  2.26388716679784358E-01  1.88034177384930334E-01
  1.53549352761031294E-01  1.23099850733192420E-01  9.67648279308264830E-02
  7.45320046617357485E-02  5.62945137153155820E-02  4.18501862074874761E-02
  3.09039965666246877E-02  2.30745269280856861E-02  1.79054717942664990E-02
  1.48833970789719345E-02  1.34633272117326251E-02  1.31064899381776595E-02
  1.33759122718702071E-02  1.47844651717041579E-02 -5.93865251666197600E-04
 -5.03845571957342041E-05  0.00000000000000000E+00  0.00000000000000000E+00
  0.00000000000000000E+00  0.00000000000000000E+00  0.00000000000000000E+00
  0.00000000000000000E+00  0.00000000000000000E+00  0.00000000000000000E+00
  0.00000000000000000E+00  0.00000000000000000E+00  0.00000000000000000E+00
  0.00000000000000000E+00  0.00000000000000000E+00  0.00000000000000000E+00
  0.00000000000000000E+00  0.00000000000000000E+00  0.00000000000000000E+00
  0.00000000000000000E+00  0.00000000000000000E+00  0.00000000000000000E+00
  0.00000000000000000E+00  0.00000000000000000E+00  0.00000000000000000E+00
  0.00000000000000000E+00  0.00000000000000000E+00  0.00000000000000000E+00
  0.00000000000000000E+00  0.00000000000000000E+00  0.00000000000000000E+00
  0.00000000000000000E+00  0.00000000000000000E+00  0.00000000000000000E+00
  0.00000000000000000E+00  0.00000000000000000E+00  0.00000000000000000E+00
  0.00000000000000000E+00  0.00000000000000000E+00  0.00000000000000000E+00
  0.00000000000000000E+00  0.00000000000000000E+00  0.00000000000000000E+00
  0.00000000000000000E+00  0.00000000000000000E+00  0.00000000000000000E+00
  0.00000000000000000E+00  0.00000000000000000E+00  0.00000000000000000E+00
  0.00000000000000000E+00  0.00000000000000000E+00  0.00000000000000000E+00
  0.00000000000000000E+00  0.00000000000000000E+00  0.00000000000000000E+00
  0.00000000000000000E+00  0.00000000000000000E+00  0.00000000000000000E+00
  0.00000000000000000E+00  0.00000000000000000E+00  0.00000000000000000E+00
  0.00000000000000000E+00  0.00000000000000000E+00  0.00000000000000000E+00
  0.00000000000000000E+00  0.00000000000000000E+00  0.00000000000000000E+00
  0.00000000000000000E+00  0.00000000000000000E+00  0.00000000000000000E+00
  0.00000000000000000E+00  0.00000000000000000E+00  0.00000000000000000E+00
  0.00000000000000000E+00  0.00000000000000000E+00  0.00000000000000000E+00
  0.00000000000000000E+00  0.00000000000000000E+00  0.00000000000000000E+00
  0.00000000000000000E+00  0.00000000000000000E+00  0.00000000000000000E+00
  0.00000000000000000E+00  0.00000000000000000E+00  0.00000000000000000E+00
  0.00000000000000000E+00  0.00000000000000000E+00  0.00000000000000000E+00
  0.00000000000000000E+00  0.00000000000000000E+00  0.00000000000000000E+00
  0.00000000000000000E+00  0.00000000000000000E+00  0.00000000000000000E+00
  0.00000000000000000E+00  0.00000000000000000E+00  0.00000000000000000E+00
  0.00000000000000000E+00  0.00000000000000000E+00  0.00000000000000000E+00
  0.00000000000000000E+00  0.00000000000000000E+00  0.00000000000000000E+00
  0.00000000000000000E+00  0.00000000000000000E+00  0.00000000000000000E+00
  0.00000000000000000E+00  0.00000000000000000E+00  0.00000000000000000E+00
  0.00000000000000000E+00  0.00000000000000000E+00  0.00000000000000000E+00
  0.00000000000000000E+00  0.00000000000000000E+00  0.00000000000000000E+00
  0.00000000000000000E+00  0.00000000000000000E+00  0.00000000000000000E+00
  0.00000000000000000E+00  0.00000000000000000E+00  0.00000000000000000E+00
  0.00000000000000000E+00  0.00000000000000000E+00  0.00000000000000000E+00
  0.00000000000000000E+00  0.00000000000000000E+00  0.00000000000000000E+00
  0.00000000000000000E+00  0.00000000000000000E+00  0.00000000000000000E+00
  0.00000000000000000E+00  0.00000000000000000E+00  0.00000000000000000E+00
  0.00000000000000000E+00  0.00000000000000000E+00  0.00000000000000000E+00
  0.00000000000000000E+00  0.00000000000000000E+00  0.00000000000000000E+00
  0.00000000000000000E+00  0.00000000000000000E+00  0.00000000000000000E+00
  0.00000000000000000E+00  0.00000000000000000E+00  0.00000000000000000E+00
  0.00000000000000000E+00  0.00000000000000000E+00  0.00000000000000000E+00
  0.00000000000000000E+00  0.00000000000000000E+00  0.00000000000000000E+00
  0.00000000000000000E+00  0.00000000000000000E+00  0.00000000000000000E+00
  0.00000000000000000E+00  0.00000000000000000E+00  0.00000000000000000E+00
  0.00000000000000000E+00  0.00000000000000000E+00  0.00000000000000000E+00
  0.00000000000000000E+00  0.00000000000000000E+00  0.00000000000000000E+00
  0.00000000000000000E+00  0.00000000000000000E+00  0.00000000000000000E+00
  0.00000000000000000E+00  0.00000000000000000E+00  0.00000000000000000E+00
  0.00000000000000000E+00  0.00000000000000000E+00  0.00000000000000000E+00
  0.00000000000000000E+00  0.00000000000000000E+00  0.00000000000000000E+00
  0.00000000000000000E+00  0.00000000000000000E+00  0.00000000000000000E+00
  0.00000000000000000E+00  0.00000000000000000E+00  0.00000000000000000E+00
  0.00000000000000000E+00  0.00000000000000000E+00  0.00000000000000000E+00
  0.00000000000000000E+00  0.00000000000000000E+00  0.00000000000000000E+00
  0.00000000000000000E+00  0.00000000000000000E+00  0.00000000000000000E+00
  0.00000000000000000E+00  0.00000000000000000E+00  0.00000000000000000E+00
  0.00000000000000000E+00  0.00000000000000000E+00  0.00000000000000000E+00
  0.00000000000000000E+00  0.00000000000000000E+00  0.00000000000000000E+00
  0.00000000000000000E+00  0.00000000000000000E+00  0.00000000000000000E+00
  0.00000000000000000E+00  0.00000000000000000E+00  0.00000000000000000E+00
  0.00000000000000000E+00  0.00000000000000000E+00  0.00000000000000000E+00
  0.00000000000000000E+00  0.00000000000000000E+00  0.00000000000000000E+00
  0.00000000000000000E+00  0.00000000000000000E+00  0.00000000000000000E+00
  0.00000000000000000E+00  0.00000000000000000E+00  0.00000000000000000E+00
                              </PP_BETA.2>
 <PP_BETA.3 type="real" size="   777" angular_momentum="1" columns="3" cutoff_radius_index="   562" norm_conserving_radius="    0.994950" label= "0P">
 -2.37428502022453723E-04 -2.43439005879751111E-04 -2.49601664967377126E-04
 -2.55920331042222636E-04 -2.62398953364209901E-04 -2.69041581165261072E-04
 -2.75852366180779479E-04 -2.82835565243948488E-04 -2.89995542944452179E-04
 -2.97336774357624830E-04 -3.04863847841827234E-04 -3.12581467904808358E-04
 -3.20494458142859910E-04 -3.28607764257270445E-04 -3.36926457145138292E-04
 -3.45455736066179733E-04 -3.54200931893247726E-04 -3.63167510445114902E-04
 -3.72361075900543373E-04 -3.81787374299754571E-04 -3.91452297137802243E-04
 -4.01361885045516619E-04 -4.11522331562086375E-04 -4.21939987008453944E-04
 -4.32621362455806746E-04 -4.43573133791274775E-04 -4.54802145892579078E-04
 -4.66315416906210262E-04 -4.78120142629469389E-04 -4.90223701009941310E-04
 -5.02633656757003650E-04 -5.15357766064929949E-04 -5.28403981463019569E-04
 -5.41780456785642900E-04 -5.55495552263228780E-04 -5.69557839750855057E-04
 -5.83976108083619576E-04 -5.98759368565271108E-04 -6.13916860604386957E-04
 -6.29458057484060863E-04 -6.45392672281169485E-04 -6.61730663939908391E-04
 -6.78482243488614254E-04 -6.95657880424733251E-04 -7.13268309256043275E-04
 -7.31324536204177623E-04 -7.49837846088264280E-04 -7.68819809369361584E-04
 -7.88282289384197661E-04 -8.08237449757470260E-04 -8.28697761997799587E-04
 -8.49676013297127018E-04 -8.71185314511945040E-04 -8.93239108362279210E-04
 -9.15851177825840394E-04 -9.39035654750706409E-04 -9.62807028686961212E-04
 -9.87180155933768764E-04 -1.01217026882917437E-03 -1.03779298525706284E-03
 -1.06406431841455122E-03 -1.09100068680649271E-03 -1.11861892451139673E-03
 -1.14693629169093192E-03 -1.17597048537850793E-03 -1.20573965053060329E-03
 -1.23626239136500173E-03 -1.26755778298100327E-03 -1.29964538327645386E-03
 -1.33254524516476726E-03 -1.36627792910166577E-03 -1.40086451592821739E-03
 -1.43632662003990476E-03 -1.47268640288630436E-03 -1.50996658681676766E-03
 -1.54819046926897965E-03 -1.58738193732710538E-03 -1.62756548263356796E-03
 -1.66876621669658550E-03 -1.71100988656247197E-03 -1.75432289090935757E-03
 -1.79873229652207809E-03 -1.84426585520763311E-03 -1.89095202111952540E-03
 -1.93881996853098376E-03 -1.98789961005713459E-03 -2.03822161532744156E-03
 -2.08981743014999147E-03 -2.14271929613597638E-03 -2.19696027084262564E-03
 -2.25257424841249958E-03 -2.30959598073346905E-03 -2.36806109914832180E-03
 -2.42800613669109889E-03 -2.48946855090494091E-03 -2.55248674723018145E-03
 -2.61710010297360124E-03 -2.68334899190365243E-03 -2.75127480945080213E-03
 -2.82091999854659683E-03 -2.89232807612903016E-03 -2.96554366030092305E-03
 -3.04061249818080546E-03 -3.11758149446685149E-03 -3.19649874070797833E-03
 -3.27741354531923537E-03 -3.36037646436528319E-03 -3.44543933310993526E-03
 -3.53265529836161579E-03 -3.62207885164879872E-03 -3.71376586322559642E-03
 -3.80777361692956513E-03 -3.90416084593119819E-03 -4.00298776938551315E-03
 -4.10431613000330694E-03 -4.20820923256944729E-03 -4.31473198344411914E-03
 -4.42395093105680745E-03 -4.53593430741960468E-03 -4.65075207068731643E-03
 -4.76847594880029039E-03 -4.88917948422528011E-03 -5.01293807982430839E-03
 -5.13982904587828582E-03 -5.26993164830289861E-03 -5.40332715808176933E-03
 -5.54009890194488101E-03 -5.68033231432565986E-03 -5.82411499062690258E-03
 -5.97153674183387856E-03 -6.12268965050618251E-03 -6.27766812818011423E-03
 -6.43656897421890969E-03 -6.59949143614730824E-03 -6.76653727150646964E-03
 -6.93781081127009709E-03 -7.11341902486060332E-03 -7.29347158680314963E-03
 -7.47808094505989385E-03 -7.66736239108669389E-03 -7.86143413165542489E-03
 -8.06041736248621320E-03 -8.26443634373500921E-03 -8.47361847738273624E-03
 -8.68809438657490440E-03 -8.90799799695920005E-03 -9.13346662007137947E-03
 -9.36464103882098282E-03 -9.60166559512935780E-03 -9.84468827977413342E-03
 -1.00938608244950673E-02 -1.03493387964177751E-02 -1.06112816948539194E-02
 -1.08798530505365386E-02 -1.11552205273517512E-02 -1.14375560266295924E-02
 -1.17270357940569073E-02 -1.20238405292788630E-02 -1.23281554982555223E-02
 -1.26401706484425506E-02 -1.29600807268663576E-02 -1.32880854011658851E-02
 -1.36243893836750229E-02 -1.39692025586214026E-02 -1.43227401125191941E-02
 -1.46852226678356110E-02 -1.50568764200120254E-02 -1.54379332779238324E-02
 -1.58286310078642536E-02 -1.62292133811395810E-02 -1.66399303253658912E-02
 -1.70610380795584403E-02 -1.74927993531087886E-02 -1.79354834887440438E-02
 -1.83893666295701051E-02 -1.88547318902990250E-02 -1.93318695327623948E-02
 -1.98210771458189258E-02 -2.03226598297636014E-02 -2.08369303853501303E-02
 -2.13642095075409974E-02 -2.19048259840971225E-02 -2.24591168991322837E-02
 -2.30274278417600918E-02 -2.36101131199479043E-02 -2.42075359797109674E-02
 -2.48200688297767758E-02 -2.54480934718475660E-02 -2.60920013366055144E-02
 -2.67521937256179933E-02 -2.74290820592645139E-02 -2.81230881308382613E-02
 -2.88346443669632059E-02 -2.95641940944880999E-02 -3.03121918140538786E-02
 -3.10791034804519146E-02 -3.18654067899419094E-02 -3.26715914746765965E-02
 -3.34981596044858498E-02 -3.43456258961581037E-02 -3.52145180303713029E-02
 -3.61053769764311527E-02 -3.70187573251313101E-02 -3.79552276298673330E-02
 -3.89153707561413140E-02 -3.98997842396669536E-02 -4.09090806534604667E-02
 -4.19438879839530987E-02 -4.30048500162827710E-02 -4.40926267292038668E-02
 -4.52078946997880732E-02 -4.63513475179365073E-02 -4.75236962111505595E-02
 -4.87256696799146655E-02 -4.99580151435643494E-02 -5.12214985971446157E-02
 -5.25169052797045954E-02 -5.38450401537837811E-02 -5.52067283967509481E-02
 -5.66028159043917498E-02 -5.80341698064093456E-02 -5.95016789948428701E-02
 -6.10062546654122281E-02 -6.25488308716702912E-02 -6.41303650932429636E-02
 -6.57518388174624241E-02 -6.74142581352121101E-02 -6.91186543516290330E-02
 -7.08660846109237380E-02 -7.26576325371403042E-02 -7.44944088898327889E-02
 -7.63775522358097897E-02 -7.83082296373709547E-02 -8.02876373564457152E-02
 -8.23170015767204638E-02 -8.43975791419816768E-02 -8.65306583133241408E-02
 -8.87175595436015263E-02 -9.09596362710678175E-02 -9.32582757317250988E-02
 -9.56148997909980342E-02 -9.80309657956746350E-02 -1.00507967445390103E-01
 -1.03047435685850300E-01 -1.05650939621996162E-01 -1.08320087454253214E-01
 -1.11056527435312552E-01 -1.13861948851223929E-01 -1.16738083023775766E-01
 -1.19686704338327163E-01 -1.22709631293840368E-01 -1.25808727579384022E-01
 -1.28985903173977512E-01 -1.32243115473714978E-01 -1.35582370443699307E-01
 -1.39005723797733211E-01 -1.42515282204755900E-01 -1.46113204523057510E-01
 -1.49801703063691949E-01 -1.53583044881316355E-01 -1.57459553096917837E-01
 -1.61433608247774057E-01 -1.65507649671381124E-01 -1.69684176917715035E-01
 -1.73965751195753415E-01 -1.78354996851515013E-01 -1.82854602878791822E-01
 -1.87467324465818902E-01 -1.92195984573067524E-01 -1.97043475549827068E-01
 -2.02012760783619849E-01 -2.07106876387056910E-01 -2.12328932922980801E-01
 -2.17682117163972844E-01 -2.23169693894252813E-01 -2.28795007747547657E-01
 -2.34561485085010152E-01 -2.40472635915837230E-01 -2.46532055854683213E-01
 -2.52743428124196368E-01 -2.59110525599038410E-01 -2.65637212889957064E-01
 -2.72327448475905010E-01 -2.79185286877193517E-01 -2.86214880872637911E-01
 -2.93420483766037576E-01 -3.00806451694564547E-01 -3.08377245984356785E-01
 -3.16137435556516411E-01 -3.24091699376417020E-01 -3.32244828952505955E-01
 -3.40601730886866461E-01 -3.49167429470687685E-01 -3.57947069330345258E-01
 -3.66945918127187076E-01 -3.76169369303808621E-01 -3.85622944880832097E-01
 -3.95312298309677790E-01 -4.05243217373571940E-01 -4.15421627137904204E-01
 -4.25853592958285843E-01 -4.36545323538973462E-01 -4.47503174039770690E-01
 -4.58733649239305319E-01 -4.70243406752137660E-01 -4.82039260294493344E-01
 -4.94128183001265819E-01 -5.06517310800734255E-01 -5.19213945838305158E-01
 -5.32225559947924087E-01 -5.45559798177900901E-01 -5.59224482369391707E-01
 -5.73227614781355976E-01 -5.87577381761066442E-01 -6.02282157468634116E-01
 -6.17350507647863256E-01 -6.32791193440121691E-01 -6.48613175239647899E-01
 -6.64825616598676894E-01 -6.81437888172111261E-01 -6.98459571699349357E-01
 -7.15900464020236660E-01 -7.33770581133267541E-01 -7.52080162285193143E-01
 -7.70839674088813265E-01 -7.90059814663984117E-01 -8.09751517808414034E-01
 -8.29925957190373875E-01 -8.50594550555825224E-01 -8.71768963945733666E-01
 -8.93461115922191462E-01 -9.15683181805344804E-01 -9.38447597905824327E-01
 -9.61767065749997263E-01 -9.85654556288802275E-01 -1.01012331409420408E+00
 -1.03518686153281680E+00 -1.06085900290468138E+00 -1.08715382854172282E+00
 -1.11408571885416574E+00 -1.14166934832870925E+00 -1.16991968946130731E+00
 -1.19885201661237928E+00 -1.22848190977601179E+00 -1.25882525824755032E+00
 -1.28989826418973230E+00 -1.32171744607973252E+00 -1.35429964201865460E+00
 -1.38766201289263047E+00 -1.42182204536700052E+00 -1.45679755470132144E+00
 -1.49260668737691149E+00 -1.52926792350590168E+00 -1.56680007900677376E+00
 -1.60522230752685724E+00 -1.64455410208543351E+00 -1.68481529642614558E+00
 -1.72602606605398301E+00 -1.76820692892295139E+00 -1.81137874575234759E+00
 -1.85556271994366706E+00 -1.90078039706377444E+00 -1.94705366387274803E+00
 -1.99440474686620739E+00 -2.04285621028614672E+00 -2.09243095356858877E+00
 -2.14315220819025143E+00 -2.19504353387209727E+00 -2.24812881409394283E+00
 -2.30243225089370851E+00 -2.35797835888847773E+00 -2.41479195846910688E+00
 -2.47289816811882091E+00 -2.53232239580146201E+00 -2.59309032935986128E+00
 -2.65522792586149725E+00 -2.71876139984726306E+00 -2.78371721039980580E+00
 -2.85012204696362392E+00 -2.91800281384661453E+00 -2.98738661332675681E+00
 -3.05830072728391578E+00 -3.13077259726645263E+00 -3.20482980291800645E+00
 -3.28050003867410567E+00 -3.35781108861896493E+00 -3.43679079940805776E+00
 -3.51746705115167435E+00 -3.59986772614982398E+00 -3.68402067536371902E+00
 -3.76995368249789076E+00 -3.85769442557697584E+00 -3.94727043589503834E+00
 -4.03870905418304016E+00 -4.13203738385872210E+00 -4.22728224121174101E+00
 -4.32447010236959617E+00 -4.42362704688399155E+00 -4.52477869776965402E+00
 -4.62795015781481389E+00 -4.73316594199670071E+00 -4.84044990581525081E+00
 -4.94982516933428407E+00 -5.06131403673362446E+00 -5.17493791116225577E+00
 -5.29071720467337414E+00 -5.40867124301541491E+00 -5.52881816504379042E+00
 -5.65117481650903297E+00 -5.77575663796302230E+00 -5.90257754654579703E+00
 -6.03164981137019751E+00 -6.16298392222111424E+00 -6.29658845128806011E+00
 -6.43246990763603321E+00 -6.57063258411004192E+00 -6.71107839636053249E+00
 -6.85380671366737992E+00 -6.99881418123190269E+00 -7.14609453359434799E+00
 -7.29563839882573095E+00 -7.44743309316039781E+00 -7.60146240568183007E+00
 -7.75770637269209207E+00 -7.91614104138726837E+00 -8.07673822245132378E+00
 -8.23946523117441210E+00 -8.40428461669506888E+00 -8.57115387896020131E+00
 -8.74002517299179793E+00 -8.91084500004548019E+00 -9.08355388523952811E+00
 -9.25808604123147383E+00 -9.43436901753819335E+00 -9.61232333505812520E+00
 -9.79186210537609192E+00 -9.97289063443418478E+00 -1.01553060101533497E+01
 -1.03389966735959398E+01 -1.05238419732668333E+01 -1.07097117021605861E+01
 -1.08964656171724883E+01 -1.10839529405065225E+01 -1.12720118427274247E+01
 -1.14604689071250228E+01 -1.16491385750775081E+01 -1.18378225721312358E+01
 -1.20263093145363023E+01 -1.22143732960052187E+01 -1.24017744545027000E+01
 -1.25882575189115329E+01 -1.27735513354610237E+01 -1.29573681738504725E+01
 -1.31394030130508312E+01 -1.33193328068231249E+01 -1.34968157290511623E+01
 -1.36714903990507484E+01 -1.38429750870875097E+01 -1.40108669004091198E+01
 -1.41747409501777675E+01 -1.43341494997763821E+01 -1.44886210950573080E+01
 -1.46376596771643808E+01 -1.47807436787002651E+01 -1.49173251041053696E+01
 -1.50468285952203917E+01 -1.51686504831219686E+01 -1.52821578274416208E+01
 -1.53866874445054584E+01 -1.54815449257565252E+01 -1.55660036480584889E+01
 -1.56393037776106922E+01 -1.57006512693423339E+01 -1.57492168637924532E+01
 -1.57841350836189100E+01 -1.58045032320170495E+01 -1.58093803954636041E+01
 -1.57977864533314403E+01 -1.57687010970559971E+01 -1.57210628616670647E+01
 -1.56537681724868118E+01 -1.55656704100586101E+01 -1.54555789963911430E+01
 -1.53222585056463849E+01 -1.51644278024616384E+01 -1.49807592111183769E+01
 -1.47698777187690400E+01 -1.45303602158995595E+01 -1.42607347771410620E+01
 -1.39594799854400389E+01 -1.36250243024548627E+01 -1.32557454878550462E+01
 -1.28499700699635078E+01 -1.24059728698913290E+01 -1.19219765809656710E+01
 -1.13961514048447281E+01 -1.08266147452429955E+01 -1.02114309596524588E+01
 -9.54861116883995287E+00 -8.83611312307854213E+00 -8.07184111990632580E+00
 -7.25364590382958596E+00 -6.37932342203664504E+00 -5.44659462957090756E+00
 -4.45279470519168985E+00 -3.42600813572988283E+00 -2.41252317264971516E+00
 -1.41547369104696008E+00 -4.37278047480804843E-01  5.19647336244017044E-01
  1.45284514141115340E+00  2.35982062239952661E+00  3.23804992671047254E+00
  4.08498980207323914E+00  4.89808846234500805E+00  5.67479765108438450E+00
  6.41258596153368998E+00  7.10895347050529569E+00  7.76144773952783762E+00
  8.36768123083138171E+00  8.92535017816271115E+00  9.43225494276667753E+00
  9.88632187276914998E+00  1.02856266693046621E+01  1.06284192446349053E+01
  1.09131500358698954E+01  1.11384977103610652E+01  1.13033981692920626E+01
  1.14070747187891204E+01  1.14490692341034421E+01  1.14292740918896278E+01
  1.13479645863954151E+01  1.12058314765482550E+01  1.10040132311178382E+01
  1.07441274468766341E+01  1.04283008082749369E+01  1.00591968347027869E+01
  9.64004052078738916E+00  9.17463881398574266E+00  8.66739568926077908E+00
  8.12332036986008355E+00  7.54802700273012306E+00  6.94772382309113468E+00
  6.32918953084883729E+00  5.69973424703723186E+00  5.06714201595702551E+00
  4.43959136203749338E+00  3.82554989291541325E+00  3.23363835417553913E+00
  2.67245887810896576E+00  2.15038141913278835E+00  1.67528152151852305E+00
  1.25422160873738320E+00  8.93066904699157282E-01  5.96025880599299840E-01
  3.65103761383557324E-01  1.99456359889177398E-01  9.46344328494539283E-02
  4.17833097358473668E-02  2.80684243865949971E-02 -1.09323425087104898E-03
 -9.27518885585666301E-05  0.00000000000000000E+00  0.00000000000000000E+00
  0.00000000000000000E+00  0.00000000000000000E+00  0.00000000000000000E+00
  0.00000000000000000E+00  0.00000000000000000E+00  0.00000000000000000E+00
  0.00000000000000000E+00  0.00000000000000000E+00  0.00000000000000000E+00
  0.00000000000000000E+00  0.00000000000000000E+00  0.00000000000000000E+00
  0.00000000000000000E+00  0.00000000000000000E+00  0.00000000000000000E+00
  0.00000000000000000E+00  0.00000000000000000E+00  0.00000000000000000E+00
  0.00000000000000000E+00  0.00000000000000000E+00  0.00000000000000000E+00
  0.00000000000000000E+00  0.00000000000000000E+00  0.00000000000000000E+00
  0.00000000000000000E+00  0.00000000000000000E+00  0.00000000000000000E+00
  0.00000000000000000E+00  0.00000000000000000E+00  0.00000000000000000E+00
  0.00000000000000000E+00  0.00000000000000000E+00  0.00000000000000000E+00
  0.00000000000000000E+00  0.00000000000000000E+00  0.00000000000000000E+00
  0.00000000000000000E+00  0.00000000000000000E+00  0.00000000000000000E+00
  0.00000000000000000E+00  0.00000000000000000E+00  0.00000000000000000E+00
  0.00000000000000000E+00  0.00000000000000000E+00  0.00000000000000000E+00
  0.00000000000000000E+00  0.00000000000000000E+00  0.00000000000000000E+00
  0.00000000000000000E+00  0.00000000000000000E+00  0.00000000000000000E+00
  0.00000000000000000E+00  0.00000000000000000E+00  0.00000000000000000E+00
  0.00000000000000000E+00  0.00000000000000000E+00  0.00000000000000000E+00
  0.00000000000000000E+00  0.00000000000000000E+00  0.00000000000000000E+00
  0.00000000000000000E+00  0.00000000000000000E+00  0.00000000000000000E+00
  0.00000000000000000E+00  0.00000000000000000E+00  0.00000000000000000E+00
  0.00000000000000000E+00  0.00000000000000000E+00  0.00000000000000000E+00
  0.00000000000000000E+00  0.00000000000000000E+00  0.00000000000000000E+00
  0.00000000000000000E+00  0.00000000000000000E+00  0.00000000000000000E+00
  0.00000000000000000E+00  0.00000000000000000E+00  0.00000000000000000E+00
  0.00000000000000000E+00  0.00000000000000000E+00  0.00000000000000000E+00
  0.00000000000000000E+00  0.00000000000000000E+00  0.00000000000000000E+00
  0.00000000000000000E+00  0.00000000000000000E+00  0.00000000000000000E+00
  0.00000000000000000E+00  0.00000000000000000E+00  0.00000000000000000E+00
  0.00000000000000000E+00  0.00000000000000000E+00  0.00000000000000000E+00
  0.00000000000000000E+00  0.00000000000000000E+00  0.00000000000000000E+00
  0.00000000000000000E+00  0.00000000000000000E+00  0.00000000000000000E+00
  0.00000000000000000E+00  0.00000000000000000E+00  0.00000000000000000E+00
  0.00000000000000000E+00  0.00000000000000000E+00  0.00000000000000000E+00
  0.00000000000000000E+00  0.00000000000000000E+00  0.00000000000000000E+00
  0.00000000000000000E+00  0.00000000000000000E+00  0.00000000000000000E+00
  0.00000000000000000E+00  0.00000000000000000E+00  0.00000000000000000E+00
  0.00000000000000000E+00  0.00000000000000000E+00  0.00000000000000000E+00
  0.00000000000000000E+00  0.00000000000000000E+00  0.00000000000000000E+00
  0.00000000000000000E+00  0.00000000000000000E+00  0.00000000000000000E+00
  0.00000000000000000E+00  0.00000000000000000E+00  0.00000000000000000E+00
  0.00000000000000000E+00  0.00000000000000000E+00  0.00000000000000000E+00
  0.00000000000000000E+00  0.00000000000000000E+00  0.00000000000000000E+00
  0.00000000000000000E+00  0.00000000000000000E+00  0.00000000000000000E+00
  0.00000000000000000E+00  0.00000000000000000E+00  0.00000000000000000E+00
  0.00000000000000000E+00  0.00000000000000000E+00  0.00000000000000000E+00
  0.00000000000000000E+00  0.00000000000000000E+00  0.00000000000000000E+00
  0.00000000000000000E+00  0.00000000000000000E+00  0.00000000000000000E+00
  0.00000000000000000E+00  0.00000000000000000E+00  0.00000000000000000E+00
  0.00000000000000000E+00  0.00000000000000000E+00  0.00000000000000000E+00
  0.00000000000000000E+00  0.00000000000000000E+00  0.00000000000000000E+00
  0.00000000000000000E+00  0.00000000000000000E+00  0.00000000000000000E+00
  0.00000000000000000E+00  0.00000000000000000E+00  0.00000000000000000E+00
  0.00000000000000000E+00  0.00000000000000000E+00  0.00000000000000000E+00
  0.00000000000000000E+00  0.00000000000000000E+00  0.00000000000000000E+00
  0.00000000000000000E+00  0.00000000000000000E+00  0.00000000000000000E+00
  0.00000000000000000E+00  0.00000000000000000E+00  0.00000000000000000E+00
  0.00000000000000000E+00  0.00000000000000000E+00  0.00000000000000000E+00
  0.00000000000000000E+00  0.00000000000000000E+00  0.00000000000000000E+00
  0.00000000000000000E+00  0.00000000000000000E+00  0.00000000000000000E+00
  0.00000000000000000E+00  0.00000000000000000E+00  0.00000000000000000E+00
  0.00000000000000000E+00  0.00000000000000000E+00  0.00000000000000000E+00
  0.00000000000000000E+00  0.00000000000000000E+00  0.00000000000000000E+00
  0.00000000000000000E+00  0.00000000000000000E+00  0.00000000000000000E+00
  0.00000000000000000E+00  0.00000000000000000E+00  0.00000000000000000E+00
  0.00000000000000000E+00  0.00000000000000000E+00  0.00000000000000000E+00
  0.00000000000000000E+00  0.00000000000000000E+00  0.00000000000000000E+00
  0.00000000000000000E+00  0.00000000000000000E+00  0.00000000000000000E+00
  0.00000000000000000E+00  0.00000000000000000E+00  0.00000000000000000E+00
  0.00000000000000000E+00  0.00000000000000000E+00  0.00000000000000000E+00
                              </PP_BETA.3>
   <PP_DIJ type="real" size="    9" columns="3">
 -5.04250008280700546E-02 -4.68233007780755384E-01  0.00000000000000000E+00
 -4.68233007780755384E-01  2.22124795208425319E+01  0.00000000000000000E+00
  0.00000000000000000E+00  0.00000000000000000E+00  6.78403929269438474E-04
                                       </PP_DIJ>
  <PP_AUGMENTATION q_with_l="T" nqf="0" cutoff_r="  9.9495033E-01" cutoff_r_index="   562" iraug="   562" nqlc="  3" lmax_aug="  2" shape="SINC**2" augmentation_epsilon="1.d-12">
    <PP_Q type="real" size="    9" columns="3">
  1.10769655192046856E-02 -1.28261028432755997E-01  0.00000000000000000E+00
 -1.28261028432755997E-01  9.86319821312836909E-01  0.00000000000000000E+00
  0.00000000000000000E+00  0.00000000000000000E+00  1.32019306351867697E-03
                                       </PP_Q>
    <PP_MULTIPOLES type="real" size="    27" columns="3">
  1.10769655192046856E-02 -1.28261028432755997E-01  0.00000000000000000E+00
 -1.28261028432755997E-01  9.86319821312836909E-01  0.00000000000000000E+00
  0.00000000000000000E+00  0.00000000000000000E+00  1.32019306351867697E-03
  0.00000000000000000E+00  0.00000000000000000E+00  1.52675713324302458E-03
  0.00000000000000000E+00  0.00000000000000000E+00 -2.15708246515569357E-02
  1.52675713324302458E-03 -2.15708246515569357E-02  0.00000000000000000E+00
  0.00000000000000000E+00  0.00000000000000000E+00  0.00000000000000000E+00
  0.00000000000000000E+00  0.00000000000000000E+00  0.00000000000000000E+00
  0.00000000000000000E+00  0.00000000000000000E+00  3.10301963669168629E-04
                                       </PP_MULTIPOLES>
 <PP_QIJL.1.1.0 type="real" size="   777" columns="3" first_index=" 1" second_index=" 1" composite_index=" 1" angular_momentum="0">
  3.59501751695921696E-07  3.68602541654641548E-07  3.77933717145943704E-07
  3.87501110302565356E-07  3.97310700891521712E-07  4.07368620052468765E-07
  4.17681154130719705E-07  4.28254748605426280E-07  4.39096012115356087E-07
  4.50211720591185373E-07  4.61608821491130905E-07  4.73294438141110107E-07
  4.85275874185111616E-07  4.97560618152494394E-07  5.10156348137956201E-07
  5.23070936596661382E-07  5.36312455265978432E-07  5.49889180211778088E-07
  5.63809596997935660E-07  5.78082405988132901E-07  5.92716527786684475E-07
  6.07721108812095843E-07  6.23105527009438011E-07  6.38879397715157273E-07
  6.55052579665992589E-07  6.71635181155208716E-07  6.88637566353559562E-07
  7.06070361787094204E-07  7.23944462972407372E-07  7.42271041229441803E-07
  7.61061550664002863E-07  7.80327735319451054E-07  8.00081636520437326E-07
  8.20335600398318910E-07  8.41102285599900191E-07  8.62394671204176483E-07
  8.84226064831266739E-07  9.06610110953215798E-07  9.29560799427862659E-07
  9.53092474235229355E-07  9.77219842440258630E-07  1.00195798338896033E-06
  1.02732235812193939E-06  1.05332881904208946E-06  1.07999361981909830E-06
  1.10733342553983357E-06  1.13536532313103902E-06  1.16410683202603971E-06
  1.19357591511764682E-06  1.22379098998161258E-06  1.25477094037832798E-06
  1.28653512806212461E-06  1.31910340486652599E-06  1.35249612511858079E-06
  1.38673415834920969E-06  1.42183890233420444E-06  1.45783229646673092E-06
  1.49473683545636162E-06  1.53257558339508623E-06  1.57137218815285812E-06
  1.61115089616669301E-06  1.65193656757445922E-06  1.69375469175890240E-06
  1.73663140326114546E-06  1.78059349811624815E-06  1.82566845058702078E-06
  1.87188443033198406E-06  1.91927032000048186E-06  1.96785573327712851E-06
  2.01767103338057405E-06  2.06874735203121149E-06  2.12111660889784731E-06
  2.17481153153800772E-06  2.22986567583895408E-06  2.28631344698244418E-06
  2.34419012092898051E-06  2.40353186646126335E-06  2.46437576776368527E-06
  2.52675984760037084E-06  2.59072309104644582E-06  2.65630546985641693E-06
  2.72354796741076428E-06  2.79249260432869347E-06  2.86318246470078623E-06
  2.93566172300095659E-06  3.00997567167822175E-06  3.08617074943069240E-06
  3.16429457022356792E-06  3.24439595300494736E-06  3.32652495220582575E-06
  3.41073288899221364E-06  3.49707238330572154E-06  3.58559738673587138E-06
  3.67636321619090730E-06  3.76942658844832878E-06  3.86484565556922049E-06
  3.96268004119305247E-06  4.06299087777951229E-06  4.16584084476731055E-06
  4.27129420770017854E-06  4.37941685836122557E-06  4.49027635589682907E-06
  4.60394196898901331E-06  4.72048471910710403E-06  4.83997742483083989E-06
  4.96249474730048666E-06  5.08811323682955165E-06  5.21691138067803226E-06
  5.34896965203108651E-06  5.48437056023391015E-06  5.62319870228406813E-06
  5.76554081561469312E-06  5.91148583222746172E-06  6.06112493419171014E-06
  6.21455161053648122E-06  6.37186171557673803E-06  6.53315352872773297E-06
  6.69852781582291464E-06  6.86808789197554029E-06  7.04193968602561051E-06
  7.22019180662614460E-06  7.40295560999232060E-06  7.59034526935893252E-06
  7.78247784618688080E-06  7.97947336317462732E-06  8.18145487911345821E-06
  8.38854856562846214E-06  8.60088378585584468E-06  8.81859317510270112E-06
  9.04181272354662432E-06  9.27068186102332663E-06  9.50534354395061613E-06
  9.74594434444494648E-06  9.99263454168583971E-06  1.02455682155830376E-05
  1.05049033428079064E-05  1.07708018952478970E-05  1.10434299409417954E-05
  1.13229577475594636E-05  1.16095598884902474E-05  1.19034153516055224E-05
  1.22047076507623091E-05  1.25136249401167391E-05  1.28303601313177546E-05
  1.31551110136546748E-05  1.34880803772308944E-05  1.38294761392397513E-05
  1.41795114734208872E-05  1.45384049427764547E-05  1.49063806356289773E-05
  1.52836683051045539E-05  1.56705035121267892E-05  1.60671277720098716E-05
  1.64737887047404163E-05  1.68907401890403254E-05  1.73182425203055406E-05
  1.77565625725170074E-05  1.82059739642236191E-05  1.86667572286984939E-05
  1.91391999883728987E-05  1.96235971336546854E-05  2.01202510062402277E-05
  2.06294715870325015E-05  2.11515766887795932E-05  2.16868921535517035E-05
  2.22357520551768952E-05  2.27984989067589749E-05  2.33754838734043900E-05
  2.39670669902873673E-05  2.45736173861861641E-05  2.51955135126265336E-05
  2.58331433787713002E-05  2.64869047921991138E-05  2.71572056057164235E-05
  2.78444639703566749E-05  2.85491085947181285E-05  2.92715790107959180E-05
  3.00123258464708891E-05  3.07718111048191134E-05  3.15505084504112104E-05
  3.23489035027742065E-05  3.31674941371865614E-05  3.40067907929964333E-05
  3.48673167896545774E-05  3.57496086506387117E-05  3.66542164354688091E-05
  3.75817040800119153E-05  3.85326497452705293E-05  3.95076461748724051E-05
  4.05073010615021953E-05  4.15322374224575772E-05  4.25830939845631151E-05
  4.36605255786568750E-05  4.47652035438914135E-05  4.58978161421498519E-05
  4.70590689827524847E-05  4.82496854577140114E-05  4.94704071877726277E-05
  5.07219944795730702E-05  5.20052267942131645E-05  5.33209032273862399E-05
  5.46698430013621854E-05  5.60528859692756569E-05  5.74708931319277530E-05
  5.89247471673093329E-05  6.04153529731668118E-05  6.19436382231833949E-05
  6.35105539368435994E-05  6.51170750632177605E-05  6.67642010793270305E-05
  6.84529566033528471E-05  7.01843920227301189E-05  7.19595841377970453E-05
  7.37796368215291301E-05  7.56456816951881574E-05  7.75588788206336342E-05
  7.95204174099758168E-05  8.15315165522128579E-05  8.35934259578458022E-05
  8.57074267220628478E-05  8.78748321060159195E-05  9.00969883376793968E-05
  9.23752754323229545E-05  9.47111080324308287E-05  9.71059362689756918E-05
  9.95612466430345866E-05  1.02078562928969166E-04  1.04659447100138571E-04
  1.07305500276070912E-04  1.10018363693794905E-04  1.12799719701839942E-04
  1.15651292778623022E-04  1.18574850575857584E-04  1.21572204986144589E-04
  1.24645213237826427E-04  1.27795779014524836E-04  1.31025853603272484E-04
  1.34337437068881194E-04  1.37732579457428277E-04  1.41213382028173071E-04
  1.44781998514845834E-04  1.48440636417701397E-04  1.52191558325313778E-04
  1.56037083269353825E-04  1.59979588109746321E-04  1.64021508954837023E-04
  1.68165342612862844E-04  1.72413648080294810E-04  1.76769048062650662E-04
  1.81234230533914258E-04  1.85811950329827852E-04  1.90505030781357734E-04
  1.95316365383760721E-04  2.00248919507090191E-04  2.05305732144528408E-04
  2.10489917702921911E-04  2.15804667834068045E-04  2.21253253308305217E-04
  2.26839025932534441E-04  2.32565420510105747E-04  2.38435956849166418E-04
  2.44454241812678999E-04  2.50623971420034584E-04  2.56948932992039102E-04
  2.63433007348022618E-04  2.70080171051083633E-04  2.76894498703250159E-04
  2.83880165295366451E-04  2.91041448604694103E-04  2.98382731651530679E-04
  3.05908505206150324E-04  3.13623370352904881E-04  3.21532041112759922E-04
  3.29639347118599766E-04  3.37950236355103568E-04  3.46469777953875059E-04
  3.55203165049844892E-04  3.64155717702910841E-04  3.73332885876228367E-04
  3.82740252483442585E-04  3.92383536499564989E-04  4.02268596133534306E-04
  4.12401432074192354E-04  4.22788190799525002E-04  4.33435167953572680E-04
  4.44348811798916184E-04  4.55535726733957648E-04  4.67002676882869957E-04
  4.78756589762925394E-04  4.90804560019016795E-04  5.03153853234437963E-04
  5.15811909821392188E-04  5.28786348981305715E-04  5.42084972743405325E-04
  5.55715770086173135E-04  5.69686921131307210E-04  5.84006801416143712E-04
  5.98683986252674608E-04  6.13727255162027684E-04  6.29145596386128966E-04
  6.44948211488898123E-04  6.61144520036404358E-04  6.77744164353451836E-04
  6.94757014368193866E-04  7.12193172541281355E-04  7.30062978872131644E-04
  7.48377015986363106E-04  7.67146114313937782E-04  7.86381357345572788E-04
  8.06094086965687944E-04  8.26295908871897125E-04  8.46998698078642483E-04
  8.68214604496332404E-04  8.89956058584802606E-04  9.12235777093693928E-04
  9.35066768878774148E-04  9.58462340789738212E-04  9.82436103627490212E-04
  1.00700197818328176E-03  1.03217420134514765E-03  1.05796733226855397E-03
  1.08439625860716460E-03  1.11147620281583457E-03  1.13922272851047597E-03
  1.16765174688055135E-03  1.19677952314750234E-03  1.22662268307887311E-03
  1.25719821954723321E-03  1.28852349912359073E-03  1.32061626869967898E-03
  1.35349466213761059E-03  1.38717720695023848E-03  1.42168283099080011E-03
  1.45703086914855716E-03  1.49324107003784030E-03  1.53033360268679114E-03
  1.56832906321149445E-03  1.60724848145897829E-03  1.64711332761202926E-03
  1.68794551873978479E-03  1.72976742530028468E-03  1.77260187757129401E-03
  1.81647217199298145E-03  1.86140207741124913E-03  1.90741584120068374E-03
  1.95453819526811810E-03  2.00279436191282047E-03  2.05221005951839331E-03
  2.10281150806199656E-03  2.15462543441616002E-03  2.20767907742698728E-03
  2.26200019275835671E-03  2.31761705745983084E-03  2.37455847423873002E-03
  2.43285377541034272E-03  2.49253282649121530E-03  2.55362602942116844E-03
  2.61616432538132413E-03  2.68017919716275485E-03  2.74570267105697435E-03
  2.81276731823155036E-03  2.88140625554540860E-03  2.95165314577611974E-03
  3.02354219721994453E-03  3.09710816260358934E-03  3.17238633726703084E-03
  3.24941255656821613E-03  3.32822319245488704E-03  3.40885514914435325E-03
  3.49134585787813385E-03  3.57573327066956770E-03  3.66205585298269142E-03
  3.75035257527927450E-03  3.84066290336470802E-03  3.93302678745720020E-03
  4.02748464990054355E-03  4.12407737146622613E-03  4.22284627613830899E-03
  4.32383311429669712E-03  4.42708004421134022E-03  4.53262961175273770E-03
  4.64052472821989068E-03  4.75080864617458219E-03  4.86352493319139496E-03
  4.97871744341370041E-03  5.09643028678168943E-03  5.21670779581946600E-03
  5.33959448985593839E-03  5.46513503654903754E-03  5.59337421057772097E-03
  5.72435684935372266E-03  5.85812780561859210E-03  5.99473189678528025E-03
  6.13421385084516810E-03  6.27661824868701226E-03  6.42198946266145376E-03
  6.57037159121860465E-03  6.72180838944066994E-03  6.87634319528557508E-03
  7.03401885134457682E-03  7.19487762193664077E-03  7.35896110534068823E-03
  7.52631014094309013E-03  7.69696471109827113E-03  7.87096383748788798E-03
  8.04834547175875201E-03  8.22914638021527561E-03  8.41340202233786978E-03
  8.60114642289358175E-03  8.79241203739612731E-03  8.98722961070001942E-03
  9.18562802847141049E-03  9.38763416128702254E-03  9.59327270112135186E-03
  9.80256598997652703E-03  1.00155338404092648E-02  1.02321933477103090E-02
  1.04525586934940563E-02  1.06766409404587016E-02  1.09044478180801273E-02
  1.11359834990087184E-02  1.13712483659634944E-02  1.16102387688919555E-02
  1.18529467721954340E-02  1.20993598918315865E-02  1.23494608221180000E-02
  1.26032271520775691E-02  1.28606310711855409E-02  1.31216390644001528E-02
  1.33862115963831602E-02  1.36543027848448264E-02  1.39258600629789189E-02
  1.42008238309900229E-02  1.44791270967523106E-02  1.47606951056769610E-02
  1.50454449599194962E-02  1.53332852271080219E-02  1.56241155388306373E-02
  1.59178261791820541E-02  1.62142976637378380E-02  1.65134003093987819E-02
  1.68149937956285182E-02  1.71189267176949274E-02  1.74250361326204264E-02
  1.77331470986489027E-02  1.80430722091578788E-02  1.83546111220402736E-02
  1.86675500857008542E-02  1.89816614629951773E-02  1.92967032545494702E-02
  1.96124186230626080E-02  1.99285354203594493E-02  2.02447657191409114E-02
  2.05608053515655177E-02  2.08763334569956119E-02  2.11910120414533880E-02
  2.15044855515544552E-02  2.18163804659217420E-02  2.21263049073299502E-02
  2.24338482790895459E-02  2.27385809294608290E-02  2.30400538481961917E-02
  2.33377983994544728E-02  2.36313260958305564E-02  2.39201284184961151E-02
  2.42036766887457171E-02  2.44814219965964579E-02  2.47527951924352008E-02
  2.50172069480597975E-02  2.52740478938186242E-02  2.55226888389152654E-02
  2.57624810823082508E-02  2.59927568219993840E-02  2.62128296708631914E-02
  2.64219952875241644E-02  2.66195321311302469E-02  2.68047023492012960E-02
  2.69767528080407486E-02  2.71349162755106926E-02  2.72784127662688732E-02
  2.74064510594547520E-02  2.75182303994648131E-02  2.76129423903923032E-02
  2.76897730947322923E-02  2.77479053469948493E-02  2.77865212927991788E-02
  2.78048051638624671E-02  2.78019462990412927E-02  2.77771424212156365E-02
  2.77296031793149191E-02  2.76585539641566840E-02  2.75632400059882023E-02
  2.74429307606720366E-02  2.72969245903246331E-02  2.71245537428828794E-02
  2.69251896335206790E-02  2.66982484290491026E-02  2.64431969343873578E-02
  2.61595587778731403E-02  2.58469208895966765E-02  2.55049402640964602E-02
  2.51333509949762807E-02  2.47319715661135815E-02  2.43007123799102512E-02
  2.38395834985600762E-02  2.33487025696408126E-02  2.28283029021915350E-02
  2.22787416538775852E-02  2.17005080838706815E-02  2.10942318196833158E-02
  2.04606910793975506E-02  1.98008207835327077E-02  1.91157204832249315E-02
  1.84066620234662921E-02  1.76750968519169376E-02  1.69226628753002227E-02
  1.61511907566837601E-02  1.53627095381069449E-02  1.45594514641278656E-02
  1.37438558730315959E-02  1.29185720137885308E-02  1.20864606385159955E-02
  1.12505942123383908E-02  1.04142555753421046E-02  9.58093488496859422E-03
  8.75432466182743917E-03  7.93831275839808163E-03  7.13697306753780132E-03
  6.35455378727728393E-03  5.59546306043157398E-03  4.86425181202571836E-03
  4.16559361501952965E-03  3.50426142567373611E-03  2.88510104454169428E-03
  2.31300117791745667E-03  1.79285999804543509E-03  1.32954812881266589E-03
  9.27868015841205830E-04  5.92509654851016798E-04  3.28002362811997549E-04
  1.38657868448608773E-04  2.84414140450151798E-05 -5.43573887624220621E-07
 -3.91397467966310427E-08 -2.78118337213111011E-09 -1.94660086956907258E-10
 -1.33830562701652658E-11 -9.00022581276418900E-13 -5.88218652393037268E-14
 -3.69570932292246024E-15 -2.18825271517907529E-16 -1.17026523777839072E-17
 -5.00829218591159893E-19 -7.61944228731750027E-21  1.78945502289315713E-21
  3.17195554738052895E-22  3.77021831247655584E-23  3.86821955334143462E-24
  3.66815199048777008E-25  3.30886601887082094E-26  2.88199720766352274E-27
  2.44513637967639202E-28  0.00000000000000000E+00  0.00000000000000000E+00
  0.00000000000000000E+00  0.00000000000000000E+00  0.00000000000000000E+00
  0.00000000000000000E+00  0.00000000000000000E+00  0.00000000000000000E+00
  0.00000000000000000E+00  0.00000000000000000E+00  0.00000000000000000E+00
  0.00000000000000000E+00  0.00000000000000000E+00  0.00000000000000000E+00
  0.00000000000000000E+00  0.00000000000000000E+00  0.00000000000000000E+00
  0.00000000000000000E+00  0.00000000000000000E+00  0.00000000000000000E+00
  0.00000000000000000E+00  0.00000000000000000E+00  0.00000000000000000E+00
  0.00000000000000000E+00  0.00000000000000000E+00  0.00000000000000000E+00
  0.00000000000000000E+00  0.00000000000000000E+00  0.00000000000000000E+00
  0.00000000000000000E+00  0.00000000000000000E+00  0.00000000000000000E+00
  0.00000000000000000E+00  0.00000000000000000E+00  0.00000000000000000E+00
  0.00000000000000000E+00  0.00000000000000000E+00  0.00000000000000000E+00
  0.00000000000000000E+00  0.00000000000000000E+00  0.00000000000000000E+00
  0.00000000000000000E+00  0.00000000000000000E+00  0.00000000000000000E+00
  0.00000000000000000E+00  0.00000000000000000E+00  0.00000000000000000E+00
  0.00000000000000000E+00  0.00000000000000000E+00  0.00000000000000000E+00
  0.00000000000000000E+00  0.00000000000000000E+00  0.00000000000000000E+00
  0.00000000000000000E+00  0.00000000000000000E+00  0.00000000000000000E+00
  0.00000000000000000E+00  0.00000000000000000E+00  0.00000000000000000E+00
  0.00000000000000000E+00  0.00000000000000000E+00  0.00000000000000000E+00
  0.00000000000000000E+00  0.00000000000000000E+00  0.00000000000000000E+00
  0.00000000000000000E+00  0.00000000000000000E+00  0.00000000000000000E+00
  0.00000000000000000E+00  0.00000000000000000E+00  0.00000000000000000E+00
  0.00000000000000000E+00  0.00000000000000000E+00  0.00000000000000000E+00
  0.00000000000000000E+00  0.00000000000000000E+00  0.00000000000000000E+00
  0.00000000000000000E+00  0.00000000000000000E+00  0.00000000000000000E+00
  0.00000000000000000E+00  0.00000000000000000E+00  0.00000000000000000E+00
  0.00000000000000000E+00  0.00000000000000000E+00  0.00000000000000000E+00
  0.00000000000000000E+00  0.00000000000000000E+00  0.00000000000000000E+00
  0.00000000000000000E+00  0.00000000000000000E+00  0.00000000000000000E+00
  0.00000000000000000E+00  0.00000000000000000E+00  0.00000000000000000E+00
  0.00000000000000000E+00  0.00000000000000000E+00  0.00000000000000000E+00
  0.00000000000000000E+00  0.00000000000000000E+00  0.00000000000000000E+00
  0.00000000000000000E+00  0.00000000000000000E+00  0.00000000000000000E+00
  0.00000000000000000E+00  0.00000000000000000E+00  0.00000000000000000E+00
  0.00000000000000000E+00  0.00000000000000000E+00  0.00000000000000000E+00
  0.00000000000000000E+00  0.00000000000000000E+00  0.00000000000000000E+00
  0.00000000000000000E+00  0.00000000000000000E+00  0.00000000000000000E+00
  0.00000000000000000E+00  0.00000000000000000E+00  0.00000000000000000E+00
  0.00000000000000000E+00  0.00000000000000000E+00  0.00000000000000000E+00
  0.00000000000000000E+00  0.00000000000000000E+00  0.00000000000000000E+00
  0.00000000000000000E+00  0.00000000000000000E+00  0.00000000000000000E+00
  0.00000000000000000E+00  0.00000000000000000E+00  0.00000000000000000E+00
  0.00000000000000000E+00  0.00000000000000000E+00  0.00000000000000000E+00
  0.00000000000000000E+00  0.00000000000000000E+00  0.00000000000000000E+00
  0.00000000000000000E+00  0.00000000000000000E+00  0.00000000000000000E+00
  0.00000000000000000E+00  0.00000000000000000E+00  0.00000000000000000E+00
  0.00000000000000000E+00  0.00000000000000000E+00  0.00000000000000000E+00
  0.00000000000000000E+00  0.00000000000000000E+00  0.00000000000000000E+00
  0.00000000000000000E+00  0.00000000000000000E+00  0.00000000000000000E+00
  0.00000000000000000E+00  0.00000000000000000E+00  0.00000000000000000E+00
  0.00000000000000000E+00  0.00000000000000000E+00  0.00000000000000000E+00
  0.00000000000000000E+00  0.00000000000000000E+00  0.00000000000000000E+00
  0.00000000000000000E+00  0.00000000000000000E+00  0.00000000000000000E+00
  0.00000000000000000E+00  0.00000000000000000E+00  0.00000000000000000E+00
  0.00000000000000000E+00  0.00000000000000000E+00  0.00000000000000000E+00
  0.00000000000000000E+00  0.00000000000000000E+00  0.00000000000000000E+00
  0.00000000000000000E+00  0.00000000000000000E+00  0.00000000000000000E+00
  0.00000000000000000E+00  0.00000000000000000E+00  0.00000000000000000E+00
  0.00000000000000000E+00  0.00000000000000000E+00  0.00000000000000000E+00
  0.00000000000000000E+00  0.00000000000000000E+00  0.00000000000000000E+00
  0.00000000000000000E+00  0.00000000000000000E+00  0.00000000000000000E+00
  0.00000000000000000E+00  0.00000000000000000E+00  0.00000000000000000E+00
  0.00000000000000000E+00  0.00000000000000000E+00  0.00000000000000000E+00
  0.00000000000000000E+00  0.00000000000000000E+00  0.00000000000000000E+00
  0.00000000000000000E+00  0.00000000000000000E+00  0.00000000000000000E+00
  0.00000000000000000E+00  0.00000000000000000E+00  0.00000000000000000E+00
  0.00000000000000000E+00  0.00000000000000000E+00  0.00000000000000000E+00
  0.00000000000000000E+00  0.00000000000000000E+00  0.00000000000000000E+00
  0.00000000000000000E+00  0.00000000000000000E+00  0.00000000000000000E+00
  0.00000000000000000E+00  0.00000000000000000E+00  0.00000000000000000E+00
                       </PP_QIJL.1.1.0>
 <PP_QIJL.1.2.0 type="real" size="   777" columns="3" first_index=" 1" second_index=" 2" composite_index=" 2" angular_momentum="0">
 -4.16269819707869285E-06 -4.26807693800120855E-06 -4.37612333057379033E-06
 -4.48690490550613827E-06 -4.60049090297651429E-06 -4.71695231591853252E-06
 -4.83636193440394595E-06 -4.95879439112735939E-06 -5.08432620802101230E-06
 -5.21303584410290932E-06 -5.34500374452153141E-06 -5.48031239081086985E-06
 -5.61904635242161861E-06 -5.76129233960626940E-06 -5.90713925760882965E-06
 -6.05667826218797026E-06 -6.21000281660619850E-06 -6.36720875006133406E-06
 -6.52839431754456221E-06 -6.69366026123041299E-06 -6.86310987347649342E-06
 -7.03684906136014835E-06 -7.21498641282248149E-06 -7.39763326457743218E-06
 -7.58490377168948844E-06 -7.77691497885718288E-06 -7.97378689360400436E-06
 -8.17564256128541351E-06 -8.38260814191890856E-06 -8.59481298906999019E-06
 -8.81238973070321980E-06 -9.03547435199222790E-06 -9.26420628035336868E-06
 -9.49872847258309594E-06 -9.73918750411805464E-06 -9.98573366070366974E-06
 -1.02385210322880822E-05 -1.04977076092535740E-05 -1.07634553812308726E-05
 -1.10359304382584697E-05 -1.13153030745628397E-05 -1.16017478950413259E-05
 -1.18954439242620866E-05 -1.21965747184070741E-05 -1.25053284799570388E-05
 -1.28218981752236369E-05 -1.31464816550346168E-05 -1.34792817782444135E-05
 -1.38205065385586664E-05 -1.41703691944914643E-05 -1.45290884025443733E-05
 -1.48968883539472505E-05 -1.52739989145942884E-05 -1.56606557687905226E-05
 -1.60571005664259200E-05 -1.64635810739780728E-05 -1.68803513293534687E-05
 -1.73076718005095993E-05 -1.77458095483263956E-05 -1.81950383932933369E-05
 -1.86556390867535733E-05 -1.91278994861392093E-05 -1.96121147349567831E-05
 -2.01085874470508744E-05 -2.06176278957548019E-05 -2.11395542076527198E-05
 -2.16746925613687437E-05 -2.22233773913021116E-05 -2.27859515965651973E-05
 -2.33627667551821273E-05 -2.39541833437173153E-05 -2.45605709624499357E-05
 -2.51823085662642626E-05 -2.58197847013377366E-05 -2.64733977478935326E-05
 -2.71435561689683195E-05 -2.78306787656550675E-05 -2.85351949385527576E-05
 -2.92575449561466467E-05 -2.99981802295944727E-05 -3.07575635948897623E-05
 -3.15361696017203133E-05 -3.23344848100402433E-05 -3.31530080938198166E-05
 -3.39922509526610590E-05 -3.48527378312849654E-05 -3.57350064469181904E-05
 -3.66396081252946340E-05 -3.75671081447370700E-05 -3.85180860893189549E-05
 -3.94931362107350632E-05 -4.04928677993019050E-05 -4.15179055645886841E-05
 -4.25688900252942106E-05 -4.36464779093101435E-05 -4.47513425637862422E-05
 -4.58841743753905950E-05 -4.70456812015356305E-05 -4.82365888122218773E-05
 -4.94576413430808403E-05 -5.07096017600937863E-05 -5.19932523357684184E-05
 -5.33093951374560403E-05 -5.46588525281657965E-05 -5.60424676797853641E-05
 -5.74611050993512233E-05 -5.89156511687808913E-05 -6.04070146980430412E-05
 -6.19361274922851731E-05 -6.35039449335071242E-05 -6.51114465767947567E-05
 -6.67596367615005720E-05 -6.84495452380535807E-05 -7.01822278105878038E-05
 -7.19587669956996503E-05 -7.37802726978115450E-05 -7.56478829017671070E-05
 -7.75627643828358227E-05 -7.95261134345925268E-05 -8.15391566151532935E-05
 -8.36031515123934982E-05 -8.57193875284202800E-05 -8.78891866838257178E-05
 -9.01139044421922107E-05 -9.23949305554977533E-05 -9.47336899308705884E-05
 -9.71316435191789732E-05 -9.95902892260417712E-05 -1.02111162845794058E-04
 -1.04695839019072303E-04 -1.07345932214576579E-04 -1.10063097735569942E-04
 -1.12849032751765875E-04 -1.15705477357243717E-04 -1.18634215655027937E-04
 -1.21637076869042911E-04 -1.24715936484124854E-04 -1.27872717414758498E-04
 -1.31109391203277151E-04 -1.34427979248268335E-04 -1.37830554063943570E-04
 -1.41319240571247378E-04 -1.44896217421501528E-04 -1.48563718353399762E-04
 -1.52324033584205770E-04 -1.56179511235990712E-04 -1.60132558797791220E-04
 -1.64185644624594387E-04 -1.68341299474068882E-04 -1.72602118081989335E-04
 -1.76970760777322902E-04 -1.81449955137966932E-04 -1.86042497688161440E-04
 -1.90751255638613946E-04 -1.95579168670405150E-04 -2.00529250763773858E-04
 -2.05604592072896074E-04 -2.10808360847814592E-04 -2.16143805404691176E-04
 -2.21614256145590357E-04 -2.27223127629031993E-04 -2.32973920692573674E-04
 -2.38870224628728834E-04 -2.44915719415542935E-04 -2.51114178003193980E-04
 -2.57469468658012542E-04 -2.63985557365346098E-04 -2.70666510292740762E-04
 -2.77516496314933762E-04 -2.84539789602196880E-04 -2.91740772273605927E-04
 -2.99123937116845483E-04 -3.06693890376203836E-04 -3.14455354610428096E-04
 -3.22413171622221281E-04 -3.30572305461134040E-04 -3.38937845501655164E-04
 -3.47515009598379989E-04 -3.56309147320156908E-04 -3.65325743265169033E-04
 -3.74570420458950981E-04 -3.84048943837318475E-04 -3.93767223816407518E-04
 -4.03731319952044894E-04 -4.13947444690492342E-04 -4.24421967212876760E-04
 -4.35161417375606288E-04 -4.46172489749017379E-04 -4.57462047756775807E-04
 -4.69037127918817630E-04 -4.80904944199941366E-04 -4.93072892466755444E-04
 -5.05548555055468796E-04 -5.18339705453322425E-04 -5.31454313097145213E-04
 -5.44900548291063882E-04 -5.58686787246379601E-04 -5.72821617246172844E-04
 -5.87313841939061335E-04 -6.02172486764535357E-04 -6.17406804512563912E-04
 -6.33026281020280363E-04 -6.49040641011175163E-04 -6.65459854079180832E-04
 -6.82294140820062706E-04 -6.99553979113830705E-04 -7.17250110564803521E-04
 -7.35393547100113136E-04 -7.53995577729390945E-04 -7.73067775473280970E-04
 -7.92622004463839442E-04 -8.12670427217273639E-04 -8.33225512086811912E-04
 -8.54300040901815249E-04 -8.75907116791166136E-04 -8.98060172199597684E-04
 -9.20772977104819621E-04 -9.44059647431304337E-04 -9.67934653672241165E-04
 -9.92412829726505843E-04 -1.01750938194512027E-03 -1.04323989840445831E-03
 -1.06962035840656188E-03 -1.09666714220463062E-03 -1.12439704097577905E-03
 -1.15282726702933261E-03 -1.18197546426482216E-03 -1.21185971889088305E-03
 -1.24249857039262623E-03 -1.27391102277876192E-03 -1.30611655609120018E-03
 -1.33913513819703474E-03 -1.37298723687024910E-03 -1.40769383215343710E-03
 -1.44327642903520109E-03 -1.47975707041336389E-03 -1.51715835038927446E-03
 -1.55550342786590673E-03 -1.59481604048311706E-03 -1.63512051888210384E-03
 -1.67644180130996530E-03 -1.71880544858048667E-03 -1.76223765937930316E-03
 -1.80676528595097156E-03 -1.85241585013781089E-03 -1.89921755982412491E-03
 -1.94719932574288529E-03 -1.99639077870936979E-03 -2.04682228723076457E-03
 -2.09852497556280333E-03 -2.15153074215861974E-03 -2.20587227858276688E-03
 -2.26158308883747097E-03 -2.31869750916870697E-03 -2.37725072831027539E-03
 -2.43727880821654292E-03 -2.49881870526705513E-03 -2.56190829196097612E-03
 -2.62658637912600770E-03 -2.69289273861206572E-03 -2.76086812654609357E-03
 -2.83055430706937936E-03 -2.90199407667229761E-03 -2.97523128903126599E-03
 -3.05031088044924355E-03 -3.12727889585358299E-03 -3.20618251537188245E-03
 -3.28707008154149449E-03 -3.36999112707153832E-03 -3.45499640328827051E-03
 -3.54213790916314483E-03 -3.63146892100273079E-03 -3.72304402281526314E-03
 -3.81691913728819622E-03 -3.91315155751344526E-03 -4.01179997935240205E-03
 -4.11292453451043462E-03 -4.21658682436678971E-03 -4.32284995446043530E-03
 -4.43177856977419737E-03 -4.54343889075584269E-03 -4.65789875005339672E-03
 -4.77522763010054807E-03 -4.89549670143460056E-03 -5.01877886179797911E-03
 -5.14514877611482735E-03 -5.27468291721786865E-03 -5.40745960741670535E-03
 -5.54355906096209907E-03 -5.68306342728827282E-03 -5.82605683513823334E-03
 -5.97262543761225683E-03 -6.12285745802466745E-03 -6.27684323666683440E-03
 -6.43467527852981287E-03 -6.59644830186652611E-03 -6.76225928766247680E-03
 -6.93220753010913727E-03 -7.10639468795114075E-03 -7.28492483672715536E-03
 -7.46790452204747993E-03 -7.65544281378593375E-03 -7.84765136115670586E-03
 -8.04464444881052530E-03 -8.24653905390964649E-03 -8.45345490409580951E-03
 -8.66551453639803626E-03 -8.88284335719074364E-03 -9.10556970305813167E-03
 -9.33382490254478121E-03 -9.56774333890837367E-03 -9.80746251384667124E-03
 -1.00531231120987996E-02 -1.03048690669070922E-02 -1.05628476264853725E-02
 -1.08272094213665813E-02 -1.10981085325780587E-02 -1.13757025606213841E-02
 -1.16601526954000067E-02 -1.19516237869261230E-02 -1.22502844167711056E-02
 -1.25563069702120007E-02 -1.28698677092143748E-02 -1.31911468460737015E-02
 -1.35203286176660865E-02 -1.38576013602309291E-02 -1.42031575847984363E-02
 -1.45571940531359027E-02 -1.49199118540933352E-02 -1.52915164802834222E-02
 -1.56722179050783825E-02 -1.60622306599623767E-02 -1.64617739119914085E-02
 -1.68710715413226339E-02 -1.72903522186673465E-02 -1.77198494827404060E-02
 -1.81598018175405315E-02 -1.86104527292701265E-02 -1.90720508228128978E-02
 -1.95448498775837066E-02 -2.00291089228220691E-02 -2.05250923120551786E-02
 -2.10330697965402449E-02 -2.15533165975564898E-02 -2.20861134773032569E-02
 -2.26317468084157244E-02 -2.31905086418204703E-02 -2.37626967726424186E-02
 -2.43486148039965301E-02 -2.49485722083779039E-02 -2.55628843864627170E-02
 -2.61918727231995503E-02 -2.68358646407015830E-02 -2.74951936477132557E-02
 -2.81701993853500712E-02 -2.88612276687055351E-02 -2.95686305241591729E-02
 -3.02927662220066340E-02 -3.10339993038865232E-02 -3.17927006046704597E-02
 -3.25692472683914713E-02 -3.33640227576844084E-02 -3.41774168564177652E-02
 -3.50098256650625272E-02 -3.58616515880913339E-02 -3.67333033129372613E-02
 -3.76251957799426523E-02 -3.85377501426639665E-02 -3.94713937178476221E-02
 -4.04265599246935309E-02 -4.14036882124582048E-02 -4.24032239756829549E-02
 -4.34256184563163450E-02 -4.44713286319284931E-02 -4.55408170891424963E-02
 -4.66345518813595650E-02 -4.77530063701501820E-02 -4.88966590490769737E-02
 -5.00659933489725970E-02 -5.12614974236596105E-02 -5.24836639150169301E-02
 -5.37329896962479084E-02 -5.50099755920637201E-02 -5.63151260747327409E-02
 -5.76489489347252054E-02 -5.90119549244022684E-02 -6.04046573734411188E-02
 -6.18275717745460779E-02 -6.32812153379345016E-02 -6.47661065130283736E-02
 -6.62827644756372736E-02 -6.78317085790759444E-02 -6.94134577675864922E-02
 -7.10285299499919115E-02 -7.26774413318027057E-02 -7.43607057038505742E-02
 -7.60788336854521796E-02 -7.78323319200409230E-02 -7.96217022211364311E-02
 -8.14474406663698441E-02 -8.33100366375134349E-02 -8.52099718042108878E-02
 -8.71477190488312847E-02 -8.91237413301053799E-02 -9.11384904830607467E-02
 -9.31924059527098336E-02 -9.52859134588950746E-02 -9.74194235896441718E-02
 -9.95933303203293818E-02 -1.01808009455818929E-01 -1.04063816993127681E-01
 -1.06361087401586729E-01 -1.08700131817652992E-01 -1.11081236151582066E-01
 -1.13504659103120353E-01 -1.15970630083372842E-01 -1.18479347040014726E-01
 -1.21030974183040499E-01 -1.23625639608276175E-01 -1.26263432815912430E-01
 -1.28944402121386220E-01 -1.31668551956230312E-01 -1.34435840056208455E-01
 -1.37246174534418508E-01 -1.40099410837182220E-01 -1.42995348580683246E-01
 -1.45933728266508744E-01 -1.48914227874471866E-01 -1.51936459331348278E-01
 -1.54999964854441702E-01 -1.58104213169220381E-01 -1.61248595600626515E-01
 -1.64432422038084114E-01 -1.67654916774659629E-01 -1.70915214221268652E-01
 -1.74212354497448457E-01 -1.77545278900792636E-01 -1.80912825257806165E-01
 -1.84313723159655052E-01 -1.87746589087077476E-01 -1.91209921429578572E-01
 -1.94702095404967412E-01 -1.98221357886305238E-01 -2.01765822144429369E-01
 -2.05333462515405213E-01 -2.08922109003660317E-01 -2.12529441832659510E-01
 -2.16152985956381632E-01 -2.19790105546972508E-01 -2.23437998475229382E-01
 -2.27093690802457004E-01 -2.30754031304182511E-01 -2.34415686048253635E-01
 -2.38075133052039228E-01 -2.41728657045748363E-01 -2.45372344371337897E-01
 -2.49002078049056830E-01 -2.52613533046396832E-01 -2.56202171787083155E-01
 -2.59763239940737078E-01 -2.63291762537101293E-01 -2.66782540452278782E-01
 -2.70230147316128433E-01 -2.73628926895736369E-01 -2.76972991012811753E-01
 -2.80256218056309292E-01 -2.83472252155679338E-01 -2.86614503084150207E-01
 -2.89676146965529457E-01 -2.92650127862152665E-01 -2.95529160325808615E-01
 -2.98305732997670658E-01 -3.00972113347477754E-01 -3.03520353646362928E-01
 -3.05942298271828672E-01 -3.08229592447327394E-01 -3.10373692522725619E-01
 -3.12365877905519840E-01 -3.14197264756279238E-01 -3.15858821565246972E-01
 -3.17341386725743635E-01 -3.18635688227573599E-01 -3.19732365592887424E-01
 -3.20621994177247904E-01 -3.21295111959133239E-01 -3.21742248940302011E-01
 -3.21953959277600010E-01 -3.21920856263829824E-01 -3.21633650271040239E-01
 -3.21083189763915977E-01 -3.20260505483664581E-01 -3.19156857893763690E-01
 -3.17763787967937306E-01 -3.16073171387627638E-01 -3.14077276200775690E-01
 -3.11768823975746845E-01 -3.09141054463525522E-01 -3.06187793757611959E-01
 -3.02903525914201999E-01 -2.99283467965311412E-01 -2.95323648224544988E-01
 -2.91020987741464288E-01 -2.86373384727044267E-01 -2.81379801723864176E-01
 -2.76040355242833102E-01 -2.70356407534225296E-01 -2.64330660101195380E-01
 -2.57967248499585744E-01 -2.51271837898654871E-01 -2.44251718803382617E-01
 -2.36915902260285166E-01 -2.29275213785349097E-01 -2.21342385165027217E-01
 -2.13132143189468631E-01 -2.04661294281811956E-01 -1.95948803888907258E-01
 -1.87015869398013429E-01 -1.77885985241631572E-01 -1.68584998749721937E-01
 -1.59141155206301788E-01 -1.49585130467220606E-01 -1.39950049399394594E-01
 -1.30271488310793354E-01 -1.20587459457113688E-01 -1.10938375637515907E-01
 -1.01366992829715424E-01 -9.19183287740440585E-02 -8.26395553865553745E-02
 -7.35798628761975410E-02 -6.47902934647736212E-02 -5.63235426601842865E-02
 -4.82337261201195577E-02 -4.05761102690892841E-02 -3.34068050012225060E-02
 -2.67824170194915882E-02 -2.07596626338299589E-02 -1.53949391696402687E-02
 -1.07438545109959441E-02 -6.86071447597907946E-03 -3.79796437117205536E-03
 -1.60553003227090077E-03 -3.29325302057760256E-04  6.29408349561059425E-06
  4.53202112801557330E-07  3.22035343480267719E-08  2.25398399088771772E-09
  1.54963429091551790E-10  1.04214301007867954E-11  6.81102863130313477E-13
  4.27929000703969643E-14  2.53379450566160510E-15  1.35505904280667155E-16
  5.79913971333620306E-18  8.82261032735922141E-20 -2.07202361668909582E-20
 -3.67283151639912778E-21 -4.36556453422067021E-22 -4.47904091833710225E-23
 -4.24738116167215617E-24 -3.83136119536319989E-25 -3.33708654373237390E-26
 -2.83124205967697912E-27  0.00000000000000000E+00  0.00000000000000000E+00
  0.00000000000000000E+00  0.00000000000000000E+00  0.00000000000000000E+00
  0.00000000000000000E+00  0.00000000000000000E+00  0.00000000000000000E+00
  0.00000000000000000E+00  0.00000000000000000E+00  0.00000000000000000E+00
  0.00000000000000000E+00  0.00000000000000000E+00  0.00000000000000000E+00
  0.00000000000000000E+00  0.00000000000000000E+00  0.00000000000000000E+00
  0.00000000000000000E+00  0.00000000000000000E+00  0.00000000000000000E+00
  0.00000000000000000E+00  0.00000000000000000E+00  0.00000000000000000E+00
  0.00000000000000000E+00  0.00000000000000000E+00  0.00000000000000000E+00
  0.00000000000000000E+00  0.00000000000000000E+00  0.00000000000000000E+00
  0.00000000000000000E+00  0.00000000000000000E+00  0.00000000000000000E+00
  0.00000000000000000E+00  0.00000000000000000E+00  0.00000000000000000E+00
  0.00000000000000000E+00  0.00000000000000000E+00  0.00000000000000000E+00
  0.00000000000000000E+00  0.00000000000000000E+00  0.00000000000000000E+00
  0.00000000000000000E+00  0.00000000000000000E+00  0.00000000000000000E+00
  0.00000000000000000E+00  0.00000000000000000E+00  0.00000000000000000E+00
  0.00000000000000000E+00  0.00000000000000000E+00  0.00000000000000000E+00
  0.00000000000000000E+00  0.00000000000000000E+00  0.00000000000000000E+00
  0.00000000000000000E+00  0.00000000000000000E+00  0.00000000000000000E+00
  0.00000000000000000E+00  0.00000000000000000E+00  0.00000000000000000E+00
  0.00000000000000000E+00  0.00000000000000000E+00  0.00000000000000000E+00
  0.00000000000000000E+00  0.00000000000000000E+00  0.00000000000000000E+00
  0.00000000000000000E+00  0.00000000000000000E+00  0.00000000000000000E+00
  0.00000000000000000E+00  0.00000000000000000E+00  0.00000000000000000E+00
  0.00000000000000000E+00  0.00000000000000000E+00  0.00000000000000000E+00
  0.00000000000000000E+00  0.00000000000000000E+00  0.00000000000000000E+00
  0.00000000000000000E+00  0.00000000000000000E+00  0.00000000000000000E+00
  0.00000000000000000E+00  0.00000000000000000E+00  0.00000000000000000E+00
  0.00000000000000000E+00  0.00000000000000000E+00  0.00000000000000000E+00
  0.00000000000000000E+00  0.00000000000000000E+00  0.00000000000000000E+00
  0.00000000000000000E+00  0.00000000000000000E+00  0.00000000000000000E+00
  0.00000000000000000E+00  0.00000000000000000E+00  0.00000000000000000E+00
  0.00000000000000000E+00  0.00000000000000000E+00  0.00000000000000000E+00
  0.00000000000000000E+00  0.00000000000000000E+00  0.00000000000000000E+00
  0.00000000000000000E+00  0.00000000000000000E+00  0.00000000000000000E+00
  0.00000000000000000E+00  0.00000000000000000E+00  0.00000000000000000E+00
  0.00000000000000000E+00  0.00000000000000000E+00  0.00000000000000000E+00
  0.00000000000000000E+00  0.00000000000000000E+00  0.00000000000000000E+00
  0.00000000000000000E+00  0.00000000000000000E+00  0.00000000000000000E+00
  0.00000000000000000E+00  0.00000000000000000E+00  0.00000000000000000E+00
  0.00000000000000000E+00  0.00000000000000000E+00  0.00000000000000000E+00
  0.00000000000000000E+00  0.00000000000000000E+00  0.00000000000000000E+00
  0.00000000000000000E+00  0.00000000000000000E+00  0.00000000000000000E+00
  0.00000000000000000E+00  0.00000000000000000E+00  0.00000000000000000E+00
  0.00000000000000000E+00  0.00000000000000000E+00  0.00000000000000000E+00
  0.00000000000000000E+00  0.00000000000000000E+00  0.00000000000000000E+00
  0.00000000000000000E+00  0.00000000000000000E+00  0.00000000000000000E+00
  0.00000000000000000E+00  0.00000000000000000E+00  0.00000000000000000E+00
  0.00000000000000000E+00  0.00000000000000000E+00  0.00000000000000000E+00
  0.00000000000000000E+00  0.00000000000000000E+00  0.00000000000000000E+00
  0.00000000000000000E+00  0.00000000000000000E+00  0.00000000000000000E+00
  0.00000000000000000E+00  0.00000000000000000E+00  0.00000000000000000E+00
  0.00000000000000000E+00  0.00000000000000000E+00  0.00000000000000000E+00
  0.00000000000000000E+00  0.00000000000000000E+00  0.00000000000000000E+00
  0.00000000000000000E+00  0.00000000000000000E+00  0.00000000000000000E+00
  0.00000000000000000E+00  0.00000000000000000E+00  0.00000000000000000E+00
  0.00000000000000000E+00  0.00000000000000000E+00  0.00000000000000000E+00
  0.00000000000000000E+00  0.00000000000000000E+00  0.00000000000000000E+00
  0.00000000000000000E+00  0.00000000000000000E+00  0.00000000000000000E+00
  0.00000000000000000E+00  0.00000000000000000E+00  0.00000000000000000E+00
  0.00000000000000000E+00  0.00000000000000000E+00  0.00000000000000000E+00
  0.00000000000000000E+00  0.00000000000000000E+00  0.00000000000000000E+00
  0.00000000000000000E+00  0.00000000000000000E+00  0.00000000000000000E+00
  0.00000000000000000E+00  0.00000000000000000E+00  0.00000000000000000E+00
  0.00000000000000000E+00  0.00000000000000000E+00  0.00000000000000000E+00
  0.00000000000000000E+00  0.00000000000000000E+00  0.00000000000000000E+00
  0.00000000000000000E+00  0.00000000000000000E+00  0.00000000000000000E+00
  0.00000000000000000E+00  0.00000000000000000E+00  0.00000000000000000E+00
  0.00000000000000000E+00  0.00000000000000000E+00  0.00000000000000000E+00
  0.00000000000000000E+00  0.00000000000000000E+00  0.00000000000000000E+00
  0.00000000000000000E+00  0.00000000000000000E+00  0.00000000000000000E+00
  0.00000000000000000E+00  0.00000000000000000E+00  0.00000000000000000E+00
                       </PP_QIJL.1.2.0>
 <PP_QIJL.1.3.1 type="real" size="   777" columns="3" first_index=" 1" second_index=" 3" composite_index=" 4" angular_momentum="1">
  2.51818855066028536E-10  2.61441327897475017E-10  2.71431492792175488E-10
  2.81803399882838859E-10  2.92571636172888133E-10  3.03751346055535924E-10
  3.15358252616946801E-10  3.27408679746564033E-10  3.39919575085403575E-10
  3.52908533868765799E-10  3.66393823675175684E-10  3.80394410110484411E-10
  3.94929983474888057E-10  4.10020986465927455E-10  4.25688642928203803E-10
  4.41954987688110329E-10  4.58842897550378528E-10  4.76376123478878307E-10
  4.94579323987803956E-10  5.13478099815169680E-10  5.33099029942138375E-10
  5.53469708966667060E-10  5.74618785895247333E-10  5.96576004452387833E-10
  6.19372244910413935E-10  6.43039567495536193E-10  6.67611257494403504E-10
  6.93121872069120790E-10  7.19607288829768443E-10  7.47104756309927789E-10
  7.75652946357257380E-10  8.05292008488243138E-10  8.36063626375922225E-10
  8.68011076474229324E-10  9.01179288845546025E-10  9.35614910380382926E-10
  9.71366370388766914E-10  1.00848394868027452E-09  1.04701984631462140E-09
  1.08702825898095507E-09  1.12856545321107332E-09  1.17168984554125607E-09
  1.21646208461096149E-09  1.26294513649148089E-09  1.31120437322783764E-09
  1.36130766473641886E-09  1.41332547430634446E-09  1.46733095762914617E-09
  1.52340006571370995E-09  1.58161165169064115E-09  1.64204758166231943E-09
  1.70479284989355482E-09  1.76993569825500632E-09  1.83756774038410706E-09
  1.90778409046770655E-09  1.98068349700822970E-09  2.05636848170887352E-09
  2.13494548358537929E-09  2.21652500872507510E-09  2.30122178558146664E-09
  2.38915492641287793E-09  2.48044809467370862E-09  2.57522967900406940E-09
  2.67363297368726077E-09  2.77579636615137886E-09  2.88186353151662864E-09
  2.99198363466246647E-09  3.10631153995481695E-09  3.22500802902352644E-09
  3.34824002683820792E-09  3.47618083643396762E-09  3.60901038259279822E-09
  3.74691546485395928E-09  3.89009002015415818E-09  4.03873539556399812E-09
  4.19306063134530722E-09  4.35328275496574982E-09  4.51962708614980646E-09
  4.69232755383494509E-09  4.87162702493242466E-09  5.05777764599009966E-09
  5.25104119755173736E-09  5.45168946238468384E-09  5.66000460751267654E-09
  5.87627958099030817E-09  6.10081852383545623E-09  6.33393719753626704E-09
  6.57596342818667274E-09  6.82723756722050090E-09  7.08811297008086315E-09
  7.35895649298288057E-09  7.64014900862553711E-09  7.93208594184195893E-09
  8.23517782535554686E-09  8.54985087707350736E-09  8.87654759933362038E-09
  9.21572740086542487E-09  9.56786724284858181E-09  9.93346230937180957E-09
  1.03130267035226410E-08  1.07070941703020800E-08  1.11162188468545228E-08
  1.15409760414560965E-08  1.19819630424289515E-08  1.24397999576836054E-08
  1.29151305864070936E-08  1.34086233242291708E-08  1.39209721027398029E-08
  1.44528973648589911E-08  1.50051470777088456E-08  1.55784977840187867E-08
  1.61737556935421311E-08  1.67917578163774296E-08  1.74333731395604450E-08
  1.80995038484634837E-08  1.87910865947927397E-08  1.95090938132264721E-08
  2.02545350882352061E-08  2.10284585730251956E-08  2.18319524626292799E-08
  2.26661465234344284E-08  2.35322136810303486E-08  2.44313716686568030E-08
  2.53648847385208784E-08  2.63340654385751216E-08  2.73402764571560436E-08
  2.83849325379958721E-08  2.94695024683439969E-08  3.05955111429412612E-08
  3.17645417068698224E-08  3.29782377802411224E-08  3.42383057677678488E-08
  3.55465172565039191E-08  3.69047115051168442E-08  3.83147980281559751E-08
  3.97787592790048055E-08  4.12986534352788066E-08  4.28766172905111725E-08
  4.45148692562116838E-08  4.62157124785108910E-08  4.79815380737601096E-08
  4.98148284876226844E-08  5.17181609823624070E-08  5.36942112572186559E-08
  5.57457572069711576E-08  5.78756828239257622E-08  6.00869822487975068E-08
  6.23827639761737848E-08  6.47662552204485940E-08  6.72408064483461964E-08
  6.98098960843845797E-08  7.24771353958681216E-08  7.52462735642554797E-08
  7.81212029500030303E-08  8.11059645582573003E-08  8.42047537130516936E-08
  8.74219259479483131E-08  9.07620031213760626E-08  9.42296797652219964E-08
  9.78298296755630235E-08  1.01567512754762038E-07  1.05447982114499631E-07
  1.09476691449683756E-07  1.13659302693548932E-07  1.18001693964655077E-07
  1.22509967816899766E-07  1.27190459804077432E-07  1.32049747370965282E-07
  1.37094659083361282E-07  1.42332284209976243E-07  1.47769982669573079E-07
  1.53415395357247003E-07  1.59276454864272168E-07  1.65361396606437925E-07
  1.71678770376532798E-07  1.78237452337053820E-07  1.85046657469853440E-07
  1.92115952500128389E-07  1.99455269312780685E-07  2.07074918879873698E-07
  2.14985605718608393E-07  2.23198442899783962E-07  2.31724967627938986E-07
  2.40577157415112753E-07  2.49767446870329575E-07  2.59308745128354831E-07
  2.69214453942001931E-07  2.79498486462799792E-07  2.90175286736495698E-07
  3.01259849941508481E-07  3.12767743397201257E-07  3.24715128371547529E-07
  3.37118782717931910E-07  3.49996124372804935E-07  3.63365235749210625E-07
  3.77244889057403167E-07  3.91654572588051675E-07  4.06614517992955376E-07
  4.22145728605962149E-07  4.38270008841049502E-07  4.55009994706549701E-07
  4.72389185476035235E-07  4.90431976567343673E-07  5.09163693671714005E-07
  5.28610628176172287E-07  5.48800073928451757E-07  5.69760365406930975E-07
  5.91520917337083998E-07  6.14112265804651437E-07  6.37566110937121606E-07
  6.61915361209047408E-07  6.87194179417391175E-07  7.13438030404846506E-07
  7.40683730605130836E-07  7.68969499451687273E-07  7.98335012738047228E-07
  8.28821458018242153E-07  8.60471592084695704E-07  8.93329800632109648E-07
  9.27442160198986196E-07  9.62856502423592386E-07  9.99622480758531501E-07
  1.03779163971360926E-06  1.07741748668689624E-06  1.11855556656256195E-06
  1.16126353909436983E-06  1.20560125922160389E-06  1.25163086045518718E-06
  1.29941684135513550E-06  1.34902615534630522E-06  1.40052830387461683E-06
  1.45399543310132846E-06  1.50950243427293376E-06  1.56712704781568252E-06
  1.62694997145423618E-06  1.68905497229982805E-06  1.75352900327370291E-06
  1.82046232383021044E-06  1.88994862529257576E-06  1.96208516088280673E-06
  2.03697288064173802E-06  2.11471657147213948E-06  2.19542500237638167E-06
  2.27921107526459125E-06  2.36619198130188373E-06  2.45648936328793251E-06
  2.55022948396419207E-06  2.64754340083244148E-06  2.74856714733403017E-06
  2.85344192103996555E-06  2.96231427868218754E-06  3.07533633871424053E-06
  3.19266599125120237E-06  3.31446711606717429E-06  3.44090980858612389E-06
  3.57217061445188127E-06  3.70843277280391751E-06  3.84988646863330008E-06
  3.99672909466698093E-06  4.14916552282199306E-06  4.30740838609255717E-06
  4.47167837055553587E-06  4.64220451868731883E-06  4.81922454356256217E-06
  5.00298515505705173E-06  5.19374239803389719E-06  5.39176200301753624E-06
  5.59731975019356189E-06  5.81070184642521587E-06  6.03220531678831561E-06
  6.26213841017933629E-06  6.50082102008953826E-06  6.74858512113680661E-06
  7.00577522121050687E-06  7.27274883094115625E-06  7.54987695001426229E-06
  7.83754457145980329E-06  8.13615120490522469E-06  8.44611141838542120E-06
  8.76785540064337525E-06  9.10182954394690910E-06  9.44849704778205813E-06
  9.80833854543706575E-06  1.01818527529685597E-05  1.05695571417274402E-05
  1.09719886361438592E-05  1.13897043362041951E-05  1.18232822663325305E-05
  1.22733221521075391E-05  1.27404462243515873E-05  1.32253000525891877E-05
  1.37285534092696326E-05  1.42509011643719463E-05  1.47930642124527620E-05
  1.53557904338162576E-05  1.59398556894298567E-05  1.65460648514488745E-05
  1.71752528716673319E-05  1.78282858874984884E-05  1.85060623668867086E-05
  1.92095142952502486E-05  1.99396084042469889E-05  2.06973474432827848E-05
  2.14837714969359883E-05  2.22999593492947825E-05  2.31470298955518142E-05
  2.40261436030205170E-05  2.49385040248065079E-05  2.58853593658600817E-05
  2.68680041028253802E-05  2.78877806611899438E-05  2.89460811513214215E-05
  3.00443491638926120E-05  3.11840816264728250E-05  3.23668307256746391E-05
  3.35942058952098686E-05  3.48678758713172026E-05  3.61895708175247397E-05
  3.75610845235870380E-05  3.89842766785314834E-05  4.04610752198668929E-05
  4.19934787608741960E-05  4.35835591013123522E-05  4.52334638215953064E-05
  4.69454189626720693E-05  4.87217317934166930E-05  5.05647936709399288E-05
  5.24770829951701093E-05  5.44611682591426206E-05  5.65197111974892726E-05
  5.86554700366910133E-05  6.08713028520335857E-05  6.31701710307630451E-05
  6.55551428450327909E-05  6.80293971362258234E-05  7.05962271169102392E-05
  7.32590442921217665E-05  7.60213825011194107E-05  7.88869020831693967E-05
  8.18593941688225174E-05  8.49427851040676418E-05  8.81411410074695034E-05
  9.14586724622197425E-05  9.48997393465777085E-05  9.84688558037078002E-05
  1.02170695358200835E-04  1.06010096180147637E-04  1.09992066497355419E-04
  1.14121790159420303E-04  1.18404632354625423E-04  1.22846145483354119E-04
  1.27452075193926103E-04  1.32228366577456888E-04  1.37181170525177366E-04
  1.42316850250029478E-04  1.47641987971700251E-04  1.53163391771171653E-04
  1.58888102615589759E-04  1.64823401550104640E-04  1.70976817058951432E-04
  1.77356132595819918E-04  1.83969394280679530E-04  1.90824918766817185E-04
  1.97931301278483701E-04  2.05297423811753795E-04  2.12932463498695927E-04
  2.20845901132268283E-04  2.29047529847518200E-04  2.37547463953116547E-04
  2.46356147918186039E-04  2.55484365500615283E-04  2.64943249010821797E-04
  2.74744288704855321E-04  2.84899342298546845E-04  2.95420644591948679E-04
  3.06320817191641783E-04  3.17612878330597430E-04  3.29310252762355835E-04
  3.41426781715947162E-04  3.53976732896939738E-04  3.66974810517078530E-04
  3.80436165333079964E-04  3.94376404669110876E-04  4.08811602408162226E-04
  4.23758308928759734E-04  4.39233560950500596E-04  4.55254891262539996E-04
  4.71840338303051163E-04  4.89008455554814985E-04  5.06778320719192027E-04
  5.25169544623147388E-04  5.44202279821875664E-04  5.63897228856920121E-04
  5.84275652105179194E-04  6.05359375168965964E-04  6.27170795749128727E-04
  6.49732889938594150E-04  6.73069217869248673E-04  6.97203928640105649E-04
  7.22161764443560454E-04  7.47968063820584456E-04  7.74648763959503365E-04
  8.02230401931952912E-04  8.30740114772870629E-04  8.60205638299783534E-04
  8.90655304559802253E-04  9.22118037785934087E-04  9.54623348737197253E-04
  9.88201327288169840E-04  1.02288263311930364E-03  1.05869848438380136E-03
  1.09568064417980685E-03  1.13386140465623203E-03  1.17327356858272286E-03
  1.21395042819992852E-03  1.25592574115665381E-03  1.29923370333066509E-03
  1.34390891831984638E-03  1.38998636338003891E-03  1.43750135157143699E-03
  1.48648948986368165E-03  1.53698663297510241E-03  1.58902883265019871E-03
  1.64265228209991795E-03  1.69789325531890210E-03  1.75478804097901116E-03
  1.81337287058722639E-03  1.87368384058494877E-03  1.93575682805485478E-03
  1.99962739969079904E-03  2.06533071367608154E-03  2.13290141410128926E-03
  2.20237351754133193E-03  2.27378029144804754E-03  2.34715412393440934E-03
  2.42252638455658443E-03  2.49992727569715205E-03  2.57938567414424044E-03
  2.66092896245892453E-03  2.74458284972282614E-03  2.83037118125948001E-03
  2.91831573692705442E-03  3.00843601758665194E-03  3.10074901936010280E-03
  3.19526899530380706E-03  3.29200720413047685E-03  3.39097164566270559E-03
  3.49216678272076851E-03  3.59559324913092185E-03  3.70124754362275918E-03
  3.80912170941452750E-03  3.91920299933282926E-03  4.03147352636856141E-03
  4.14590989963475442E-03  4.26248284576370186E-03  4.38115681586215364E-03
  4.50188957823441285E-03  4.62463179718501476E-03  4.74932659832607781E-03
  4.87590912094000139E-03  5.00430605808478268E-03  5.13443518527905828E-03
  5.26620487880815821E-03  5.39951362481777639E-03  5.53424952059020960E-03
  5.67028976962231576E-03  5.80750017235589708E-03  5.94573461466786895E-03
  6.08483455650473976E-03  6.22462852334406975E-03  6.36493160348607177E-03
  6.50554495452123054E-03  6.64625532268618528E-03  6.78683457920970217E-03
  6.92703927816450127E-03  7.06661024077826286E-03  7.20527217161898940E-03
  7.34273331255505014E-03  7.47868514090208481E-03  7.61280211870955618E-03
  7.74474150063739902E-03  7.87414320849955281E-03  8.00062978112378066E-03
  8.12380640876595068E-03  8.24326106192946502E-03  8.35856472505518144E-03
  8.46927174616179078E-03  8.57492031412654399E-03  8.67503307589352277E-03
  8.76911790647448910E-03  8.85666884515581669E-03  8.93716721183463771E-03
  9.01008291786592821E-03  9.07487598619751909E-03  9.13099829588680245E-03
  9.17789556631544608E-03  9.21500959652938982E-03  9.24178077510985282E-03
  9.25765087580748477E-03  9.26206615383816032E-03  9.25448075724330001E-03
  9.23436046662435249E-03  9.20118677590899860E-03  9.15446132536944582E-03
  9.09371069638240624E-03  9.01849157545389982E-03  8.92839629263188043E-03
  8.82305873659935090E-03  8.70216064544122002E-03  8.56543826827175711E-03
  8.41268938855585513E-03  8.24378069501879862E-03  8.05865548047929835E-03
  7.85734164272207380E-03  7.63995995462026390E-03  7.40673256309409313E-03
  7.15799166813054638E-03  6.89418832397305659E-03  6.61590129471505920E-03
  6.32384588590124714E-03  6.01888266237226091E-03  5.70202595051618865E-03
  5.37445201036254767E-03  5.03750674964333501E-03  4.69271283815646170E-03
  4.34177606662224363E-03  3.98659077956457601E-03  3.62924419776698313E-03
  3.27201943143211283E-03  2.91739697130116845E-03  2.56805443200473814E-03
  2.22686430997850798E-03  1.89688950784178763E-03  1.58137636865794966E-03
  1.28374495747985242E-03  1.00757632458886516E-03  7.56596485410228618E-04
  5.34656855934566386E-04  3.45710877205343678E-04  1.93786372903924988E-04
  8.29504765040609915E-05  1.72281036046633227E-05 -3.32671098920179629E-07
 -2.39538043948390989E-08 -1.70210407411071777E-09 -1.19133362580911750E-10
 -8.19052595731807771E-12 -5.50820243545602286E-13 -3.59994013605409110E-14
 -2.26180048331553752E-15 -1.33922628008382825E-16 -7.16210678149719679E-18
 -3.06511056386940534E-19 -4.66315306270399093E-21  1.09515924603355358E-21
  1.94125943445346515E-22  2.30740051672172402E-23  2.36737797560326176E-24
  2.24493519917831549E-25  2.02504962018772715E-26  1.76380286100334885E-27
  1.49644091623287103E-28  0.00000000000000000E+00  0.00000000000000000E+00
  0.00000000000000000E+00  0.00000000000000000E+00  0.00000000000000000E+00
  0.00000000000000000E+00  0.00000000000000000E+00  0.00000000000000000E+00
  0.00000000000000000E+00  0.00000000000000000E+00  0.00000000000000000E+00
  0.00000000000000000E+00  0.00000000000000000E+00  0.00000000000000000E+00
  0.00000000000000000E+00  0.00000000000000000E+00  0.00000000000000000E+00
  0.00000000000000000E+00  0.00000000000000000E+00  0.00000000000000000E+00
  0.00000000000000000E+00  0.00000000000000000E+00  0.00000000000000000E+00
  0.00000000000000000E+00  0.00000000000000000E+00  0.00000000000000000E+00
  0.00000000000000000E+00  0.00000000000000000E+00  0.00000000000000000E+00
  0.00000000000000000E+00  0.00000000000000000E+00  0.00000000000000000E+00
  0.00000000000000000E+00  0.00000000000000000E+00  0.00000000000000000E+00
  0.00000000000000000E+00  0.00000000000000000E+00  0.00000000000000000E+00
  0.00000000000000000E+00  0.00000000000000000E+00  0.00000000000000000E+00
  0.00000000000000000E+00  0.00000000000000000E+00  0.00000000000000000E+00
  0.00000000000000000E+00  0.00000000000000000E+00  0.00000000000000000E+00
  0.00000000000000000E+00  0.00000000000000000E+00  0.00000000000000000E+00
  0.00000000000000000E+00  0.00000000000000000E+00  0.00000000000000000E+00
  0.00000000000000000E+00  0.00000000000000000E+00  0.00000000000000000E+00
  0.00000000000000000E+00  0.00000000000000000E+00  0.00000000000000000E+00
  0.00000000000000000E+00  0.00000000000000000E+00  0.00000000000000000E+00
  0.00000000000000000E+00  0.00000000000000000E+00  0.00000000000000000E+00
  0.00000000000000000E+00  0.00000000000000000E+00  0.00000000000000000E+00
  0.00000000000000000E+00  0.00000000000000000E+00  0.00000000000000000E+00
  0.00000000000000000E+00  0.00000000000000000E+00  0.00000000000000000E+00
  0.00000000000000000E+00  0.00000000000000000E+00  0.00000000000000000E+00
  0.00000000000000000E+00  0.00000000000000000E+00  0.00000000000000000E+00
  0.00000000000000000E+00  0.00000000000000000E+00  0.00000000000000000E+00
  0.00000000000000000E+00  0.00000000000000000E+00  0.00000000000000000E+00
  0.00000000000000000E+00  0.00000000000000000E+00  0.00000000000000000E+00
  0.00000000000000000E+00  0.00000000000000000E+00  0.00000000000000000E+00
  0.00000000000000000E+00  0.00000000000000000E+00  0.00000000000000000E+00
  0.00000000000000000E+00  0.00000000000000000E+00  0.00000000000000000E+00
  0.00000000000000000E+00  0.00000000000000000E+00  0.00000000000000000E+00
  0.00000000000000000E+00  0.00000000000000000E+00  0.00000000000000000E+00
  0.00000000000000000E+00  0.00000000000000000E+00  0.00000000000000000E+00
  0.00000000000000000E+00  0.00000000000000000E+00  0.00000000000000000E+00
  0.00000000000000000E+00  0.00000000000000000E+00  0.00000000000000000E+00
  0.00000000000000000E+00  0.00000000000000000E+00  0.00000000000000000E+00
  0.00000000000000000E+00  0.00000000000000000E+00  0.00000000000000000E+00
  0.00000000000000000E+00  0.00000000000000000E+00  0.00000000000000000E+00
  0.00000000000000000E+00  0.00000000000000000E+00  0.00000000000000000E+00
  0.00000000000000000E+00  0.00000000000000000E+00  0.00000000000000000E+00
  0.00000000000000000E+00  0.00000000000000000E+00  0.00000000000000000E+00
  0.00000000000000000E+00  0.00000000000000000E+00  0.00000000000000000E+00
  0.00000000000000000E+00  0.00000000000000000E+00  0.00000000000000000E+00
  0.00000000000000000E+00  0.00000000000000000E+00  0.00000000000000000E+00
  0.00000000000000000E+00  0.00000000000000000E+00  0.00000000000000000E+00
  0.00000000000000000E+00  0.00000000000000000E+00  0.00000000000000000E+00
  0.00000000000000000E+00  0.00000000000000000E+00  0.00000000000000000E+00
  0.00000000000000000E+00  0.00000000000000000E+00  0.00000000000000000E+00
  0.00000000000000000E+00  0.00000000000000000E+00  0.00000000000000000E+00
  0.00000000000000000E+00  0.00000000000000000E+00  0.00000000000000000E+00
  0.00000000000000000E+00  0.00000000000000000E+00  0.00000000000000000E+00
  0.00000000000000000E+00  0.00000000000000000E+00  0.00000000000000000E+00
  0.00000000000000000E+00  0.00000000000000000E+00  0.00000000000000000E+00
  0.00000000000000000E+00  0.00000000000000000E+00  0.00000000000000000E+00
  0.00000000000000000E+00  0.00000000000000000E+00  0.00000000000000000E+00
  0.00000000000000000E+00  0.00000000000000000E+00  0.00000000000000000E+00
  0.00000000000000000E+00  0.00000000000000000E+00  0.00000000000000000E+00
  0.00000000000000000E+00  0.00000000000000000E+00  0.00000000000000000E+00
  0.00000000000000000E+00  0.00000000000000000E+00  0.00000000000000000E+00
  0.00000000000000000E+00  0.00000000000000000E+00  0.00000000000000000E+00
  0.00000000000000000E+00  0.00000000000000000E+00  0.00000000000000000E+00
  0.00000000000000000E+00  0.00000000000000000E+00  0.00000000000000000E+00
  0.00000000000000000E+00  0.00000000000000000E+00  0.00000000000000000E+00
  0.00000000000000000E+00  0.00000000000000000E+00  0.00000000000000000E+00
  0.00000000000000000E+00  0.00000000000000000E+00  0.00000000000000000E+00
  0.00000000000000000E+00  0.00000000000000000E+00  0.00000000000000000E+00
  0.00000000000000000E+00  0.00000000000000000E+00  0.00000000000000000E+00
  0.00000000000000000E+00  0.00000000000000000E+00  0.00000000000000000E+00
  0.00000000000000000E+00  0.00000000000000000E+00  0.00000000000000000E+00
                       </PP_QIJL.1.3.1>
 <PP_QIJL.2.2.0 type="real" size="   777" columns="3" first_index=" 2" second_index=" 2" composite_index=" 3" angular_momentum="0">
  3.20109061348628361E-05  3.28212625009928558E-05  3.36521329525856904E-05
  3.45040367968567742E-05  3.53775064867350024E-05  3.62730879537355929E-05
  3.71913409492611506E-05  3.81328393943764483E-05  3.90981717382733732E-05
  4.00879413262202977E-05  4.11027667767129658E-05  4.21432823679328749E-05
  4.32101384340190372E-05  4.43040017717513464E-05  4.54255560572663057E-05
  4.65755022730268001E-05  4.77545591460655324E-05  4.89634635973196301E-05
  5.02029712019356033E-05  5.14738566613546735E-05  5.27769142877770767E-05
  5.41129585004451920E-05  5.54828243342871930E-05  5.68873679621339199E-05
  5.83274672297673938E-05  5.98040222040867531E-05  6.13179557359420978E-05
  6.28702140369340499E-05  6.44617672702324886E-05  6.60936101572049995E-05
  6.77667625991568249E-05  6.94822703141348961E-05  7.12412054908318474E-05
  7.30446674586671672E-05  7.48937833741922048E-05  7.67897089260162382E-05
  7.87336290568453438E-05  8.07267587034964578E-05  8.27703435567736284E-05
  8.48656608393772333E-05  8.70140201039677839E-05  8.92167640520131534E-05
  9.14752693719917813E-05  9.37909476002276638E-05  9.61652460028113003E-05
  9.85996484794147748E-05  1.01095676491353800E-04  1.03654890011376901E-04
  1.06278888498938676E-04  1.08969311899563339E-04  1.11727841668983677E-04
  1.14556201824669992E-04  1.17456160021930001E-04  1.20429528659311215E-04
  1.23478166010360893E-04  1.26603977384828271E-04  1.29808916319384520E-04
  1.33094985797417760E-04  1.36464239501504769E-04  1.39918783095225165E-04
  1.43460775540018665E-04  1.47092430442734333E-04  1.50816017439708166E-04
  1.54633863613739679E-04  1.58548354948649602E-04  1.62561937819299300E-04
  1.66677120520267245E-04  1.70896474832560720E-04  1.75222637630336874E-04
  1.79658312528077602E-04  1.84206271569520118E-04  1.88869356959235672E-04
  1.93650482838162509E-04  1.98552637103723435E-04  2.03578883276578961E-04
  2.08732362413636692E-04  2.14016295070853743E-04  2.19433983313769708E-04
  2.24988812781335231E-04  2.30684254799001792E-04  2.36523868548541206E-04
  2.42511303289350499E-04  2.48650300639073477E-04  2.54944696909419337E-04
  2.61398425502468526E-04  2.68015519367510561E-04  2.74800113518628862E-04
  2.81756447618532874E-04  2.88888868624526314E-04  2.96201833504300470E-04
  3.03699912018698186E-04  3.11387789574685573E-04  3.19270270152381935E-04
  3.27352279303190431E-04  3.35638867226260938E-04  3.44135211921867828E-04
  3.52846622423186968E-04  3.61778542112398203E-04  3.70936552118438141E-04
  3.80326374800873663E-04  3.89953877323561955E-04  3.99825075316421477E-04
  4.09946136630562504E-04  4.20323385189519340E-04  4.30963304935887278E-04
  4.41872543878310770E-04  4.53057918241992191E-04  4.64526416722538195E-04
  4.76285204847138070E-04  4.88341629447599720E-04  5.00703223245350937E-04
  5.13377709551383443E-04  5.26373007086383790E-04  5.39697234922509512E-04
  5.53358717549193887E-04  5.67365990066654000E-04  5.81727803511906624E-04
  5.96453130318662589E-04  6.11551169914677922E-04  6.27031354460263991E-04
  6.42903354732769642E-04  6.59177086159129142E-04  6.75862715000521519E-04
  6.92970664692769142E-04  7.10511622347454971E-04  7.28496545417215324E-04
  7.46936668528942836E-04  7.65843510489405081E-04  7.85228881467386073E-04
  8.05104890357458938E-04  8.25483952329681488E-04  8.46378796569517223E-04
  8.67802474212989172E-04  8.89768366481987968E-04  9.12290193024623691E-04
  9.35382020466092373E-04  9.59058271175301444E-04  9.83333732252387061E-04
  1.00822356474280215E-03  1.03374331308368392E-03  1.05990891478833452E-03
  1.08673671037477337E-03  1.11424345354448431E-03  1.14244632161762650E-03
  1.17136292623126379E-03  1.20101132430705071E-03  1.23141002929513972E-03
  1.26257802270128908E-03  1.29453476590423648E-03  1.32730021227061884E-03
  1.36089481957489479E-03  1.39533956273187086E-03  1.43065594684970354E-03
  1.46686602061135772E-03  1.50399238999273798E-03  1.54205823232593736E-03
  1.58108731071617925E-03  1.62110398882134364E-03  1.66213324600309170E-03
  1.70420069285888518E-03  1.74733258714441370E-03  1.79155585009613174E-03
  1.83689808316393971E-03  1.88338758516418516E-03  1.93105336986348908E-03
  1.97992518400411923E-03  2.03003352578188167E-03  2.08140966378783957E-03
  2.13408565642536196E-03  2.18809437181432869E-03  2.24346950819462624E-03
  2.30024561484127709E-03  2.35845811350396525E-03  2.41814332038377397E-03
  2.47933846866084471E-03  2.54208173158644189E-03  2.60641224615328895E-03
  2.67237013735862738E-03  2.73999654307461584E-03  2.80933363954111474E-03
  2.88042466749623832E-03  2.95331395895987499E-03  3.02804696468708667E-03
  3.10467028230845040E-03  3.18323168517306142E-03  3.26378015191198124E-03
  3.34636589673980266E-03  3.43104040051161151E-03  3.51785644255474175E-03
  3.60686813329673785E-03  3.69813094770578060E-03  3.79170175956434910E-03
  3.88763887659526524E-03  3.98600207646162934E-03  4.08685264366743465E-03
  4.19025340737446544E-03  4.29626878015866142E-03  4.40496479772562420E-03
  4.51640915961930116E-03  4.63067127094250568E-03  4.74782228510996392E-03
  4.86793514765548711E-03  4.99108464113502681E-03  5.11734743114394298E-03
  5.24680211346703618E-03  5.37952926238992931E-03  5.51561148022278094E-03
  5.65513344804240928E-03  5.79818197767387362E-03  5.94484606497034350E-03
  6.09521694441475265E-03  6.24938814504674006E-03  6.40745554777478153E-03
  6.56951744412051335E-03  6.73567459638013764E-03  6.90603029926952373E-03
  7.08069044311342415E-03  7.25976357854700525E-03  7.44336098281816756E-03
  7.63159672774332311E-03  7.82458774927415057E-03  8.02245391880799727E-03
  8.22531811624476264E-03  8.43330630477534537E-03  8.64654760757154958E-03
  8.86517438628731634E-03  9.08932232148005476E-03  9.31913049503837500E-03
  9.55474147452052905E-03  9.79630139964411846E-03  1.00439600707942760E-02
  1.02978710397033085E-02  1.05581917023583258E-02  1.08250833940621537E-02
  1.10987114869217710E-02  1.13792454895346624E-02  1.16668591492212620E-02
  1.19617305565935094E-02  1.22640422527162066E-02  1.25739813387998420E-02
  1.28917395885088156E-02  1.32175135630090042E-02  1.35515047286635763E-02
  1.38939195776656491E-02  1.42449697513760479E-02  1.46048721667784154E-02
  1.49738491457216162E-02  1.53521285474454098E-02  1.57399439039972860E-02
  1.61375345590869176E-02  1.65451458099568176E-02  1.69630290528300018E-02
  1.73914419315277721E-02  1.78306484897772649E-02  1.82809193268872322E-02
  1.87425317571816262E-02  1.92157699730617845E-02  1.97009252118354392E-02
  2.01982959265020190E-02  2.07081879602656546E-02  2.12309147253633736E-02
  2.17667973856036714E-02  2.23161650434992448E-02  2.28793549312617493E-02
  2.34567126064377622E-02  2.40485921518307152E-02  2.46553563798676510E-02
  2.52773770418387930E-02  2.59150350413857485E-02  2.65687206532447852E-02
  2.72388337464709099E-02  2.79257840127515901E-02  2.86299911999237620E-02
  2.93518853501894342E-02  3.00919070440809032E-02  3.08505076493458472E-02
  3.16281495752883252E-02  3.24253065329187032E-02  3.32424638001478159E-02
  3.40801184931199125E-02  3.49387798432126279E-02  3.58189694795294986E-02
  3.67212217179295128E-02  3.76460838556898908E-02  3.85941164721944271E-02
  3.95658937363511584E-02  4.05620037197795616E-02  4.15830487164683751E-02
  4.26296455693233670E-02  4.37024260026981984E-02  4.48020369617154815E-02
  4.59291409586871091E-02  4.70844164257501266E-02  4.82685580744714876E-02
  4.94822772628323443E-02  5.07263023686684161E-02  5.20013791700969161E-02
  5.33082712336538644E-02  5.46477603091510902E-02  5.60206467314054643E-02
  5.74277498299405054E-02  5.88699083457188410E-02  6.03479808546799751E-02
  6.18628461991165834E-02  6.34154039265777403E-02  6.50065747356392415E-02
  6.66373009289010915E-02  6.83085468740618623E-02  7.00212994719622978E-02
  7.17765686314438128E-02  7.35753877519132460E-02  7.54188142133996459E-02
  7.73079298733343051E-02  7.92438415699485560E-02  8.12276816334109725E-02
  8.32606084037266769E-02  8.53438067550013474E-02  8.74784886258920813E-02
  8.96658935573467902E-02  9.19072892363360233E-02  9.42039720453025919E-02
  9.65572676169638433E-02  9.89685313955455531E-02  1.01439149203079879E-01
  1.03970537810389119E-01  1.06564145512159966E-01  1.09221452706976738E-01
  1.11943972481343829E-01  1.14733251196779074E-01  1.17590869079478230E-01
  1.20518440812416347E-01  1.23517616130183153E-01  1.26590080414645256E-01
  1.29737555291142087E-01  1.32961799224094596E-01  1.36264608112587060E-01
  1.39647815884647974E-01  1.43113295088758918E-01  1.46662957481963147E-01
  1.50298754613146374E-01  1.54022678402039398E-01  1.57836761711834556E-01
  1.61743078913952842E-01  1.65743746443965195E-01  1.69840923346794875E-01
  1.74036811811289160E-01  1.78333657692024805E-01  1.82733751016128376E-01
  1.87239426473830906E-01  1.91853063890554038E-01  1.96577088679085743E-01
  2.01413972270919617E-01  2.06366232522992410E-01  2.11436434098080051E-01
  2.16627188816534005E-01  2.21941155976236093E-01  2.27381042639494990E-01
  2.32949603883970041E-01  2.38649643013581630E-01  2.44484011726844780E-01
  2.50455610239357473E-01  2.56567387356396615E-01  2.62822340493157169E-01
  2.69223515639138267E-01  2.75774007261243848E-01  2.82476958141976875E-01
  2.89335559148347410E-01  2.96353048926619511E-01  3.03532713517628283E-01
  3.10877885889719707E-01  3.18391945382023367E-01  3.26078317052561462E-01
  3.33940470925577049E-01  3.41981921131907896E-01  3.50206224935681709E-01
  3.58616981640230870E-01  3.67217831368399528E-01  3.76012453707751881E-01
  3.85004566213170363E-01  3.94197922759054131E-01  4.03596311732693724E-01
  4.13203554060017575E-01  4.23023501053818529E-01  4.33060032076391488E-01
  4.43317052006809986E-01  4.53798488500915587E-01  4.64508289033960020E-01
  4.75450417714746998E-01  4.86628851859655709E-01  4.98047578314476214E-01
  5.09710589510876999E-01  5.21621879245530495E-01  5.33785438169365078E-01
  5.46205248970996204E-01  5.58885281240665499E-01  5.71829485999876153E-01
  5.85041789881365126E-01  5.98526088943559853E-01  6.12286242103132539E-01
  6.26326064168107544E-01  6.40649318455745687E-01  6.55259708977489086E-01
  6.70160872171151278E-01  6.85356368162345908E-01  7.00849671536059038E-01
  7.16644161598783191E-01  7.32743112111255424E-01  7.49149680471439816E-01
  7.65866896326950819E-01  7.82897649595286960E-01  8.00244677872710919E-01
  8.17910553208854307E-01  8.35897668224907631E-01  8.54208221554046299E-01
  8.72844202582218287E-01  8.91807375467429053E-01  9.11099262415745348E-01
  9.30721126192438741E-01  9.50673951846934151E-01  9.70958427630472798E-01
  9.91574925085944692E-01  1.01252347829157774E+00  1.03380376223786286E+00
  1.05541507031988613E+00  1.07735629092830054E+00  1.09962588312325571E+00
  1.12222185137710539E+00  1.14514171937341080E+00  1.16838250285173140E+00
  1.19194068148985566E+00  1.21581216981764828E+00  1.23999228715944598E+00
  1.26447572660520580E+00  1.28925652301389104E+00  1.31432802005597194E+00
  1.33968283630672436E+00  1.36531283040644480E+00  1.39120906530879962E+00
  1.41736177164401678E+00  1.44376031022973650E+00  1.47039313376891134E+00
  1.49724774778134040E+00  1.52431067082320526E+00  1.55156739405738353E+00
  1.57900234024646879E+00  1.60659882225118311E+00  1.63433900112539021E+00
  1.66220384390966980E+00  1.69017308124169219E+00  1.71822516491146415E+00
  1.74633722550402548E+00  1.77448503028713489E+00  1.80264294151716187E+00
  1.83078387535327192E+00  1.85887926158765415E+00  1.88689900441841951E+00
  1.91481144451161467E+00  1.94258332261972821E+00  1.97017974504609072E+00
  1.99756415126762854E+00  2.02469828405347974E+00  2.05154216244437926E+00
  2.07805405797071163E+00  2.10419047453155406E+00  2.12990613237957849E+00
  2.15515395668319965E+00  2.17988507116891927E+00  2.20404879737757353E+00
  2.22759266009959012E+00  2.25046239958622651E+00  2.27260199116603134E+00
  2.29395367292810981E+00  2.31445798216614573E+00  2.33405380130910833E+00
  2.35267841409608103E+00  2.37026757278312949E+00  2.38675557719946951E+00
  2.40207536649782094E+00  2.41615862447156049E+00  2.42893589933788068E+00
  2.44033673887623115E+00  2.45028984186946897E+00  2.45872322678935795E+00
  2.46556441867034470E+00  2.47074065511928120E+00  2.47417911240250721E+00
  2.47580715253757688E+00  2.47555259229409774E+00  2.47334399497541391E+00
  2.46911098580917887E+00  2.46278459171886643E+00  2.45429760617879555E+00
  2.44358497977070677E+00  2.43058423695915371E+00  2.41523591948416172E+00
  2.39748405663134356E+00  2.37727666248040492E+00  2.35456626005076863E+00
  2.32931043205657851E+00  2.30147239775324497E+00  2.27102161510423972E+00
  2.23793440716042591E+00  2.20219461128689620E+00  2.16379424949664534E+00
  2.12273421775176496E+00  2.07902499167734023E+00  2.03268734567492793E+00
  1.98375308192754063E+00  1.93226576525606641E+00  1.87828145921821310E+00
  1.82186945823566182E+00  1.76311300989440278E+00  1.70211002088902985E+00
  1.63897373937610258E+00  1.57383340576846820E+00  1.50683486324528193E+00
  1.43814111847715176E+00  1.36793284227850487E+00  1.29640879910787787E+00
  1.22378619355052431E+00  1.15030092114719973E+00  1.07620771019080141E+00
  1.00178014041282037E+00  9.27310523840570999E-01  8.53109632540468565E-01
  7.79506257485231835E-01  7.06846582470067486E-01  6.35493356775731044E-01
  5.65824850237517940E-01  4.98233574561465498E-01  4.33124755127189343E-01
  3.70914538183283127E-01  3.12027919308007995E-01  2.56896380311758599E-01
  2.05955223435933060E-01  1.59640593793061752E-01  1.18386183523254251E-01
  8.26196140088827635E-02  5.27584938208551096E-02  2.92061243052551926E-02
  1.23464322241268430E-02  2.53249234820926991E-03 -4.84011346593357379E-05
 -3.48509779142605125E-06 -2.47643299230522573E-07 -1.73330053118972830E-08
 -1.19165972360603452E-09 -8.01401891161444491E-11 -5.23764125757460414E-12
 -3.29074903473273717E-13 -1.94847318363569199E-14 -1.04203249365813699E-15
 -4.45950458663653043E-17 -6.78453583908063366E-19  1.59337406563851689E-19
  2.82438599567775143E-20  3.35709364250078363E-21  3.44435631945927196E-22
  3.26621131891540617E-23  2.94629439337201187E-24  2.56620007163375531E-25
  2.17720861630079371E-26  0.00000000000000000E+00  0.00000000000000000E+00
  0.00000000000000000E+00  0.00000000000000000E+00  0.00000000000000000E+00
  0.00000000000000000E+00  0.00000000000000000E+00  0.00000000000000000E+00
  0.00000000000000000E+00  0.00000000000000000E+00  0.00000000000000000E+00
  0.00000000000000000E+00  0.00000000000000000E+00  0.00000000000000000E+00
  0.00000000000000000E+00  0.00000000000000000E+00  0.00000000000000000E+00
  0.00000000000000000E+00  0.00000000000000000E+00  0.00000000000000000E+00
  0.00000000000000000E+00  0.00000000000000000E+00  0.00000000000000000E+00
  0.00000000000000000E+00  0.00000000000000000E+00  0.00000000000000000E+00
  0.00000000000000000E+00  0.00000000000000000E+00  0.00000000000000000E+00
  0.00000000000000000E+00  0.00000000000000000E+00  0.00000000000000000E+00
  0.00000000000000000E+00  0.00000000000000000E+00  0.00000000000000000E+00
  0.00000000000000000E+00  0.00000000000000000E+00  0.00000000000000000E+00
  0.00000000000000000E+00  0.00000000000000000E+00  0.00000000000000000E+00
  0.00000000000000000E+00  0.00000000000000000E+00  0.00000000000000000E+00
  0.00000000000000000E+00  0.00000000000000000E+00  0.00000000000000000E+00
  0.00000000000000000E+00  0.00000000000000000E+00  0.00000000000000000E+00
  0.00000000000000000E+00  0.00000000000000000E+00  0.00000000000000000E+00
  0.00000000000000000E+00  0.00000000000000000E+00  0.00000000000000000E+00
  0.00000000000000000E+00  0.00000000000000000E+00  0.00000000000000000E+00
  0.00000000000000000E+00  0.00000000000000000E+00  0.00000000000000000E+00
  0.00000000000000000E+00  0.00000000000000000E+00  0.00000000000000000E+00
  0.00000000000000000E+00  0.00000000000000000E+00  0.00000000000000000E+00
  0.00000000000000000E+00  0.00000000000000000E+00  0.00000000000000000E+00
  0.00000000000000000E+00  0.00000000000000000E+00  0.00000000000000000E+00
  0.00000000000000000E+00  0.00000000000000000E+00  0.00000000000000000E+00
  0.00000000000000000E+00  0.00000000000000000E+00  0.00000000000000000E+00
  0.00000000000000000E+00  0.00000000000000000E+00  0.00000000000000000E+00
  0.00000000000000000E+00  0.00000000000000000E+00  0.00000000000000000E+00
  0.00000000000000000E+00  0.00000000000000000E+00  0.00000000000000000E+00
  0.00000000000000000E+00  0.00000000000000000E+00  0.00000000000000000E+00
  0.00000000000000000E+00  0.00000000000000000E+00  0.00000000000000000E+00
  0.00000000000000000E+00  0.00000000000000000E+00  0.00000000000000000E+00
  0.00000000000000000E+00  0.00000000000000000E+00  0.00000000000000000E+00
  0.00000000000000000E+00  0.00000000000000000E+00  0.00000000000000000E+00
  0.00000000000000000E+00  0.00000000000000000E+00  0.00000000000000000E+00
  0.00000000000000000E+00  0.00000000000000000E+00  0.00000000000000000E+00
  0.00000000000000000E+00  0.00000000000000000E+00  0.00000000000000000E+00
  0.00000000000000000E+00  0.00000000000000000E+00  0.00000000000000000E+00
  0.00000000000000000E+00  0.00000000000000000E+00  0.00000000000000000E+00
  0.00000000000000000E+00  0.00000000000000000E+00  0.00000000000000000E+00
  0.00000000000000000E+00  0.00000000000000000E+00  0.00000000000000000E+00
  0.00000000000000000E+00  0.00000000000000000E+00  0.00000000000000000E+00
  0.00000000000000000E+00  0.00000000000000000E+00  0.00000000000000000E+00
  0.00000000000000000E+00  0.00000000000000000E+00  0.00000000000000000E+00
  0.00000000000000000E+00  0.00000000000000000E+00  0.00000000000000000E+00
  0.00000000000000000E+00  0.00000000000000000E+00  0.00000000000000000E+00
  0.00000000000000000E+00  0.00000000000000000E+00  0.00000000000000000E+00
  0.00000000000000000E+00  0.00000000000000000E+00  0.00000000000000000E+00
  0.00000000000000000E+00  0.00000000000000000E+00  0.00000000000000000E+00
  0.00000000000000000E+00  0.00000000000000000E+00  0.00000000000000000E+00
  0.00000000000000000E+00  0.00000000000000000E+00  0.00000000000000000E+00
  0.00000000000000000E+00  0.00000000000000000E+00  0.00000000000000000E+00
  0.00000000000000000E+00  0.00000000000000000E+00  0.00000000000000000E+00
  0.00000000000000000E+00  0.00000000000000000E+00  0.00000000000000000E+00
  0.00000000000000000E+00  0.00000000000000000E+00  0.00000000000000000E+00
  0.00000000000000000E+00  0.00000000000000000E+00  0.00000000000000000E+00
  0.00000000000000000E+00  0.00000000000000000E+00  0.00000000000000000E+00
  0.00000000000000000E+00  0.00000000000000000E+00  0.00000000000000000E+00
  0.00000000000000000E+00  0.00000000000000000E+00  0.00000000000000000E+00
  0.00000000000000000E+00  0.00000000000000000E+00  0.00000000000000000E+00
  0.00000000000000000E+00  0.00000000000000000E+00  0.00000000000000000E+00
  0.00000000000000000E+00  0.00000000000000000E+00  0.00000000000000000E+00
  0.00000000000000000E+00  0.00000000000000000E+00  0.00000000000000000E+00
  0.00000000000000000E+00  0.00000000000000000E+00  0.00000000000000000E+00
  0.00000000000000000E+00  0.00000000000000000E+00  0.00000000000000000E+00
  0.00000000000000000E+00  0.00000000000000000E+00  0.00000000000000000E+00
  0.00000000000000000E+00  0.00000000000000000E+00  0.00000000000000000E+00
  0.00000000000000000E+00  0.00000000000000000E+00  0.00000000000000000E+00
  0.00000000000000000E+00  0.00000000000000000E+00  0.00000000000000000E+00
  0.00000000000000000E+00  0.00000000000000000E+00  0.00000000000000000E+00
  0.00000000000000000E+00  0.00000000000000000E+00  0.00000000000000000E+00
                       </PP_QIJL.2.2.0>
 <PP_QIJL.2.3.1 type="real" size="   777" columns="3" first_index=" 2" second_index=" 3" composite_index=" 5" angular_momentum="1">
 -3.55782871310187079E-09 -3.69378005050981173E-09 -3.83492633402249009E-09
 -3.98146607127572713E-09 -4.13360535509606446E-09 -4.29155815340500570E-09
 -4.45554661020126171E-09 -4.62580135794702680E-09 -4.80256184179349831E-09
 -4.98607665644320300E-09 -5.17660389581598490E-09 -5.37441151592745318E-09
 -5.57977771165459229E-09 -5.79299130813825520E-09 -6.01435216697421010E-09
 -6.24417160773385795E-09 -6.48277284589967937E-09 -6.73049144753243672E-09
 -6.98767580103934532E-09 -7.25468760705937933E-09 -7.53190238736322419E-09
 -7.81971001288771721E-09 -8.11851525180587914E-09 -8.42873833904040849E-09
 -8.75081556725699102E-09 -9.08519990012798882E-09 -9.43236160962144971E-09
 -9.79278893742820147E-09 -1.01669887812198575E-08 -1.05554874077934847E-08
 -1.09588311932731140E-08 -1.13775873910621234E-08 -1.18123449299313924E-08
 -1.22637152422947903E-08 -1.27323331236126479E-08 -1.32188576255925629E-08
 -1.37239729828988687E-08 -1.42483895750230214E-08 -1.47928449258849884E-08
 -1.53581047405743534E-08 -1.59449639821305694E-08 -1.65542479899828165E-08
 -1.71868136398833839E-08 -1.78435505494756062E-08 -1.85253823292602071E-08
 -1.92332678809731802E-08 -1.99682027468791483E-08 -2.07312205089145863E-08
 -2.15233942427240211E-08 -2.23458380266480619E-08 -2.31997085078710510E-08
 -2.40862065298949916E-08 -2.50065788200987666E-08 -2.59621197439487193E-08
 -2.69541731245072886E-08 -2.79841341323514133E-08 -2.90534512478153114E-08
 -3.01636282970771245E-08 -3.13162265680331255E-08 -3.25128670043810748E-08
 -3.37552324865098586E-08 -3.50450701964909407E-08 -3.63841940762950293E-08
 -3.77744873773899091E-08 -3.92179053098613615E-08 -4.07164777910795012E-08
 -4.22723123006092631E-08 -4.38875968433463944E-08 -4.55646030263913700E-08
 -4.73056892531674313E-08 -4.91133040397486047E-08 -5.09899894577180512E-08
 -5.29383847088313334E-08 -5.49612298357344626E-08 -5.70613695753272960E-08
 -5.92417573579458274E-08 -6.15054594613546443E-08 -6.38556593206669472E-08
 -6.62956620064674191E-08 -6.88288988697170994E-08 -7.14589323689444798E-08
 -7.41894610768196099E-08 -7.70243248826674507E-08 -7.99675103900275713E-08
 -8.30231565224917426E-08 -8.61955603437009876E-08 -8.94891830973883446E-08
 -9.29086564823580504E-08 -9.64587891619784737E-08 -1.00144573527073968E-07
 -1.03971192714448938E-07 -1.07944027893135093E-07 -1.12068665832339227E-07
 -1.16350906753456993E-07 -1.20796772486378375E-07 -1.25412514935959942E-07
 -1.30204624869418393E-07 -1.35179841044181506E-07 -1.40345159680483239E-07
 -1.45707844296084589E-07 -1.51275435919990541E-07 -1.57055763692091392E-07
 -1.63056955869118112E-07 -1.69287451253407397E-07 -1.75756011054395651E-07
 -1.82471731204285763E-07 -1.89444055146709680E-07 -1.96682787110723389E-07
 -2.04198105891343117E-07 -2.12000579159932501E-07 -2.20101178319006111E-07
 -2.28511293922334737E-07 -2.37242751687102988E-07 -2.46307829117417401E-07
 -2.55719272760875796E-07 -2.65490316123498104E-07 -2.75634698271880618E-07
 -2.86166683144347503E-07 -2.97101079598527645E-07 -3.08453262223953936E-07
 -3.20239192952029823E-07 -3.32475443489986388E-07 -3.45179218611009275E-07
 -3.58368380332626290E-07 -3.72061473019959121E-07 -3.86277749447742915E-07
 -4.01037197856615530E-07 -4.16360570042338790E-07 -4.32269410516708649E-07
 -4.48786086782860911E-07 -4.65933820766827904E-07 -4.83736721448381688E-07
 -5.02219818737560114E-07 -5.21409098644411620E-07 -5.41331539790890295E-07
 -5.62015151317012125E-07 -5.83489012234414418E-07 -6.05783312281607339E-07
 -6.28929394338634276E-07 -6.52959798460653363E-07 -6.77908307592189810E-07
 -7.03809995026136878E-07 -7.30701273673993444E-07 -7.58619947216421437E-07
 -7.87605263206216648E-07 -8.17697968197609462E-07 -8.48940364979262229E-07
 -8.81376371991255857E-07 -9.15051585009297309E-07 -9.50013341182587393E-07
 -9.86310785515074632E-07 -1.02399493988318963E-06 -1.06311877468678888E-06
 -1.10373728323362116E-06 -1.14590755896149188E-06 -1.18968887560628967E-06
 -1.23514277042805760E-06 -1.28233313061169617E-06 -1.33132628296318669E-06
 -1.38219108702690096E-06 -1.43499903175432181E-06 -1.48982433585939538E-06
 -1.54674405200098963E-06 -1.60583817493814778E-06 -1.66718975380944956E-06
 -1.73088500869350807E-06 -1.79701345161354884E-06 -1.86566801215532953E-06
 -1.93694516787395174E-06 -2.01094507967185280E-06 -2.08777173233720095E-06
 -2.16753308043899148E-06 -2.25034119978265709E-06 -2.33631244463702999E-06
 -2.42556761095389181E-06 -2.51823210580725181E-06 -2.61443612328848012E-06
 -2.71431482710319582E-06 -2.81800854012464049E-06 -2.92566294116807879E-06
 -3.03742926926065798E-06 -3.15346453568880355E-06 -3.27393174412261486E-06
 -3.39900011912724223E-06 -3.52884534337351383E-06 -3.66364980388053256E-06
 -3.80360284763326952E-06 -3.94890104692566999E-06 -4.09974847480333640E-06
 -4.25635699100299254E-06 -4.41894653876837005E-06 -4.58774545296034081E-06
 -4.76299077988149584E-06 -4.94492860926332284E-06 -5.13381441891074282E-06
 -5.32991343244504976E-06 -5.53350099064679694E-06 -5.74486293689203248E-06
 -5.96429601728507663E-06 -6.19210829601000684E-06 -6.42861958645161961E-06
 -6.67416189865829542E-06 -6.92907990387408455E-06 -7.19373141673302303E-06
 -7.46848789572515970E-06 -7.75373496263060625E-06 -8.04987294180442358E-06
 -8.35731741989857764E-06 -8.67649982673037011E-06 -9.00786803830875714E-06
 -9.35188700280307983E-06 -9.70903939010682576E-06 -1.00798262660977169E-05
 -1.04647677926395609E-05 -1.08644039539113362E-05 -1.12792953103103290E-05
 -1.17100237811781915E-05 -1.21571934568787114E-05 -1.26214314417604459E-05
 -1.31033887292990076E-05 -1.36037411099389799E-05 -1.41231901136723567E-05
 -1.46624639883380068E-05 -1.52223187144885735E-05 -1.58035390593477552E-05
 -1.64069396701248549E-05 -1.70333662087602812E-05 -1.76836965300483026E-05
 -1.83588419034358310E-05 -1.90597482819863596E-05 -1.97873976185398854E-05
 -2.05428092318602774E-05 -2.13270412247137715E-05 -2.21411919545708876E-05
 -2.29864015611634442E-05 -2.38638535501248211E-05 -2.47747764378812780E-05
 -2.57204454572910976E-05 -2.67021843284539959E-05 -2.77213670958417763E-05
 -2.87794200345194274E-05 -2.98778236287474712E-05 -3.10181146239758452E-05
 -3.22018881575404994E-05 -3.34307999676190267E-05 -3.47065686874142740E-05
 -3.60309782230869782E-05 -3.74058802236837211E-05 -3.88331966409322826E-05
 -4.03149223880897028E-05 -4.18531280954464007E-05 -4.34499629722094025E-05
 -4.51076577726436720E-05 -4.68285278760548925E-05 -4.86149764797063987E-05
 -5.04694979129471000E-05 -5.23946810743390094E-05 -5.43932129970744923E-05
 -5.64678825490145956E-05 -5.86215842679362647E-05 -6.08573223441809735E-05
 -6.31782147462607829E-05 -6.55874975062782607E-05 -6.80885291590907884E-05
 -7.06847953510756114E-05 -7.33799136182014408E-05 -7.61776383405347000E-05
 -7.90818658850195528E-05 -8.20966399321645994E-05 -8.52261570078534283E-05
 -8.84747722139880464E-05 -9.18470051734062218E-05 -9.53475461974320304E-05
 -9.89812626740152631E-05 -1.02753205700644882E-04 -1.06668616955245656E-04
 -1.10732935821044242E-04 -1.14951806779361665E-04 -1.19331087064588394E-04
 -1.23876854608662650E-04 -1.28595416275410529E-04 -1.33493316389842565E-04
 -1.38577345590860425E-04 -1.43854550000191070E-04 -1.49332240724185010E-04
 -1.55018003712487849E-04 -1.60919709965573780E-04 -1.67045526115335052E-04
 -1.73403925398945332E-04 -1.80003699019451945E-04 -1.86853967921313122E-04
 -1.93964195000588432E-04 -2.01344197744386270E-04 -2.09004161328681689E-04
 -2.16954652198229230E-04 -2.25206632123252625E-04 -2.33771472759237406E-04
 -2.42660970742563520E-04 -2.51887363316377697E-04 -2.61463344506508255E-04
 -2.71402081891214636E-04 -2.81717233961833102E-04 -2.92422968087313519E-04
 -3.03533979127482362E-04 -3.15065508709116233E-04 -3.27033365169689637E-04
 -3.39453944199379250E-04 -3.52344250227007016E-04 -3.65721918546049068E-04
 -3.79605238200714668E-04 -3.94013175681592778E-04 -4.08965399453288872E-04
 -4.24482305321130038E-04 -4.40585042662060907E-04 -4.57295541581739502E-04
 -4.74636541002834125E-04 -4.92631617705181378E-04 -5.11305216345544545E-04
 -5.30682680525348515E-04 -5.50790284905469229E-04 -5.71655268397084303E-04
 -5.93305868455706680E-04 -6.15771356553753519E-04 -6.39082074832437791E-04
 -6.63269473964517124E-04 -6.88366152253430067E-04 -7.14405896045276919E-04
 -7.41423721472687209E-04 -7.69455917550906942E-04 -7.98540090661305864E-04
 -8.28715210472650643E-04 -8.60021657369933212E-04 -8.92501271383646755E-04
 -9.26197402670252416E-04 -9.61154963566214103E-04 -9.97420482304019586E-04
 -1.03504215841411160E-03 -1.07406991982893197E-03 -1.11455548173929769E-03
 -1.15655240722381623E-03 -1.20011616975564356E-03 -1.24530421758811574E-03
 -1.29217604004650184E-03 -1.34079323577500549E-03 -1.39121958295322732E-03
 -1.44352111158506120E-03 -1.49776617787228394E-03 -1.55402554068118288E-03
 -1.61237244015468781E-03 -1.67288267848370248E-03 -1.73563470288976376E-03
 -1.80070969090249705E-03 -1.86819163788383489E-03 -1.93816744684755936E-03
 -2.01072702059982211E-03 -2.08596335618880949E-03 -2.16397264174940894E-03
 -2.24485435575424736E-03 -2.32871136862376846E-03 -2.41565004672744362E-03
 -2.50578035877677911E-03 -2.59921598457009189E-03 -2.69607442614214253E-03
 -2.79647712132421143E-03 -2.90054955961015042E-03 -3.00842140032975139E-03
 -3.12022659309294783E-03 -3.23610350044234267E-03 -3.35619502262975893E-03
 -3.48064872458685387E-03 -3.60961696489472310E-03 -3.74325702666719953E-03
 -3.88173125026153830E-03 -4.02520716769929655E-03 -4.17385763864546247E-03
 -4.32786098777031628E-03 -4.48740114348956855E-03 -4.65266777775451106E-03
 -4.82385644670034561E-03 -5.00116873194623914E-03 -5.18481238229931071E-03
 -5.37500145558798218E-03 -5.57195646026480921E-03 -5.77590449656984958E-03
 -5.98707939692171183E-03 -6.20572186502046062E-03 -6.43207961329676347E-03
 -6.66640749825553325E-03 -6.90896765322172347E-03 -7.16002961795503354E-03
 -7.41987046449299730E-03 -7.68877491869339805E-03 -7.96703547690928542E-03
 -8.25495251688386847E-03 -8.55283440216112432E-03 -8.86099757919286968E-03
 -9.17976666625722366E-03 -9.50947453324070893E-03 -9.85046237126598057E-03
 -1.02030797509897117E-02 -1.05676846685936968E-02 -1.09446435782631756E-02
 -1.13343314096490799E-02 -1.17371315689981867E-02 -1.21534359224714072E-02
 -1.25836447600735698E-02 -1.30281667385221053E-02 -1.34874188012812073E-02
 -1.39618260738630998E-02 -1.44518217322959098E-02 -1.49578468430033810E-02
 -1.54803501716768849E-02 -1.60197879587142059E-02 -1.65766236588303847E-02
 -1.71513276422432283E-02 -1.77443768547007955E-02 -1.83562544334794978E-02
 -1.89874492763391876E-02 -1.96384555602750824E-02 -2.03097722067022354E-02
 -2.10019022895423513E-02 -2.17153523830403948E-02 -2.24506318451302700E-02
 -2.32082520324579968E-02 -2.39887254430239359E-02 -2.47925647821958840E-02
 -2.56202819476862749E-02 -2.64723869289302666E-02 -2.73493866161480387E-02
 -2.82517835142238743E-02 -2.91800743563909171E-02 -3.01347486125111558E-02
 -3.11162868865762846E-02 -3.21251591985748097E-02 -3.31618231447350573E-02
 -3.42267219305811693E-02 -3.53202822711973508E-02 -3.64429121529749253E-02
 -3.75949984510825855E-02 -3.87769043968945251E-02 -3.99889668896343115E-02
 -4.12314936465486767E-02 -4.25047601860198548E-02 -4.38090066381613824E-02
 -4.51444343776212925E-02 -4.65112024733912652E-02 -4.79094239511560285E-02
 -4.93391618639785270E-02 -5.08004251668881801E-02 -5.22931643921023329E-02
 -5.38172671220398108E-02 -5.53725532579565638E-02 -5.69587700828169258E-02
 -5.85755871179152385E-02 -6.02225907737760982E-02 -6.18992787970115144E-02
 -6.36050545160993380E-02 -6.53392208904869376E-02 -6.71009743690256094E-02
 -6.88893985655163743E-02 -7.07034577610768239E-02 -7.25419902451566317E-02
 -7.44037015099129756E-02 -7.62871573144287274E-02 -7.81907766384819930E-02
 -8.01128245487429252E-02 -8.20514050035456577E-02 -8.40044536260096120E-02
 -8.59697304791993966E-02 -8.79448128812259228E-02 -8.99270883027187412E-02
 -9.19137473939419802E-02 -9.39017771940026114E-02 -9.58879545801031713E-02
 -9.78688400206409737E-02 -9.98407717021359969E-02 -1.01799860106496831E-01
 -1.03741983121986792E-01 -1.05662781778485121E-01 -1.07557656705276269E-01
 -1.09421765416630346E-01 -1.11250020539288536E-01 -1.13037089104056368E-01
 -1.14777393032026567E-01 -1.16465110954607612E-01 -1.18094181515217278E-01
 -1.19658308309185085E-01 -1.21150966627024445E-01 -1.22565412174674510E-01
 -1.23894691952475586E-01 -1.25131657482391023E-01 -1.26268980580189316E-01
 -1.27299171875778355E-01 -1.28214602290469354E-01 -1.29007527684422724E-01
 -1.29670116890673343E-01 -1.30194483353698792E-01 -1.30572720590192370E-01
 -1.30796941687246648E-01 -1.30859323048442749E-01 -1.30752152591336268E-01
 -1.30467882584385131E-01 -1.29999187302152597E-01 -1.29339025657312090E-01
 -1.28480708943528227E-01 -1.27417973795504652E-01 -1.26145060438579260E-01
 -1.24656796260258509E-01 -1.22948684689467583E-01 -1.21016999315512921E-01
 -1.18858883117244601E-01 -1.16472452603131216E-01 -1.13856906584406448E-01
 -1.11012639215588571E-01 -1.07941356839102567E-01 -1.04646198063020904E-01
 -1.01131856382800353E-01 -9.74047045291009383E-02 -9.34729195842511490E-02
 -8.93466077597373232E-02 -8.50379275664808060E-02 -8.05612099391014441E-02
 -7.59330736955427521E-02 -7.11725345253678976E-02 -6.63011055052135229E-02
 -6.13428869400455962E-02 -5.63246431217510959E-02 -5.12758633990614623E-02
 -4.62288047490487103E-02 -4.12185128444418278E-02 -3.62828184275529042E-02
 -3.14623056329356651E-02 -2.68002487534605253E-02 -2.23425138246966457E-02
 -1.81374213174941637E-02 -1.42355661863523345E-02 -1.06895915292707297E-02
 -7.55391216913442205E-03 -4.88438439222630121E-03 -2.73791540170679505E-03
 -1.17196779007770085E-03 -2.43407673587004326E-04  4.70015157303063538E-06
  3.38431897967442221E-07  2.40482180969765586E-08  1.68317856090484519E-09
  1.15720041768562594E-10  7.78227697735523494E-12  5.08618402626871062E-13
  3.19559021930177003E-14  1.89212905100911049E-15  1.01189996860365853E-16
  4.33054878678843883E-18  6.58834695111571157E-20 -1.54729835855051590E-20
 -2.74271303221809815E-21 -3.26001633549882807E-22 -3.34475563164551550E-23
 -3.17176206229488709E-24 -2.86109619641896964E-25 -2.49199308823937095E-26
 -2.11425012548712992E-27  0.00000000000000000E+00  0.00000000000000000E+00
  0.00000000000000000E+00  0.00000000000000000E+00  0.00000000000000000E+00
  0.00000000000000000E+00  0.00000000000000000E+00  0.00000000000000000E+00
  0.00000000000000000E+00  0.00000000000000000E+00  0.00000000000000000E+00
  0.00000000000000000E+00  0.00000000000000000E+00  0.00000000000000000E+00
  0.00000000000000000E+00  0.00000000000000000E+00  0.00000000000000000E+00
  0.00000000000000000E+00  0.00000000000000000E+00  0.00000000000000000E+00
  0.00000000000000000E+00  0.00000000000000000E+00  0.00000000000000000E+00
  0.00000000000000000E+00  0.00000000000000000E+00  0.00000000000000000E+00
  0.00000000000000000E+00  0.00000000000000000E+00  0.00000000000000000E+00
  0.00000000000000000E+00  0.00000000000000000E+00  0.00000000000000000E+00
  0.00000000000000000E+00  0.00000000000000000E+00  0.00000000000000000E+00
  0.00000000000000000E+00  0.00000000000000000E+00  0.00000000000000000E+00
  0.00000000000000000E+00  0.00000000000000000E+00  0.00000000000000000E+00
  0.00000000000000000E+00  0.00000000000000000E+00  0.00000000000000000E+00
  0.00000000000000000E+00  0.00000000000000000E+00  0.00000000000000000E+00
  0.00000000000000000E+00  0.00000000000000000E+00  0.00000000000000000E+00
  0.00000000000000000E+00  0.00000000000000000E+00  0.00000000000000000E+00
  0.00000000000000000E+00  0.00000000000000000E+00  0.00000000000000000E+00
  0.00000000000000000E+00  0.00000000000000000E+00  0.00000000000000000E+00
  0.00000000000000000E+00  0.00000000000000000E+00  0.00000000000000000E+00
  0.00000000000000000E+00  0.00000000000000000E+00  0.00000000000000000E+00
  0.00000000000000000E+00  0.00000000000000000E+00  0.00000000000000000E+00
  0.00000000000000000E+00  0.00000000000000000E+00  0.00000000000000000E+00
  0.00000000000000000E+00  0.00000000000000000E+00  0.00000000000000000E+00
  0.00000000000000000E+00  0.00000000000000000E+00  0.00000000000000000E+00
  0.00000000000000000E+00  0.00000000000000000E+00  0.00000000000000000E+00
  0.00000000000000000E+00  0.00000000000000000E+00  0.00000000000000000E+00
  0.00000000000000000E+00  0.00000000000000000E+00  0.00000000000000000E+00
  0.00000000000000000E+00  0.00000000000000000E+00  0.00000000000000000E+00
  0.00000000000000000E+00  0.00000000000000000E+00  0.00000000000000000E+00
  0.00000000000000000E+00  0.00000000000000000E+00  0.00000000000000000E+00
  0.00000000000000000E+00  0.00000000000000000E+00  0.00000000000000000E+00
  0.00000000000000000E+00  0.00000000000000000E+00  0.00000000000000000E+00
  0.00000000000000000E+00  0.00000000000000000E+00  0.00000000000000000E+00
  0.00000000000000000E+00  0.00000000000000000E+00  0.00000000000000000E+00
  0.00000000000000000E+00  0.00000000000000000E+00  0.00000000000000000E+00
  0.00000000000000000E+00  0.00000000000000000E+00  0.00000000000000000E+00
  0.00000000000000000E+00  0.00000000000000000E+00  0.00000000000000000E+00
  0.00000000000000000E+00  0.00000000000000000E+00  0.00000000000000000E+00
  0.00000000000000000E+00  0.00000000000000000E+00  0.00000000000000000E+00
  0.00000000000000000E+00  0.00000000000000000E+00  0.00000000000000000E+00
  0.00000000000000000E+00  0.00000000000000000E+00  0.00000000000000000E+00
  0.00000000000000000E+00  0.00000000000000000E+00  0.00000000000000000E+00
  0.00000000000000000E+00  0.00000000000000000E+00  0.00000000000000000E+00
  0.00000000000000000E+00  0.00000000000000000E+00  0.00000000000000000E+00
  0.00000000000000000E+00  0.00000000000000000E+00  0.00000000000000000E+00
  0.00000000000000000E+00  0.00000000000000000E+00  0.00000000000000000E+00
  0.00000000000000000E+00  0.00000000000000000E+00  0.00000000000000000E+00
  0.00000000000000000E+00  0.00000000000000000E+00  0.00000000000000000E+00
  0.00000000000000000E+00  0.00000000000000000E+00  0.00000000000000000E+00
  0.00000000000000000E+00  0.00000000000000000E+00  0.00000000000000000E+00
  0.00000000000000000E+00  0.00000000000000000E+00  0.00000000000000000E+00
  0.00000000000000000E+00  0.00000000000000000E+00  0.00000000000000000E+00
  0.00000000000000000E+00  0.00000000000000000E+00  0.00000000000000000E+00
  0.00000000000000000E+00  0.00000000000000000E+00  0.00000000000000000E+00
  0.00000000000000000E+00  0.00000000000000000E+00  0.00000000000000000E+00
  0.00000000000000000E+00  0.00000000000000000E+00  0.00000000000000000E+00
  0.00000000000000000E+00  0.00000000000000000E+00  0.00000000000000000E+00
  0.00000000000000000E+00  0.00000000000000000E+00  0.00000000000000000E+00
  0.00000000000000000E+00  0.00000000000000000E+00  0.00000000000000000E+00
  0.00000000000000000E+00  0.00000000000000000E+00  0.00000000000000000E+00
  0.00000000000000000E+00  0.00000000000000000E+00  0.00000000000000000E+00
  0.00000000000000000E+00  0.00000000000000000E+00  0.00000000000000000E+00
  0.00000000000000000E+00  0.00000000000000000E+00  0.00000000000000000E+00
  0.00000000000000000E+00  0.00000000000000000E+00  0.00000000000000000E+00
  0.00000000000000000E+00  0.00000000000000000E+00  0.00000000000000000E+00
  0.00000000000000000E+00  0.00000000000000000E+00  0.00000000000000000E+00
  0.00000000000000000E+00  0.00000000000000000E+00  0.00000000000000000E+00
  0.00000000000000000E+00  0.00000000000000000E+00  0.00000000000000000E+00
  0.00000000000000000E+00  0.00000000000000000E+00  0.00000000000000000E+00
  0.00000000000000000E+00  0.00000000000000000E+00  0.00000000000000000E+00
                       </PP_QIJL.2.3.1>
 <PP_QIJL.3.3.0 type="real" size="   777" columns="3" first_index=" 3" second_index=" 3" composite_index=" 6" angular_momentum="0">
  4.28467271193461437E-08  4.39313923875743219E-08  4.50435158420289318E-08
  4.61837925775147778E-08  4.73529352844271750E-08  4.85516746943036943E-08
  4.97807600366569428E-08  5.10409595071495856E-08  5.23330607474010893E-08
  5.36578713374894037E-08  5.50162193007690595E-08  5.64089536211471346E-08
  5.78369447734947105E-08  5.93010852679941571E-08  6.08022902079148221E-08
  6.23414978611137898E-08  6.39196702466265069E-08  6.55377937361029494E-08
  6.71968796699276892E-08  6.88979649891079815E-08  7.06421128837312329E-08
  7.24304134572419474E-08  7.42639844072632653E-08  7.61439717245864574E-08
  7.80715504093354295E-08  8.00479252046890809E-08  8.20743313502366959E-08
  8.41520353540264392E-08  8.62823357833786485E-08  8.84665640768604453E-08
  9.07060853764871620E-08  9.30022993800872157E-08  9.53566412165550700E-08
  9.77705823427577335E-08  1.00245631462290593E-07  1.02783335469023728E-07
  1.05385280413553973E-07  1.08053092493716616E-07  1.10788439071682880E-07
  1.13593029715194548E-07  1.16468617265775602E-07  1.19416998934762541E-07
  1.22440017425242712E-07  1.25539562084285493E-07  1.28717570083396962E-07
  1.31976027628280106E-07  1.35316971201049511E-07  1.38742488831528204E-07
  1.42254721402654654E-07  1.45855863988134990E-07  1.49548167223257166E-07
  1.53333938712366622E-07  1.57215544469230455E-07  1.61195410396622767E-07
  1.65276023801190235E-07  1.69459934947725665E-07  1.73749758652951679E-07
  1.78148175918221184E-07  1.82657935605955826E-07  1.87281856155359477E-07
  1.92022827345036892E-07  1.96883812096693930E-07  2.01867848327731019E-07
  2.06978050847871866E-07  2.12217613306094970E-07  2.17589810185030513E-07
  2.23097998847100177E-07  2.28745621631566854E-07  2.34536208005137377E-07
  2.40473376766712783E-07  2.46560838308028694E-07  2.52802396931380326E-07
  2.59201953226180596E-07  2.65763506505194886E-07  2.72491157303197550E-07
  2.79389109937542824E-07  2.86461675135383685E-07  2.93713272724778364E-07
  3.01148434397133201E-07  3.08771806535582127E-07  3.16588153119298372E-07
  3.24602358696720345E-07  3.32819431438172670E-07  3.41244506262368870E-07
  3.49882848043876321E-07  3.58739854901603887E-07  3.67821061568599246E-07
  3.77132142850518359E-07  3.86678917167264980E-07  3.96467350188090679E-07
  4.06503558556336146E-07  4.16793813708144826E-07  4.27344545790304646E-07
  4.38162347673257671E-07  4.49253979068958233E-07  4.60626370751682214E-07
  4.72286628883773001E-07  4.84242039454258143E-07  4.96500072826755695E-07
  5.09068388402652273E-07  5.21954839404462166E-07  5.35167477777121654E-07
  5.48714559214247364E-07  5.62604548313025369E-07  5.76846123856801301E-07
  5.91448184231989879E-07  6.06419852983548128E-07  6.21770484508765149E-07
  6.37509669894717897E-07  6.53647242905447232E-07  6.70193286119000879E-07
  6.87158137218327333E-07  7.04552395443040899E-07  7.22386928204008599E-07
  7.40672877863950665E-07  7.59421668688971857E-07  7.78645013977455232E-07
  7.98354923368152616E-07  8.18563710332262177E-07  8.39283999854447063E-07
  8.60528736309238929E-07  8.82311191535626734E-07  9.04644973115249387E-07
  9.27544032859044372E-07  9.51022675509019226E-07  9.75095567659772706E-07
  9.99777746904765971E-07  1.02508463121336928E-06  1.05103202854418850E-06
  1.07763614670150475E-06  1.10491360344057202E-06  1.13288143682753275E-06
  1.16155711586065323E-06  1.19095855135946702E-06  1.22110410712836807E-06
  1.25201261140198103E-06  1.28370336857932567E-06  1.31619617125364314E-06
  1.34951131254549145E-06  1.38366959874674618E-06  1.41869236228331696E-06
  1.45460147500455467E-06  1.49141936180754539E-06  1.52916901460468300E-06
  1.56787400664329272E-06  1.60755850718592120E-06  1.64824729656035337E-06
  1.68996578158869317E-06  1.73274001140496426E-06  1.77659669367098078E-06
  1.82156321120046233E-06  1.86766763900157332E-06  1.91493876174841669E-06
  1.96340609169217233E-06  2.01309988702287027E-06  2.06405117069310500E-06
  2.11629174971517151E-06  2.16985423494352141E-06  2.22477206135460361E-06
  2.28107950883653340E-06  2.33881172350132896E-06  2.39800473953269065E-06
  2.45869550158276285E-06  2.52092188773149613E-06  2.58472273302266680E-06
  2.65013785359091669E-06  2.71720807139448162E-06  2.78597523956876034E-06
  2.85648226841611059E-06  2.92877315204771235E-06  3.00289299569372398E-06
  3.07888804369827046E-06  3.15680570821633513E-06  3.23669459862971008E-06
  3.31860455170035900E-06  3.40258666247924186E-06  3.48869331598914956E-06
  3.57697821970091266E-06  3.66749643682252768E-06  3.76030442042135205E-06
  3.85546004839995508E-06  3.95302265934596661E-06  4.05305308927856518E-06
  4.15561370931443487E-06  4.26076846427424544E-06  4.36858291225344564E-06
  4.47912426518102900E-06  4.59246143038940447E-06  4.70866505322132684E-06
  4.82780756070255969E-06  4.94996320630201699E-06  5.07520811580719871E-06
  5.20362033434054525E-06  5.33527987454549348E-06  5.47026876597810118E-06
  5.60867110572511768E-06  5.75057311027953243E-06  5.89606316869993676E-06
  6.04523189709927410E-06  6.19817219448791294E-06  6.35497929999877436E-06
  6.51575085152341645E-06  6.68058694581494523E-06  6.84959020008232192E-06
  7.02286581510086501E-06  7.20052163987723493E-06  7.38266823793712118E-06
  7.56941895524378132E-06  7.76088998977559895E-06  7.95720046284139679E-06
  8.15847249216498218E-06  8.36483126674357853E-06  8.57640512356033835E-06
  8.79332562621386623E-06  9.01572764544449763E-06  9.24374944164652775E-06
  9.47753274944720756E-06  9.71722286431003168E-06  9.96296873128064522E-06
  1.02149230359459275E-05  1.04732422975493809E-05  1.07380869644403871E-05
  1.10096215118611422E-05  1.12880145420512919E-05  1.15734388868976947E-05
  1.18660717130086067E-05  1.21660946293579978E-05  1.24736937976153762E-05
  1.27890600450331282E-05  1.31123889802133780E-05  1.34438811115765075E-05
  1.37837419687362339E-05  1.41321822268568658E-05  1.44894178338926918E-05
  1.48556701410766649E-05  1.52311660363509876E-05  1.56161380812056264E-05
  1.60108246506437962E-05  1.64154700766178166E-05  1.68303247948534268E-05
  1.72556454951747912E-05  1.76916952754961498E-05  1.81387437993580915E-05
  1.85970674573949234E-05  1.90669495324226974E-05  1.95486803686999064E-05
  2.00425575449189845E-05  2.05488860515924286E-05  2.10679784723087854E-05
  2.16001551695899218E-05  2.21457444747854102E-05  2.27050828827548961E-05
  2.32785152507935284E-05  2.38663950024962827E-05  2.44690843361305769E-05
  2.50869544380387922E-05  2.57203857008976741E-05  2.63697679470196260E-05
  2.70355006569495032E-05  2.77179932030510079E-05  2.84176650888689468E-05
  2.91349461934578227E-05  2.98702770218597805E-05  3.06241089607518357E-05
  3.13969045403054189E-05  3.21891377017826882E-05  3.30012940710822550E-05
  3.38338712388071858E-05  3.46873790460198203E-05  3.55623398770305818E-05
  3.64592889581842280E-05  3.73787746634587264E-05  3.83213588270287672E-05
  3.92876170621181840E-05  4.02781390875484952E-05  4.12935290608725712E-05
  4.23344059188110675E-05  4.34014037254641655E-05  4.44951720272750544E-05
  4.56163762162100999E-05  4.67656979005245385E-05  4.79438352828797537E-05
  4.91515035472105043E-05  5.03894352531323249E-05  5.16583807384140011E-05
  5.29591085304573930E-05  5.42924057654997470E-05  5.56590786164770337E-05
  5.70599527301093878E-05  5.84958736719950282E-05  5.99677073807929154E-05
  6.14763406319076823E-05  6.30226815094942177E-05  6.46076598877901221E-05
  6.62322279223255295E-05  6.78973605497747460E-05  6.96040559971590104E-05
  7.13533363013700453E-05  7.31462478376876222E-05  7.49838618574958222E-05
  7.68672750366702993E-05  7.87976100333762558E-05  8.07760160549756410E-05
  8.28036694354258754E-05  8.48817742227537001E-05  8.70115627757205674E-05
  8.91942963701614988E-05  9.14312658161351208E-05  9.37237920844017546E-05
  9.60732269420236314E-05  9.84809535982795700E-05  1.00948387360608104E-04
  1.03476976299549448E-04  1.06068201922545594E-04  1.08723579858099453E-04
  1.11444660548985178E-04  1.14233029953977668E-04  1.17090310257863121E-04
  1.20018160591205591E-04  1.23018277758133896E-04  1.26092396971782525E-04
  1.29242292596896372E-04  1.32469778901044948E-04  1.35776710812614032E-04
  1.39164984685070107E-04  1.42636539066699503E-04  1.46193355476985034E-04
  1.49837459188322534E-04  1.53570920011847773E-04  1.57395853086704610E-04
  1.61314419672575142E-04  1.65328827945869186E-04  1.69441333797020724E-04
  1.73654241628498271E-04  1.77969905152029924E-04  1.82390728185791715E-04
  1.86919165449855006E-04  1.91557723357923632E-04  1.96308960804519541E-04
  2.01175489945706453E-04  2.06159976974087299E-04  2.11265142885253601E-04
  2.16493764233728495E-04  2.21848673877069700E-04  2.27332761705625126E-04
  2.32948975358059123E-04  2.38700320919791204E-04  2.44589863601377393E-04
  2.50620728395119078E-04  2.56796100706952813E-04  2.63119226961688998E-04
  2.69593415180361111E-04  2.76222035524646063E-04  2.83008520806025325E-04
  2.89956366956585629E-04  2.97069133457279907E-04  3.04350443721939290E-04
  3.11803985433135573E-04  3.19433510824485782E-04  3.27242836905967211E-04
  3.35235845627868481E-04  3.43416483977960119E-04  3.51788764008583680E-04
  3.60356762788983335E-04  3.69124622275605256E-04  3.78096549095519995E-04
  3.87276814237104969E-04  3.96669752641462168E-04  4.06279762687518072E-04
  4.16111305566862165E-04  4.26168904538564808E-04  4.36457144056619022E-04
  4.46980668762485690E-04  4.57744182334481118E-04  4.68752446185004214E-04
  4.80010277996099021E-04  4.91522550086891065E-04  5.03294187600192918E-04
  5.15330166498225947E-04  5.27635511357031303E-04  5.40215292948294777E-04
  5.53074625596799920E-04  5.66218664300271427E-04  5.79652601600805901E-04
  5.93381664194810293E-04  6.07411109265488668E-04  6.21746220524404896E-04
  6.36392303947199605E-04  6.51354683187906351E-04  6.66638694655713807E-04
  6.82249682236531489E-04  6.98192991643332051E-04  7.14473964378497064E-04
  7.31097931286820118E-04  7.48070205680868806E-04  7.65396076018878585E-04
  7.83080798114623887E-04  8.01129586858041580E-04  8.19547607424679354E-04
  8.38339965950482156E-04  8.57511699650799247E-04  8.77067766359902550E-04
  8.97013033464489100E-04  9.17352266207068401E-04  9.38090115333674182E-04
  9.59231104059692780E-04  9.80779614327089181E-04  1.00273987232578810E-03
  1.02511593325135450E-03  1.04791166527003015E-03  1.07113073266546671E-03
  1.09477657813648118E-03  1.11885240421619897E-03  1.14336115378400318E-03
  1.16830548964101818E-03  1.19368777311985755E-03  1.21951004169948852E-03
  1.24577398559632606E-03  1.27248092330300251E-03  1.29963177604658386E-03
  1.32722704113872833E-03  1.35526676419328216E-03  1.38375051018370409E-03
  1.41267733331646469E-03  1.44204574569796354E-03  1.47185368477398921E-03
  1.50209847952272914E-03  1.53277681538463093E-03  1.56388469791504453E-03
  1.59541741514847486E-03  1.62736949866664968E-03  1.65973468336629297E-03
  1.69250586592688311E-03  1.72567506198305592E-03  1.75923336201085816E-03
  1.79317088594349019E-03  1.82747673653811562E-03  1.86213895152212861E-03
  1.89714445455464232E-03  1.93247900504710701E-03  1.96812714689579768E-03
  2.00407215618851435E-03  2.04029598795826784E-03  2.07677922206798505E-03
  2.11350100832249704E-03  2.15043901091849926E-03  2.18756935235455514E-03
  2.22486655693762822E-03  2.26230349404439200E-03  2.29985132130876161E-03
  2.33747942792646764E-03  2.37515537828755481E-03  2.41284485616865066E-03
  2.45051160973943456E-03  2.48811739766138795E-03  2.52562193658215734E-03
  2.56298285035540859E-03  2.60015562134404722E-03  2.63709354419418502E-03
  2.67374768249805782E-03  2.71006682879767731E-03  2.74599746841762719E-03
  2.78148374763282930E-03  2.81646744673656529E-03  2.85088795860419936E-03
  2.88468227338357051E-03  2.91778496998524152E-03  2.95012821508698576E-03
  2.98164177040890002E-03  3.01225300905819376E-03  3.04188694178590723E-03
  3.07046625404106812E-03  3.09791135475116731E-03  3.12414043780058839E-03
  3.14906955722085409E-03  3.17261271714727906E-03  3.19468197763597564E-03
  3.21518757747207189E-03  3.23403807513714722E-03  3.25114050913947192E-03
  3.26640057889735803E-03  3.27972284744375070E-03  3.29101096721244862E-03
  3.30016793016941080E-03  3.30709634355759799E-03  3.31169873251544985E-03
  3.31387787081015425E-03  3.31353714089636063E-03  3.31058092446713916E-03
  3.30491502460553404E-03  3.29644712057010781E-03  3.28508725615486025E-03
  3.27074836245078637E-03  3.25334681570141945E-03  3.23280303078569455E-03
  3.20904209067639874E-03  3.18199441200930347E-03  3.15159644665419540E-03
  3.11779141890268030E-03  3.08053009757960471E-03  3.03977160204574976E-03
  2.99548424060909046E-03  2.94764637951753844E-03  2.89624734020327464E-03
  2.84128832191517418E-03  2.78278334631971470E-03  2.72076022003726577E-03
  2.65526151041820457E-03  2.58634552915120060E-03  2.51408731753462785E-03
  2.43857962643171224E-03  2.35993388307244875E-03  2.27828113596289248E-03
  2.19377296821788746E-03  2.10658236865189251E-03  2.01690454894911135E-03
  1.92495769419636308E-03  1.83098363300829487E-03  1.73524841241525516E-03
  1.63804276163166218E-03  1.53968242779134847E-03  1.44050836574293102E-03
  1.34088676306170747E-03  1.24120888057657384E-03  1.14189068795330284E-03
  1.04337227323651402E-03  9.46117004833957678E-04  8.50610424122681761E-04
  7.57358846804656962E-04  6.66887651383348966E-04  5.79739233665645982E-04
  4.96470607085660004E-04  4.17650629940996651E-04  3.43856842377162947E-04
  2.75671898201990768E-04  2.13679579409725777E-04  1.58460384681123731E-04
  1.10586686963195409E-04  7.06174570143756078E-05  3.90925153149006526E-05
  1.65257493860359780E-05  3.38975123410762703E-06 -6.47851141819660605E-08
 -4.66481746640840176E-09 -3.31471555986625201E-10 -2.32002975994550902E-11
 -1.59504135188649263E-12 -1.07267966732518459E-13 -7.01060397249794230E-15
 -4.40468087080751969E-16 -2.60803922409676919E-17 -1.39476470041679198E-18
 -5.96906489638509714E-20 -9.08112861609744798E-22  2.13273762079176672E-22
  3.78045205989058595E-23  4.49348339620000851E-24  4.61028484166967195E-25
  4.37183703910442359E-26  3.94362694246208715E-27  3.43486915802077624E-28
  2.91420252433692100E-29  0.00000000000000000E+00  0.00000000000000000E+00
  0.00000000000000000E+00  0.00000000000000000E+00  0.00000000000000000E+00
  0.00000000000000000E+00  0.00000000000000000E+00  0.00000000000000000E+00
  0.00000000000000000E+00  0.00000000000000000E+00  0.00000000000000000E+00
  0.00000000000000000E+00  0.00000000000000000E+00  0.00000000000000000E+00
  0.00000000000000000E+00  0.00000000000000000E+00  0.00000000000000000E+00
  0.00000000000000000E+00  0.00000000000000000E+00  0.00000000000000000E+00
  0.00000000000000000E+00  0.00000000000000000E+00  0.00000000000000000E+00
  0.00000000000000000E+00  0.00000000000000000E+00  0.00000000000000000E+00
  0.00000000000000000E+00  0.00000000000000000E+00  0.00000000000000000E+00
  0.00000000000000000E+00  0.00000000000000000E+00  0.00000000000000000E+00
  0.00000000000000000E+00  0.00000000000000000E+00  0.00000000000000000E+00
  0.00000000000000000E+00  0.00000000000000000E+00  0.00000000000000000E+00
  0.00000000000000000E+00  0.00000000000000000E+00  0.00000000000000000E+00
  0.00000000000000000E+00  0.00000000000000000E+00  0.00000000000000000E+00
  0.00000000000000000E+00  0.00000000000000000E+00  0.00000000000000000E+00
  0.00000000000000000E+00  0.00000000000000000E+00  0.00000000000000000E+00
  0.00000000000000000E+00  0.00000000000000000E+00  0.00000000000000000E+00
  0.00000000000000000E+00  0.00000000000000000E+00  0.00000000000000000E+00
  0.00000000000000000E+00  0.00000000000000000E+00  0.00000000000000000E+00
  0.00000000000000000E+00  0.00000000000000000E+00  0.00000000000000000E+00
  0.00000000000000000E+00  0.00000000000000000E+00  0.00000000000000000E+00
  0.00000000000000000E+00  0.00000000000000000E+00  0.00000000000000000E+00
  0.00000000000000000E+00  0.00000000000000000E+00  0.00000000000000000E+00
  0.00000000000000000E+00  0.00000000000000000E+00  0.00000000000000000E+00
  0.00000000000000000E+00  0.00000000000000000E+00  0.00000000000000000E+00
  0.00000000000000000E+00  0.00000000000000000E+00  0.00000000000000000E+00
  0.00000000000000000E+00  0.00000000000000000E+00  0.00000000000000000E+00
  0.00000000000000000E+00  0.00000000000000000E+00  0.00000000000000000E+00
  0.00000000000000000E+00  0.00000000000000000E+00  0.00000000000000000E+00
  0.00000000000000000E+00  0.00000000000000000E+00  0.00000000000000000E+00
  0.00000000000000000E+00  0.00000000000000000E+00  0.00000000000000000E+00
  0.00000000000000000E+00  0.00000000000000000E+00  0.00000000000000000E+00
  0.00000000000000000E+00  0.00000000000000000E+00  0.00000000000000000E+00
  0.00000000000000000E+00  0.00000000000000000E+00  0.00000000000000000E+00
  0.00000000000000000E+00  0.00000000000000000E+00  0.00000000000000000E+00
  0.00000000000000000E+00  0.00000000000000000E+00  0.00000000000000000E+00
  0.00000000000000000E+00  0.00000000000000000E+00  0.00000000000000000E+00
  0.00000000000000000E+00  0.00000000000000000E+00  0.00000000000000000E+00
  0.00000000000000000E+00  0.00000000000000000E+00  0.00000000000000000E+00
  0.00000000000000000E+00  0.00000000000000000E+00  0.00000000000000000E+00
  0.00000000000000000E+00  0.00000000000000000E+00  0.00000000000000000E+00
  0.00000000000000000E+00  0.00000000000000000E+00  0.00000000000000000E+00
  0.00000000000000000E+00  0.00000000000000000E+00  0.00000000000000000E+00
  0.00000000000000000E+00  0.00000000000000000E+00  0.00000000000000000E+00
  0.00000000000000000E+00  0.00000000000000000E+00  0.00000000000000000E+00
  0.00000000000000000E+00  0.00000000000000000E+00  0.00000000000000000E+00
  0.00000000000000000E+00  0.00000000000000000E+00  0.00000000000000000E+00
  0.00000000000000000E+00  0.00000000000000000E+00  0.00000000000000000E+00
  0.00000000000000000E+00  0.00000000000000000E+00  0.00000000000000000E+00
  0.00000000000000000E+00  0.00000000000000000E+00  0.00000000000000000E+00
  0.00000000000000000E+00  0.00000000000000000E+00  0.00000000000000000E+00
  0.00000000000000000E+00  0.00000000000000000E+00  0.00000000000000000E+00
  0.00000000000000000E+00  0.00000000000000000E+00  0.00000000000000000E+00
  0.00000000000000000E+00  0.00000000000000000E+00  0.00000000000000000E+00
  0.00000000000000000E+00  0.00000000000000000E+00  0.00000000000000000E+00
  0.00000000000000000E+00  0.00000000000000000E+00  0.00000000000000000E+00
  0.00000000000000000E+00  0.00000000000000000E+00  0.00000000000000000E+00
  0.00000000000000000E+00  0.00000000000000000E+00  0.00000000000000000E+00
  0.00000000000000000E+00  0.00000000000000000E+00  0.00000000000000000E+00
  0.00000000000000000E+00  0.00000000000000000E+00  0.00000000000000000E+00
  0.00000000000000000E+00  0.00000000000000000E+00  0.00000000000000000E+00
  0.00000000000000000E+00  0.00000000000000000E+00  0.00000000000000000E+00
  0.00000000000000000E+00  0.00000000000000000E+00  0.00000000000000000E+00
  0.00000000000000000E+00  0.00000000000000000E+00  0.00000000000000000E+00
  0.00000000000000000E+00  0.00000000000000000E+00  0.00000000000000000E+00
  0.00000000000000000E+00  0.00000000000000000E+00  0.00000000000000000E+00
  0.00000000000000000E+00  0.00000000000000000E+00  0.00000000000000000E+00
  0.00000000000000000E+00  0.00000000000000000E+00  0.00000000000000000E+00
  0.00000000000000000E+00  0.00000000000000000E+00  0.00000000000000000E+00
  0.00000000000000000E+00  0.00000000000000000E+00  0.00000000000000000E+00
  0.00000000000000000E+00  0.00000000000000000E+00  0.00000000000000000E+00
                       </PP_QIJL.3.3.0>
 <PP_QIJL.3.3.2 type="real" size="   777" columns="3" first_index=" 3" second_index=" 3" composite_index=" 6" angular_momentum="2">
  1.82182845215417136E-13  1.91523558089695357E-13  2.01343209892370184E-13
  2.11666246631650320E-13  2.22518540659533640E-13  2.33927310694628187E-13
  2.45921038650006193E-13  2.58529603706577373E-13  2.71784636730882458E-13
  2.85719343176732325E-13  3.00368469794895959E-13  3.15768588580891880E-13
  3.31958347675648669E-13  3.48978226912215827E-13  3.66870634799859575E-13
  3.85680396626315960E-13  4.05454642193371758E-13  4.26242694157684779E-13
  4.48096487674338887E-13  4.71070832871093465E-13  4.95223117347372663E-13
  5.20613590516582080E-13  5.47305922639149072E-13  5.75366857839292548E-13
  6.04866371615294118E-13  6.35878395503184261E-13  6.68480517022633312E-13
  7.02754044089040069E-13  7.38784840541158980E-13  7.76663057073303296E-13
  8.16483177786864668E-13  8.58344961216065130E-13  9.02353111472724444E-13
  9.48617438187787942E-13  9.97253865485796092E-13  1.04838395365528576E-12
  1.10213537707335480E-12  1.15864281446971899E-12  1.21804737102388976E-12
  1.28049757598055058E-12  1.34614979375826409E-12  1.41516788128219088E-12
  1.48772464878499457E-12  1.56400149246232117E-12  1.64418895138732091E-12
  1.72848784642748813E-12  1.81710864549697066E-12  1.91027314460392231E-12
  2.00821429010913367E-12  2.11117678828099548E-12  2.21941841933695487E-12
  2.33320945444333556E-12  2.45283476149247269E-12  2.57859324309871793E-12
  2.71079940873350718E-12  2.84978393828180751E-12  2.99589410189247132E-12
  3.14949559982239057E-12  3.31097207496159988E-12  3.48072773640569756E-12
  3.65918662127299957E-12  3.84679533284678782E-12  4.04402265747304963E-12
  4.25136199630373951E-12  4.46933160226849882E-12  4.69847661617227848E-12
  4.93936992019153543E-12  5.19261388769625814E-12  5.45884171731511727E-12
  5.73871909469306354E-12  6.03294581628859915E-12  6.34225760001675799E-12
  6.66742778262861940E-12  7.00926953908093745E-12  7.36863742330361303E-12
  7.74643026320141633E-12  8.14359233273857086E-12  8.56111713616815979E-12
  9.00004812093308648E-12  9.46148335142801151E-12  9.94657602397138348E-12
  1.04565395460052164E-11  1.09926486693948792E-11  1.15562440022578233E-11
  1.21487348483599170E-11  1.27716022850636247E-11  1.34264042364351857E-11
  1.41147773525569512E-11  1.48384432595023813E-11  1.55992112174666263E-11
  1.63989831904037879E-11  1.72397593639278459E-11  1.81236413788269807E-11
  1.90528396029534153E-11  2.00296773763121246E-11  2.10565966320235795E-11
  2.21361655552047356E-11  2.32710831123558610E-11  2.44641867289226435E-11
  2.57184600265121717E-11  2.70370386437769677E-11  2.84232193260670922E-11
  2.98804683663060418E-11  3.14124288882037011E-11  3.30229310763232232E-11
  3.47160020708780983E-11  3.64958747119955502E-11  3.83669987870877414E-11
  4.03340530302024821E-11  4.24019555125000931E-11  4.45758759610973535E-11
  4.68612498878345849E-11  4.92637914776063541E-11  5.17895073005975859E-11
  5.44447117911870311E-11  5.72360438211895222E-11  6.01704823372557443E-11
  6.32553636442563685E-11  6.64984001290383631E-11  6.99077001754171014E-11
  7.34917876470827530E-11  7.72596230647172238E-11  8.12206261056548147E-11
  8.53846997683193822E-11  8.97622548725166801E-11  9.43642356991288853E-11
  9.92021473752953683E-11  1.04288084694800361E-10  1.09634762761393578E-10
  1.15255548653261973E-10  1.21164494527239204E-10  1.27376372759042698E-10
  1.33906712890301959E-10  1.40771840474093474E-10  1.47988918090380784E-10
  1.55575988229596676E-10  1.63552018174496886E-10  1.71936947409142638E-10
  1.80751737466321866E-10  1.90018424326833201E-10  1.99760173501463389E-10
  2.10001337933213446E-10  2.20767518893733037E-10  2.32085630011651997E-10
  2.43983964438989153E-10  2.56492265540443074E-10  2.69641801224073054E-10
  2.83465442079238781E-10  2.97997743516960845E-10  3.13275032117884460E-10
  3.29335496403530454E-10  3.46219282257542018E-10  3.63968593235280610E-10
  3.82627796012278406E-10  4.02243531234890964E-10  4.22864830049969862E-10
  4.44543236604492300E-10  4.67332936821006399E-10  4.91290893770328420E-10
  5.16476989979375690E-10  5.42954177029269008E-10  5.70788632816933124E-10
  6.00049926872526687E-10  6.30811194144978519E-10  6.63149317688973071E-10
  6.97145120708798031E-10  7.32883568437640943E-10  7.70453980355360212E-10
  8.09950253273289711E-10  8.51471095841574770E-10  8.95120275062784550E-10
  9.41006875425187251E-10  9.89245571334219565E-10  1.03995691368822059E-09
  1.09326763086391599E-09  1.14931094508650469E-09  1.20822690506419050E-09
  1.27016273564335644E-09  1.33527320535234109E-09  1.40372101274610433E-09
  1.47567719253147450E-09  1.55132154316088998E-09  1.63084307600976344E-09
  1.71444048650715794E-09  1.80232264995164390E-09  1.89470914271478843E-09
  1.99183079009655611E-09  2.09393024349672846E-09  2.20126258717817226E-09
  2.31409597304328571E-09  2.43271228929249219E-09  2.55740786343546445E-09
  2.68849420323305836E-09  2.82629877652403527E-09  2.97116582479232359E-09
  3.12345722086012340E-09  3.28355337168083040E-09  3.45185417297136014E-09
  3.62878000399649703E-09  3.81477277216159146E-09  4.01029701509881927E-09
  4.21584106756224973E-09  4.43191827516623725E-09  4.65906826837456328E-09
  4.89785831092620116E-09  5.14888472485429830E-09  5.41277436539327146E-09
  5.69018617972609663E-09  5.98181286422194884E-09  6.28838258676492093E-09
  6.61066078817043283E-09  6.94945210375794612E-09  7.30560237380279380E-09
  7.68000072931069188E-09  8.07358182235828075E-09  8.48732816447575142E-09
  8.92227254558294696E-09  9.37950062869746623E-09  9.86015365887790001E-09
  1.03654312734365809E-08  1.08965945265291824E-08  1.14549690128926280E-08
  1.20419481477340615E-08  1.26589966837256384E-08  1.33076543063296172E-08
  1.39895394902975059E-08  1.47063535413587672E-08  1.54598847789687448E-08
  1.62520130546584766E-08  1.70847143635363520E-08  1.79600657959696099E-08
  1.88802507045560941E-08  1.98475640903277756E-08  2.08644183842986050E-08
  2.19333493479428646E-08  2.30570224751234445E-08  2.42382395264376555E-08
  2.54799455574145514E-08  2.67852361952661186E-08  2.81573653358377002E-08
  2.95997532457293346E-08  3.11159950040886882E-08  3.27098695019811930E-08
  3.43853487246675484E-08  3.61466077222080938E-08  3.79980348385063279E-08
  3.99442427369934160E-08  4.19900796900931106E-08  4.41406417561616970E-08
  4.64012852522315501E-08  4.87776401888336138E-08  5.12756240636519332E-08
  5.39014566669405877E-08  5.66616753554180029E-08  5.95631513432803849E-08
  6.26131066418560707E-08  6.58191319548964925E-08  6.91892054922695035E-08
  7.27317126050169795E-08  7.64554666850796671E-08  8.03697307262783530E-08
  8.44842404830351506E-08  8.88092282491592458E-08  9.33554483647988279E-08
  9.81342036176056882E-08  1.03157373168404660E-07  1.08437441974369771E-07
  1.13987531342650629E-07  1.19821431600569362E-07  1.25953635783935018E-07
  1.32399375530032167E-07  1.39174658596321919E-07  1.46296308065379860E-07
  1.53782004089579380E-07  1.61650327050432199E-07  1.69920803410657776E-07
  1.78613953801019790E-07  1.87751343125234958E-07  1.97355633890973260E-07
  2.07450641618976093E-07  2.18061393178673718E-07  2.29214188523930639E-07
  2.40936664767412387E-07  2.53257864005085176E-07  2.66208304664928528E-07
  2.79820055773790393E-07  2.94126815639131875E-07  3.09163994351933381E-07
  3.24968799888641338E-07  3.41580329255986904E-07  3.59039663978130208E-07
  3.77389969866361299E-07  3.96676602502631083E-07  4.16947217831828283E-07
  4.38251887699964906E-07  4.60643221839744982E-07  4.84176496001858211E-07
  5.08909785707627454E-07  5.34904107230956054E-07  5.62223565999909083E-07
  5.90935511461288735E-07  6.21110699977178212E-07  6.52823466437350234E-07
  6.86151903744894122E-07  7.21178050996450906E-07  7.57988091602842967E-07
  7.96672561359859538E-07  8.37326565903062722E-07  8.80050009371627528E-07
  9.24947834941710808E-07  9.72130276647941141E-07  1.02171312326651654E-06
  1.07381799569969977E-06  1.12857263850635157E-06  1.18611122478302184E-06
  1.24657467611981418E-06  1.31011099866427504E-06  1.37687563606714708E-06
  1.44703183860475458E-06  1.52075105061447455E-06  1.59821331716984782E-06
  1.67960771104051369E-06  1.76513277931973487E-06  1.85499701197540003E-06
  1.94941933341996662E-06  2.04862961844920385E-06  2.15286923224840549E-06
  2.26239159629560237E-06  2.37746278192256212E-06  2.49836213282495285E-06
  2.62538291740666948E-06  2.75883301140408613E-06  2.89903561370739238E-06
  3.04632999648115614E-06  3.20107229161688659E-06  3.36363631371395241E-06
  3.53441442184285379E-06  3.71381842253618333E-06  3.90228051553341353E-06
  4.10025428467798901E-06  4.30821573426551455E-06  4.52666437401755978E-06
  4.75612435513207745E-06  4.99714565937191323E-06  5.25030534406594348E-06
  5.51620884388238960E-06  5.79549133257119004E-06  6.08881914790420867E-06
  6.39689128208098317E-06  6.72044094079600591E-06  7.06023717338198288E-06
  7.41708657600266996E-06  7.79183507260579526E-06  8.18536977632877082E-06
  8.59862093461198729E-06  9.03256396198183798E-06  9.48822156275306494E-06
  9.96666594744608740E-06  1.04690211476661743E-05  1.09964654327931867E-05
  1.15502338324378651E-05  1.21316207692399664E-05  1.27419828051746424E-05
  1.33827415054527864E-05  1.40553864256120291E-05  1.47614782257696414E-05
  1.55026519165906720E-05  1.62806202418236265E-05  1.70971772024175335E-05
  1.79542017254838119E-05  1.88536614845269680E-05  1.97976168758132248E-05
  2.07882251557136618E-05  2.18277447441180526E-05  2.29185396992161714E-05
  2.40630843689372615E-05  2.52639682228765402E-05  2.65239008712205476E-05
  2.78457172755998079E-05  2.92323831567548497E-05  3.06870006039910455E-05
  3.22128138913078133E-05  3.38132155052071342E-05  3.54917523880538468E-05
  3.72521324014524541E-05  3.90982310144014804E-05  4.10340982197249360E-05
  4.30639656822575043E-05  4.51922541218890018E-05  4.74235809341336397E-05
  4.97627680504266528E-05  5.22148500394720779E-05  5.47850824506785459E-05
  5.74789504001881627E-05  6.03021773987293255E-05  6.32607344197797119E-05
  6.63608492055402466E-05  6.96090158071078374E-05  7.30120043539930487E-05
  7.65768710464529226E-05  8.03109683633233747E-05  8.42219554764523038E-05
  8.83178088600553523E-05  9.26068330820879342E-05  9.70976717624662326E-05
  1.01799318680633442E-04  1.06721129012445784E-04  1.11872830673608649E-04
  1.17264535743757511E-04  1.22906751941168990E-04  1.28810394118304732E-04
  1.34986795740855287E-04  1.41447720309210501E-04  1.48205372678238823E-04
  1.55272410226067444E-04  1.62661953817509899E-04  1.70387598502379987E-04
  1.78463423883142605E-04  1.86904004080148489E-04  1.95724417215296801E-04
  2.04940254327414868E-04  2.14567627632702870E-04  2.24623178024092125E-04
  2.35124081700305206E-04  2.46088055806770981E-04  2.57533362960325534E-04
  2.69478814519504223E-04  2.81943772451550526E-04  2.94948149635997124E-04
  3.08512408432810132E-04  3.22657557330637381E-04  3.37405145476253317E-04
  3.52777254871416968E-04  3.68796490023800302E-04  3.85485964801730396E-04
  4.02869286237234742E-04  4.20970535006956221E-04  4.39814242302555367E-04
  4.59425362785138424E-04  4.79829243300732456E-04  5.01051587015914363E-04
  5.23118412614434741E-04  5.46056008177172431E-04  5.69890879349088100E-04
  5.94649691377967509E-04  6.20359204585134330E-04  6.47046202824862345E-04
  6.74737414470395953E-04  7.03459425422407075E-04  7.33238583641604436E-04
  7.64100894686567324E-04  7.96071907723258513E-04  8.29176591460217328E-04
  8.63439199453131878E-04  8.98883124214522409E-04  9.35530739559289090E-04
  9.73403230615219810E-04  1.01252041092984640E-03  1.05290052611186117E-03
  1.09456004345725891E-03  1.13751342702557738E-03  1.18177289765039324E-03
  1.22734817744196440E-03  1.27424621832242300E-03  1.32247091420613643E-03
  1.37202279650607342E-03  1.42289871271382125E-03  1.47509148788585388E-03
  1.52858956896784041E-03  1.58337665200348251E-03  1.63943129240625611E-03
  1.69672649862278929E-03  1.75522930968737174E-03  1.81490035735964029E-03
  1.87569341375392012E-03  1.93755492561047344E-03  2.00042353662828855E-03
  2.06422959957750169E-03  2.12889468023659458E-03  2.19433105556016226E-03
  2.26044120891634621E-03  2.32711732560788405E-03  2.39424079239334339E-03
  2.46168170524157636E-03  2.52929839010124311E-03  2.59693694206341273E-03
  2.66443078893424798E-03  2.73160028591729401E-03  2.79825234883057444E-03
  2.86418013405201517E-03  2.92916277419624739E-03  2.99296517937459395E-03
  3.05533791477471213E-03  3.11601716621327752E-03  3.17472480625867600E-03
  3.23116857448430559E-03  3.28504238638902945E-03  3.33602678649902408E-03
  3.38378956213364552E-03  3.42798653526796282E-03  3.46826255085202952E-03
  3.50425268069316440E-03  3.53558366287750258E-03  3.56187559735203713E-03
  3.58274391878786068E-03  3.59780166821880827E-03  3.60666208511228143E-03
  3.60894154145234005E-03  3.60426283905589378E-03  3.59225889065346816E-03
  3.57257680419454954E-03  3.54488238832786169E-03  3.50886509499887238E-03
  3.46424341253517409E-03  3.41077071938775253E-03  3.34824160478994649E-03
  3.27649865791240042E-03  3.19543972155436184E-03  3.10502559994239305E-03
  3.00528820272945958E-03  2.89633909872489843E-03  2.77837844316786240E-03
  2.65170423141699012E-03  2.51672181971079531E-03  2.37395364012906590E-03
  2.22404902206047072E-03  2.06779401580304721E-03  1.90612109684125484E-03
  1.74011861027569101E-03  1.57103979458217717E-03  1.40031120266243480E-03
  1.22954031591355497E-03  1.06052212407336307E-03  8.95244420176137816E-04
  7.35891536429759030E-04  5.84846223629870024E-04  4.44689354332626510E-04
  3.18197108417076142E-04  2.08335271308833015E-04  1.18250129645098260E-04
  5.12537118360549296E-05  1.07784284136971001E-05 -2.10274329832905678E-07
 -1.51406905571975693E-08 -1.07586380257025408E-09 -7.53016659960966057E-11
 -5.17705734656352524E-12 -3.48161766819845746E-13 -2.27544563385405569E-14
 -1.42963600501716899E-15 -8.46496462882728387E-17 -4.52701544726727469E-18
 -1.93739123047789146E-19 -2.94747992341713073E-21  6.92226878942899679E-22
  1.22702882197004908E-22  1.45845881678521442E-23  1.49636929356642914E-24
  1.41897581742976553E-25  1.27999081719306471E-26  1.11486229419595489E-27
  9.45868492384144960E-29  0.00000000000000000E+00  0.00000000000000000E+00
  0.00000000000000000E+00  0.00000000000000000E+00  0.00000000000000000E+00
  0.00000000000000000E+00  0.00000000000000000E+00  0.00000000000000000E+00
  0.00000000000000000E+00  0.00000000000000000E+00  0.00000000000000000E+00
  0.00000000000000000E+00  0.00000000000000000E+00  0.00000000000000000E+00
  0.00000000000000000E+00  0.00000000000000000E+00  0.00000000000000000E+00
  0.00000000000000000E+00  0.00000000000000000E+00  0.00000000000000000E+00
  0.00000000000000000E+00  0.00000000000000000E+00  0.00000000000000000E+00
  0.00000000000000000E+00  0.00000000000000000E+00  0.00000000000000000E+00
  0.00000000000000000E+00  0.00000000000000000E+00  0.00000000000000000E+00
  0.00000000000000000E+00  0.00000000000000000E+00  0.00000000000000000E+00
  0.00000000000000000E+00  0.00000000000000000E+00  0.00000000000000000E+00
  0.00000000000000000E+00  0.00000000000000000E+00  0.00000000000000000E+00
  0.00000000000000000E+00  0.00000000000000000E+00  0.00000000000000000E+00
  0.00000000000000000E+00  0.00000000000000000E+00  0.00000000000000000E+00
  0.00000000000000000E+00  0.00000000000000000E+00  0.00000000000000000E+00
  0.00000000000000000E+00  0.00000000000000000E+00  0.00000000000000000E+00
  0.00000000000000000E+00  0.00000000000000000E+00  0.00000000000000000E+00
  0.00000000000000000E+00  0.00000000000000000E+00  0.00000000000000000E+00
  0.00000000000000000E+00  0.00000000000000000E+00  0.00000000000000000E+00
  0.00000000000000000E+00  0.00000000000000000E+00  0.00000000000000000E+00
  0.00000000000000000E+00  0.00000000000000000E+00  0.00000000000000000E+00
  0.00000000000000000E+00  0.00000000000000000E+00  0.00000000000000000E+00
  0.00000000000000000E+00  0.00000000000000000E+00  0.00000000000000000E+00
  0.00000000000000000E+00  0.00000000000000000E+00  0.00000000000000000E+00
  0.00000000000000000E+00  0.00000000000000000E+00  0.00000000000000000E+00
  0.00000000000000000E+00  0.00000000000000000E+00  0.00000000000000000E+00
  0.00000000000000000E+00  0.00000000000000000E+00  0.00000000000000000E+00
  0.00000000000000000E+00  0.00000000000000000E+00  0.00000000000000000E+00
  0.00000000000000000E+00  0.00000000000000000E+00  0.00000000000000000E+00
  0.00000000000000000E+00  0.00000000000000000E+00  0.00000000000000000E+00
  0.00000000000000000E+00  0.00000000000000000E+00  0.00000000000000000E+00
  0.00000000000000000E+00  0.00000000000000000E+00  0.00000000000000000E+00
  0.00000000000000000E+00  0.00000000000000000E+00  0.00000000000000000E+00
  0.00000000000000000E+00  0.00000000000000000E+00  0.00000000000000000E+00
  0.00000000000000000E+00  0.00000000000000000E+00  0.00000000000000000E+00
  0.00000000000000000E+00  0.00000000000000000E+00  0.00000000000000000E+00
  0.00000000000000000E+00  0.00000000000000000E+00  0.00000000000000000E+00
  0.00000000000000000E+00  0.00000000000000000E+00  0.00000000000000000E+00
  0.00000000000000000E+00  0.00000000000000000E+00  0.00000000000000000E+00
  0.00000000000000000E+00  0.00000000000000000E+00  0.00000000000000000E+00
  0.00000000000000000E+00  0.00000000000000000E+00  0.00000000000000000E+00
  0.00000000000000000E+00  0.00000000000000000E+00  0.00000000000000000E+00
  0.00000000000000000E+00  0.00000000000000000E+00  0.00000000000000000E+00
  0.00000000000000000E+00  0.00000000000000000E+00  0.00000000000000000E+00
  0.00000000000000000E+00  0.00000000000000000E+00  0.00000000000000000E+00
  0.00000000000000000E+00  0.00000000000000000E+00  0.00000000000000000E+00
  0.00000000000000000E+00  0.00000000000000000E+00  0.00000000000000000E+00
  0.00000000000000000E+00  0.00000000000000000E+00  0.00000000000000000E+00
  0.00000000000000000E+00  0.00000000000000000E+00  0.00000000000000000E+00
  0.00000000000000000E+00  0.00000000000000000E+00  0.00000000000000000E+00
  0.00000000000000000E+00  0.00000000000000000E+00  0.00000000000000000E+00
  0.00000000000000000E+00  0.00000000000000000E+00  0.00000000000000000E+00
  0.00000000000000000E+00  0.00000000000000000E+00  0.00000000000000000E+00
  0.00000000000000000E+00  0.00000000000000000E+00  0.00000000000000000E+00
  0.00000000000000000E+00  0.00000000000000000E+00  0.00000000000000000E+00
  0.00000000000000000E+00  0.00000000000000000E+00  0.00000000000000000E+00
  0.00000000000000000E+00  0.00000000000000000E+00  0.00000000000000000E+00
  0.00000000000000000E+00  0.00000000000000000E+00  0.00000000000000000E+00
  0.00000000000000000E+00  0.00000000000000000E+00  0.00000000000000000E+00
  0.00000000000000000E+00  0.00000000000000000E+00  0.00000000000000000E+00
  0.00000000000000000E+00  0.00000000000000000E+00  0.00000000000000000E+00
  0.00000000000000000E+00  0.00000000000000000E+00  0.00000000000000000E+00
  0.00000000000000000E+00  0.00000000000000000E+00  0.00000000000000000E+00
  0.00000000000000000E+00  0.00000000000000000E+00  0.00000000000000000E+00
  0.00000000000000000E+00  0.00000000000000000E+00  0.00000000000000000E+00
  0.00000000000000000E+00  0.00000000000000000E+00  0.00000000000000000E+00
  0.00000000000000000E+00  0.00000000000000000E+00  0.00000000000000000E+00
  0.00000000000000000E+00  0.00000000000000000E+00  0.00000000000000000E+00
  0.00000000000000000E+00  0.00000000000000000E+00  0.00000000000000000E+00
  0.00000000000000000E+00  0.00000000000000000E+00  0.00000000000000000E+00
  0.00000000000000000E+00  0.00000000000000000E+00  0.00000000000000000E+00
                       </PP_QIJL.3.3.2>
                                   </PP_AUGMENTATION> 
                                   </PP_NONLOCAL> 
<PP_PSWFC> 
 <PP_CHI.1 type="real" size="   777" l="0" occupation=" 1.0000" columns="3" label= "1S">
  1.23724083718438184E-03  1.25280338712500483E-03  1.26856168892981150E-03
  1.28451820481913226E-03  1.30067542798288269E-03  1.31703588297005496E-03
  1.33360212608311761E-03  1.35037674577736903E-03  1.36736236306531176E-03
  1.38456163192611677E-03  1.40197723972022587E-03  1.41961190760917498E-03
  1.43746839098069282E-03  1.45554947987914379E-03  1.47385799944138758E-03
  1.49239681033810630E-03  1.51116880922069329E-03  1.53017692917375363E-03
  1.54942414017329093E-03  1.56891344955066570E-03  1.58864790246236861E-03
  1.60863058236571468E-03  1.62886461150050913E-03  1.64935315137677212E-03
  1.67009940326859558E-03  1.69110660871419813E-03  1.71237805002227980E-03
  1.73391705078473207E-03  1.75572697639579450E-03  1.77781123457774375E-03
  1.80017327591317552E-03  1.82281659438399113E-03  1.84574472791715067E-03
  1.86896125893728777E-03  1.89246981492627460E-03  1.91627406898980685E-03
  1.94037774043112230E-03  1.96478459533192288E-03  1.98949844714059899E-03
  2.01452315726785179E-03  2.03986263568978416E-03  2.06552084155858968E-03
  2.09150178382090353E-03  2.11780952184392659E-03  2.14444816604942310E-03
  2.17142187855567026E-03  2.19873487382748773E-03  2.22639141933442730E-03
  2.25439583621723410E-03  2.28275249996268657E-03  2.31146584108689844E-03
  2.34054034582722352E-03  2.36998055684284337E-03  2.39979107392415290E-03
  2.42997655471107344E-03  2.46054171542036109E-03  2.49149133158207579E-03
  2.52283023878529166E-03  2.55456333343316837E-03  2.58669557350752225E-03
  2.61923197934297181E-03  2.65217763441083455E-03  2.68553768611285056E-03
  2.71931734658487816E-03  2.75352189351069001E-03  2.78815667094596585E-03
  2.82322709015265204E-03  2.85873863044379178E-03  2.89469684003895115E-03
  2.93110733693040986E-03  2.96797580976019063E-03  3.00530801870812526E-03
  3.04310979639105727E-03  3.08138704877333009E-03  3.12014575608871893E-03
  3.15939197377389886E-03  3.19913183341366232E-03  3.23937154369797987E-03
  3.28011739139107356E-03  3.32137574231265720E-03  3.36315304233146886E-03
  3.40545581837128908E-03  3.44829067942956872E-03  3.49166431760883095E-03
  3.53558350916103031E-03  3.58005511554497589E-03  3.62508608449704913E-03
  3.67068345111532966E-03  3.71685433895732349E-03  3.76360596115145980E-03
  3.81094562152250235E-03  3.85888071573109014E-03  3.90741873242755802E-03
  3.95656725442021431E-03  4.00633395985827007E-03  4.05672662342957367E-03
  4.10775311757337596E-03  4.15942141370828199E-03  4.21173958347557855E-03
  4.26471579999816112E-03  4.31835833915519222E-03  4.37267558087276430E-03
  4.42767601043069295E-03  4.48336821978569285E-03  4.53976090891113071E-03
  4.59686288715350447E-03  4.65468307460594963E-03  4.71323050349891498E-03
  4.77251431960824552E-03  4.83254378368088832E-03  4.89332827287841405E-03
  4.95487728223862472E-03  5.01720042615542202E-03  5.08030743987719115E-03
  5.14420818102392582E-03  5.20891263112329556E-03  5.27443089716593712E-03
  5.34077321318018189E-03  5.40794994182644279E-03  5.47597157601155491E-03
  5.54484874052323367E-03  5.61459219368498890E-03  5.68521282903167863E-03
  5.75672167700599664E-03  5.82912990667614015E-03  5.90244882747488053E-03
  5.97668989096036916E-03  6.05186469259889632E-03  6.12798497356987874E-03
  6.20506262259338300E-03  6.28310967778037376E-03  6.36213832850608327E-03
  6.44216091730669387E-03  6.52318994179965691E-03  6.60523805662792656E-03
  6.68831807542842171E-03  6.77244297282493871E-03  6.85762588644593662E-03
  6.94388011896737625E-03  7.03121914018098749E-03  7.11965658908827320E-03
  7.20920627602049825E-03  7.29988218478506198E-03  7.39169847483852390E-03
  7.48466948348662162E-03  7.57880972811161239E-03  7.67413390842721418E-03
  7.77065690876159020E-03  7.86839380036860429E-03  7.96735984376772781E-03
  8.06757049111300403E-03  8.16904138859127563E-03  8.27178837885018253E-03
  8.37582750345618535E-03  8.48117500538299492E-03  8.58784733153084533E-03
  8.69586113527680629E-03  8.80523327905670394E-03  8.91598083697890849E-03
  9.02812109747035130E-03  9.14167156595530224E-03  9.25664996756704779E-03
  9.37307424989311175E-03  9.49096258575425102E-03  9.61033337601769136E-03
  9.73120525244500906E-03  9.85359708057498979E-03  9.97752796264199035E-03
  1.01030172405301398E-02  1.02300844987638188E-02  1.03587495675348459E-02
  1.04890325257667519E-02  1.06209537042166961E-02  1.07545336886152813E-02
  1.08897933228448637E-02  1.10267537121567435E-02  1.11654362264276136E-02
  1.13058625034558290E-02  1.14480544522979118E-02  1.15920342566457144E-02
  1.17378243782447628E-02  1.18854475603541610E-02  1.20349268312486424E-02
  1.21862855077631699E-02  1.23395471988805138E-02  1.24947358093624918E-02
  1.26518755434250306E-02  1.28109909084578900E-02  1.29721067187892856E-02
  1.31352480994960299E-02  1.33004404902597011E-02  1.34677096492692040E-02
  1.36370816571704471E-02  1.38085829210634718E-02  1.39822401785476263E-02
  1.41580805018153184E-02  1.43361313017947613E-02  1.45164203323423936E-02
  1.46989756944853750E-02  1.48838258407147702E-02  1.50709995793299086E-02
  1.52605260788344251E-02  1.54524348723846187E-02  1.56467558622906122E-02
  1.58435193245708011E-02  1.60427559135603373E-02  1.62444966665738315E-02
  1.64487730086232652E-02  1.66556167571913494E-02  1.68650601270609671E-02
  1.70771357352013688E-02  1.72918766057114162E-02  1.75093161748207556E-02
  1.77294882959492597E-02  1.79524272448252746E-02  1.81781677246635326E-02
  1.84067448714027790E-02  1.86381942590041934E-02  1.88725519048108595E-02
  1.91098542749688557E-02  1.93501382899107545E-02  1.95934413299016959E-02
  1.98398012406489771E-02  2.00892563389755037E-02  2.03418454185576442E-02
  2.05976077557282235E-02  2.08565831153448220E-02  2.11188117567244239E-02
  2.13843344396444958E-02  2.16531924304113124E-02  2.19254275079960072E-02
  2.22010819702386647E-02  2.24801986401212753E-02  2.27628208721098908E-02
  2.30489925585664647E-02  2.33387581362310623E-02  2.36321625927744944E-02
  2.39292514734224630E-02  2.42300708876511742E-02  2.45346675159551081E-02
  2.48430886166874192E-02  2.51553820329731836E-02  2.54715961996962309E-02
  2.57917801505596483E-02  2.61159835252206887E-02  2.64442565765000796E-02
  2.67766501776664292E-02  2.71132158297958809E-02  2.74540056692073840E-02
  2.77990724749739848E-02  2.81484696765102668E-02  2.85022513612362902E-02
  2.88604722823182988E-02  2.92231878664863109E-02  2.95904542219289912E-02
  2.99623281462656176E-02  3.03388671345957116E-02  3.07201293876260551E-02
  3.11061738198753594E-02  3.14970600679568002E-02  3.18928484989378230E-02
  3.22936002187780916E-02  3.26993770808444995E-02  3.31102416945041264E-02
  3.35262574337942057E-02  3.39474884461692522E-02  3.43739996613253093E-02
  3.48058568001003849E-02  3.52431263834515757E-02  3.56858757415077152E-02
  3.61341730226975993E-02  3.65880872029531665E-02  3.70476880949867013E-02
  3.75130463576421741E-02  3.79842335053192509E-02  3.84613219174695653E-02
  3.89443848481646135E-02  3.94334964357336837E-02  3.99287317124716740E-02
  4.04301666144150154E-02  4.09378779911848123E-02  4.14519436158961446E-02
  4.19724421951315554E-02  4.24994533789779458E-02  4.30330577711252188E-02
  4.35733369390241473E-02  4.41203734241030904E-02  4.46742507520404980E-02
  4.52350534430916579E-02  4.58028670224676568E-02  4.63777780307640039E-02
  4.69598740344364871E-02  4.75492436363220139E-02  4.81459764862015027E-02
  4.87501632914018115E-02  4.93618958274338951E-02  4.99812669486643588E-02
  5.06083705990157812E-02  5.12433018226936543E-02  5.18861567749358682E-02
  5.25370327327797648E-02  5.31960281058437359E-02  5.38632424471189933E-02
  5.45387764637660921E-02  5.52227320279118986E-02  5.59152121874418387E-02
  5.66163211767828772E-02  5.73261644276697666E-02  5.80448485798903610E-02
  5.87724814920040015E-02  5.95091722520250388E-02  6.02550311880659245E-02
  6.10101698789324506E-02  6.17747011646644570E-02  6.25487391570131307E-02
  6.33323992498469740E-02  6.41257981294793139E-02  6.49290537849075700E-02
  6.57422855179545240E-02  6.65656139533026964E-02  6.73991610484119263E-02
  6.82430501033100267E-02  6.90974057702436889E-02  6.99623540631798962E-02
  7.08380223671455644E-02  7.17245394473936676E-02  7.26220354583810707E-02
  7.35306419525456750E-02  7.44504918888686806E-02  7.53817196412081975E-02
  7.63244610063877060E-02  7.72788532120228522E-02  7.82450349240714910E-02
  7.92231462540888970E-02  8.02133287661718763E-02  8.12157254835697007E-02
  8.22304808949446547E-02  8.32577409602619223E-02  8.42976531162869386E-02
  8.53503662816707254E-02  8.64160308615960215E-02  8.74947987519634901E-02
  8.85868233430933821E-02  8.96922595229162345E-02  9.08112636796281347E-02
  9.19439937037789673E-02  9.30906089897677314E-02  9.42512704367145793E-02
  9.54261404486791420E-02  9.66153829341932918E-02  9.78191633050745080E-02
  9.90376484744830976E-02  1.00271006854191144E-01  1.01519408351023230E-01
  1.02783024362432890E-01  1.04062027771174001E-01  1.05356592939023622E-01
  1.06666895699514305E-01  1.07993113349631714E-01  1.09335424640432360E-01
  1.10694009766531834E-01  1.12069050354416860E-01  1.13460729449526510E-01
  1.14869231502048669E-01  1.16294742351380417E-01  1.17737449209193393E-01
  1.19197540641045679E-01  1.20675206546479882E-01  1.22170638137544460E-01
  1.23684027915669473E-01  1.25215569646831643E-01  1.26765458334940462E-01
  1.28333890193372491E-01  1.29921062614577726E-01  1.31527174137684555E-01
  1.33152424414022003E-01  1.34797014170473295E-01  1.36461145170580334E-01
  1.38145020173311039E-01  1.39848842889399749E-01  1.41572817935166267E-01
  1.43317150783718816E-01  1.45082047713443740E-01  1.46867715753675437E-01
  1.48674362627440826E-01  1.50502196691174372E-01  1.52351426871291523E-01
  1.54222262597504933E-01  1.56114913732764288E-01  1.58029590499701195E-01
  1.59966503403453614E-01  1.61925863150740257E-01  1.63907880565047986E-01
  1.65912766497804232E-01  1.67940731735393728E-01  1.69991986901875863E-01
  1.72066742357256136E-01  1.74165208091162899E-01  1.76287593611773485E-01
  1.78434107829838706E-01  1.80604958937635146E-01  1.82800354282679850E-01
  1.85020500236046465E-01  1.87265602055107477E-01  1.89535863740526778E-01
  1.91831487887321961E-01  1.94152675529814106E-01  1.96499625980278148E-01
  1.98872536661104993E-01  2.01271602930287508E-01  2.03697017900017791E-01
  2.06148972248205525E-01  2.08627654022719156E-01  2.11133248438141963E-01
  2.13665937664835381E-01  2.16225900610099997E-01  2.18813312691222117E-01
  2.21428345600193921E-01  2.24071167059890775E-01  2.26741940571494216E-01
  2.29440825152947586E-01  2.32167975068203525E-01  2.34923539547069044E-01
  2.37707662495429684E-01  2.40520482195635987E-01  2.43362130996838427E-01
  2.46232734995062014E-01  2.49132413702811972E-01  2.52061279708008179E-01
  2.55019438322048209E-01  2.58006987216807870E-01  2.61024016050394547E-01
  2.64070606081481363E-01  2.67146829772018535E-01  2.70252750378188078E-01
  2.73388421529452696E-01  2.76553886795554538E-01  2.79749179241341517E-01
  2.82974320969311466E-01  2.86229322649782292E-01  2.89514183038612427E-01
  2.92828888482422001E-01  2.96173412411277981E-01  2.99547714818841737E-01
  3.02951741729993340E-01  3.06385424655998995E-01  3.09848680037276503E-01
  3.13341408673853461E-01  3.16863495143709539E-01  3.20414807209170593E-01
  3.23995195211589870E-01  3.27604491454586755E-01  3.31242509576167521E-01
  3.34909043910104787E-01  3.38603868837003719E-01  3.42326738125547370E-01
  3.46077384264472321E-01  3.49855517785894299E-01  3.53660826580677545E-01
  3.57492975206611885E-01  3.61351604190252140E-01  3.65236329323374631E-01
  3.69146740954989838E-01  3.73082403280089125E-01  3.77042853626345209E-01
  3.81027601740074939E-01  3.85036129072895916E-01  3.89067888070623258E-01
  3.93122301466072577E-01  3.97198761577563342E-01  4.01296629615047584E-01
  4.05415234995924800E-01  4.09553874672748952E-01  4.13711812475180185E-01
  4.17888278468682650E-01  4.22082468332635963E-01  4.26293542760681210E-01
  4.30520626886293722E-01  4.34762809736757294E-01  4.39019143718904714E-01
  4.43288644140008070E-01  4.47570288767611568E-01  4.51863017432182545E-01
  4.56165731676612451E-01  4.60477294456799247E-01  4.64796529897725019E-01
  4.69122223109608272E-01  4.73453120068892896E-01  4.77787927568990411E-01
  4.82125313245852338E-01  4.86463905683595210E-01  4.90802294605533318E-01
  4.95139031156091036E-01  4.99472628279166719E-01  5.03801561198598091E-01
  5.08124268006433066E-01  5.12439150364731089E-01  5.16744574326617467E-01
  5.21038871282258786E-01  5.25320339035362238E-01  5.29587243015697595E-01
  5.33837817632710987E-01  5.38070267775374145E-01  5.42282770462991670E-01
  5.46473476651239132E-01  5.50640513197270032E-01  5.54781984987175791E-01
  5.58895977228426100E-01  5.62980557909160795E-01  5.67033780425329259E-01
  5.71053686375677438E-01  5.75038308523450947E-01  5.78985673922415844E-01
  5.82893807203361702E-01  5.86760734015677521E-01  5.90584484616821670E-01
  5.94363097600576706E-01  5.98094623752843613E-01  6.01777130021417195E-01
  6.05408703583652841E-01  6.08987455993213911E-01  6.12511527384150933E-01
  6.15979090707423405E-01  6.19388355971645876E-01  6.22737574456308063E-01
  6.26025042862049408E-01  6.29249107358536119E-01  6.32408167486762540E-01
  6.35500679868445828E-01  6.38525161671023023E-01  6.41480193772731022E-01
  6.44364423568273725E-01  6.47176567351829823E-01  6.49915412210707588E-01
  6.52579817359983716E-01  6.55168714846119049E-01  6.57681109546053744E-01
  6.60116078387867677E-01  6.62472768720066663E-01  6.64750395759232338E-01
  6.66948239050589642E-01  6.69065637883436093E-01  6.71101985613933083E-01
  6.73056722862088064E-01  6.74929329568629943E-01  6.76719315921770814E-01
  6.78426212194540468E-01  6.80049557571678953E-01  6.81588888092291234E-01
  6.83043723892196142E-01  6.84413555999902834E-01  6.85697833024509928E-01
  6.86895948174910065E-01  6.88007227170197133E-01  6.89030917744257621E-01
  6.89966181616645247E-01  6.90812090001955648E-01  6.91567623963472711E-01
  6.92231681191646908E-01  6.92803091108662561E-01  6.93280640566451667E-01
  6.93663111800214560E-01  6.93949310181165235E-01  6.94138067952942972E-01
  6.94228245560361890E-01  6.94218732998401866E-01  6.94108451170147078E-01
  6.93896353251616027E-01  6.93581426062228501E-01  6.93162691439669132E-01
  6.92639207617893327E-01  6.92010070606967398E-01  6.91274415573404299E-01
  6.90431418219616955E-01  6.89480296161070094E-01  6.88420310299675653E-01
  6.87250766191941920E-01  6.85971015410342111E-01  6.84580456896337175E-01
  6.83078538303449667E-01  6.81464757328745674E-01  6.79738663031049573E-01
  6.77899857134176664E-01  6.75947995313437966E-01  6.73882788463627369E-01
  6.71704003946678618E-01  6.69411466817129375E-01  6.67005061023512313E-01
  6.64484730583739802E-01  6.61850480732535273E-01  6.59102379038898234E-01
  6.56240556491545779E-01  6.53265208550428134E-01  6.50176596162119091E-01
  6.46975046736933845E-01  6.43660955085663233E-01  6.40234784313732153E-01
  6.36697066670583456E-01  6.33048404352043015E-01  6.29289470253405536E-01
  6.25421008670947742E-01  6.21443835949560430E-01  6.17358841074156839E-01
  6.13166986202509534E-01  6.08869307137134608E-01  6.04466913733838096E-01
  5.99960990244520875E-01  5.95352795591831740E-01  5.90643663573247379E-01
  5.85835002992161513E-01  5.80928297713564135E-01  5.75925106641895002E-01
  5.70827063618673303E-01  5.65635877237515516E-01  5.60353330574180020E-01
  5.54981280829303203E-01  5.49521658881531483E-01  5.43976468748789355E-01
  5.38347786955483576E-01  5.32637761803495313E-01  5.26848612544884909E-01
  5.20982628454309427E-01  5.15042167799242501E-01  5.09029656706189604E-01
  5.02947587921249606E-01  4.96798519464908606E-01  4.90585073171236286E-01
  4.84309933127789860E-01  4.77975843996889249E-01  4.71585609226713054E-01
  4.65142089149406801E-01  4.58648198965655007E-01  4.52106906615339477E-01
  4.45521230534090484E-01  4.38894237295956058E-01  4.32229039142520310E-01
  4.25528791398999906E-01  4.18796689778288933E-01  4.12035967574162387E-01
  4.05249892745171758E-01  3.98441764891085126E-01  3.91614912124069459E-01
  3.84772687837159511E-01  3.77918467372925448E-01  3.71055644595619682E-01
  3.64187628370468919E-01  3.57317838954165412E-01  3.50449704301007192E-01
  3.43586656289543269E-01  3.36732126874976778E-01  3.29889544172994098E-01
  3.23062328481089955E-01  3.16253888243865910E-01  3.09467615969177656E-01
  3.02706884102404872E-01  2.95975040866500338E-01  2.89275406075852615E-01
  2.82611266932356664E-01  2.75985873812435500E-01  2.69402436054082761E-01
  2.62864117753303039E-01  2.56374033579610638E-01  2.49935244620511338E-01
  2.43550754265109332E-01  2.37223504137194618E-01  2.30956370088320179E-01
  2.24752158261514873E-01  2.18613601236366917E-01  2.12543354266266415E-01
  2.06543991618602180E-01  2.00618003028679437E-01  1.94767790278039615E-01
  1.88995663907742195E-01  1.83303840076993879E-01  1.77694437577283620E-01
  1.72169475011915513E-01  1.66730868150507222E-01  1.61380427467647941E-01
  1.56119855874492258E-01  1.50950746651593082E-01  1.45874581590761609E-01
  1.40892729353177815E-01  1.36006444050366548E-01  1.31216864053983667E-01
  1.26525011039680946E-01  1.21931789269584423E-01  1.17437985117151394E-01
  1.13044266837371871E-01  1.08751184584451002E-01  1.04559170678259289E-01
  1.00468540119962715E-01  9.64794913563568890E-02  9.25921072915286136E-02
  8.88063565435635721E-02  8.51220949431051865E-02  8.15390672696698487E-02
  7.80569092207214210E-02  7.46751496076262095E-02  7.13932127717442633E-02
  6.82104212130672516E-02  6.51259984230040390E-02  6.21390719121316312E-02
  5.92486764229865487E-02  5.64537573172744292E-02  5.37531741262200768E-02
  5.11457042521799854E-02  4.86300468090906449E-02  4.62048265888367338E-02
  4.38685981401950309E-02  4.16198499466436875E-02  3.94570086890274480E-02
  3.73784435788375655E-02  3.53824707477011294E-02  3.34673576785804450E-02
  3.16313276641600818E-02  2.98725642779442517E-02  2.81892158437026183E-02
  2.65793998890860757E-02  2.50412075694844069E-02  2.35727080485121226E-02
  2.21719528218872475E-02  2.08369799719049301E-02  1.95658183402012721E-02
  1.83564916070504194E-02  1.72070222660353073E-02  1.61154354835730852E-02
  1.50797628334599192E-02  1.40980458973201956E-02  1.31683397225943223E-02
  1.22887161304794761E-02  1.14572668670357945E-02  1.06721065914883555E-02
  9.93137569658328855E-03  9.23324295669858061E-03  8.57590800027765304E-03
  7.95760360381648178E-03  7.37659780568654562E-03  6.83119583882245938E-03
  6.31974188204182091E-03  5.84062063057096126E-03  5.39225868709783483E-03
  4.97312577539524986E-03  4.58173577924442244E-03  4.21664761004120290E-03
  3.87646590708189565E-03  3.55984157509771923E-03  3.26547216413781982E-03
  2.99210209738615509E-03  2.73852275293637185E-03  2.50357240594186554E-03
  2.28613603790169852E-03  2.08514502013954113E-03  1.89957667878060078E-03
  1.72845374873078789E-03  1.57084372431538148E-03  1.42585811433965895E-03
  1.29265160939488126E-03  1.17042116924953631E-03  1.05840503814004549E-03
  9.55881695709393637E-04  8.62168751237942150E-04  7.76621788670627628E-04
  6.98633169771250488E-04  6.27630802529902565E-04  5.63076881716911533E-04
  5.04466608218115376E-04  4.51326893505240548E-04  4.03215055294011890E-04
  3.59717510124425352E-04  3.20448468265197917E-04  2.85048636000517427E-04
  2.53183930004601465E-04  2.24544208151046201E-04  1.98842020741877553E-04
  1.75811385778386884E-04  1.55206591534376594E-04  1.36801029334769186E-04
                              </PP_CHI.1>
 <PP_CHI.2 type="real" size="   777" l="0" occupation=" 0.0000" columns="3" label= "0S">
 -1.02993019023326655E-02 -1.04288502746632226E-02 -1.05600281306201561E-02
 -1.06928559652737249E-02 -1.08273545314403856E-02 -1.09635448429228725E-02
 -1.11014481777910474E-02 -1.12410860817039032E-02 -1.13824803712732625E-02
 -1.15256531374697702E-02 -1.16706267490715339E-02 -1.18174238561561430E-02
 -1.19660673936364936E-02 -1.21165805848409743E-02 -1.22689869451386643E-02
 -1.24233102856098794E-02 -1.25795747167629351E-02 -1.27378046522974662E-02
 -1.28980248129149724E-02 -1.30602602301772477E-02 -1.32245362504130846E-02
 -1.33908785386741228E-02 -1.35593130827402503E-02 -1.37298661971752695E-02
 -1.39025645274334572E-02 -1.40774350540175432E-02 -1.42545050966889440E-02
 -1.44338023187307249E-02 -1.46153547312640377E-02 -1.47991906976187165E-02
 -1.49853389377585626E-02 -1.51738285327622253E-02 -1.53646889293601839E-02
 -1.55579499445286044E-02 -1.57536417701408180E-02 -1.59517949776769932E-02
 -1.61524405229929238E-02 -1.63556097511485185E-02 -1.65613344012967775E-02
 -1.67696466116340689E-02 -1.69805789244122929E-02 -1.71941642910139504E-02
 -1.74104360770906824E-02 -1.76294280677661806E-02 -1.78511744729042826E-02
 -1.80757099324428856E-02 -1.83030695217947653E-02 -1.85332887573159202E-02
 -1.87664036018423408E-02 -1.90024504702961325E-02 -1.92414662353616144E-02
 -1.94834882332326001E-02 -1.97285542694314482E-02 -1.99767026247009045E-02
 -2.02279720609696741E-02 -2.04824018273924227E-02 -2.07400316664654479E-02
 -2.10009018202186835E-02 -2.12650530364850709E-02 -2.15325265752483487E-02
 -2.18033642150699536E-02 -2.20776082595963916E-02 -2.23553015441477522E-02
 -2.26364874423884560E-02 -2.29212098730813794E-02 -2.32095133069261106E-02
 -2.35014427734826677E-02 -2.37970438681815097E-02 -2.40963627594209633E-02
 -2.43994461957532729E-02 -2.47063415131600281E-02 -2.50170966424184404E-02
 -2.53317601165593299E-02 -2.56503810784180254E-02 -2.59730092882793986E-02
 -2.62996951316178673E-02 -2.66304896269339876E-02 -2.69654444336884444E-02
 -2.73046118603347716E-02 -2.76480448724520551E-02 -2.79957971009785513E-02
 -2.83479228505479110E-02 -2.87044771079288420E-02 -2.90655155505696212E-02
 -2.94310945552488865E-02 -2.98012712068335302E-02 -3.01761033071455444E-02
 -3.05556493839387495E-02 -3.09399686999868861E-02 -3.13291212622844456E-02
 -3.17231678313613305E-02 -3.21221699307131375E-02 -3.25261898563480659E-02
 -3.29352906864519984E-02 -3.33495362911734108E-02 -3.37689913425289062E-02
 -3.41937213244315474E-02 -3.46237925428429238E-02 -3.50592721360506732E-02
 -3.55002280850730129E-02 -3.59467292241913289E-02 -3.63988452516130073E-02
 -3.68566467402655848E-02 -3.73202051487238270E-02 -3.77895928322715471E-02
 -3.82648830540993357E-02 -3.87461499966402292E-02 -3.92334687730446566E-02
 -3.97269154387963133E-02 -4.02265670034708880E-02 -4.07325014426387425E-02
 -4.12447977099138358E-02 -4.17635357491502393E-02 -4.22887965067879554E-02
 -4.28206619443499831E-02 -4.33592150510919913E-02 -4.39045398568067430E-02
 -4.44567214447848941E-02 -4.50158459649339232E-02 -4.55820006470569611E-02
 -4.61552738142933794E-02 -4.67357548967231376E-02 -4.73235344451363865E-02
 -4.79187041449704934E-02 -4.85213568304164733E-02 -4.91315864986960268E-02
 -4.97494883245120020E-02 -5.03751586746736812E-02 -5.10086951228987673E-02
 -5.16501964647946774E-02 -5.22997627330198736E-02 -5.29574952126286511E-02
 -5.36234964566003822E-02 -5.42978703015554939E-02 -5.49807218836605091E-02
 -5.56721576547237681E-02 -5.63722853984837749E-02 -5.70812142470930595E-02
 -5.77990546977985922E-02 -5.85259186298214343E-02 -5.92619193214378240E-02
 -6.00071714672630457E-02 -6.07617911957413145E-02 -6.15258960868427587E-02
 -6.22996051899702419E-02 -6.30830390420783066E-02 -6.38763196860053784E-02
 -6.46795706890229000E-02 -6.54929171616022571E-02 -6.63164857764022564E-02
 -6.71504047874797588E-02 -6.79948040497242029E-02 -6.88498150385199875E-02
 -6.97155708696377274E-02 -7.05922063193568927E-02 -7.14798578448223726E-02
 -7.23786636046361981E-02 -7.32887634796878379E-02 -7.42102990942245661E-02
 -7.51434138371637472E-02 -7.60882528836504951E-02 -7.70449632168610787E-02
 -7.80136936500560041E-02 -7.89945948488838395E-02 -7.99878193539380611E-02
 -8.09935216035699151E-02 -8.20118579569577844E-02 -8.30429867174369007E-02
 -8.40870681560905303E-02 -8.51442645356048355E-02 -8.62147401343897057E-02
 -8.72986612709673176E-02 -8.83961963286305080E-02 -8.95075157803735394E-02
 -9.06327922140956754E-02 -9.17722003580816875E-02 -9.29259171067590151E-02
 -9.40941215467349518E-02 -9.52769949831150376E-02 -9.64747209661042798E-02
 -9.76874853178940211E-02 -9.89154761598338705E-02 -1.00158883939893195E-01
 -1.01417901460411464E-01 -1.02692723906140010E-01 -1.03983548872576936E-01
 -1.05290576394595090E-01 -1.06614008975366228E-01 -1.07954051615581886E-01
 -1.09310911842971314E-01 -1.10684799742119214E-01 -1.12075927984582380E-01
 -1.13484511859307940E-01 -1.14910769303352894E-01 -1.16354920932905670E-01
 -1.17817190074611430E-01 -1.19297802797199176E-01 -1.20796987943414480E-01
 -1.22314977162254646E-01 -1.23852004941508664E-01 -1.25408308640601401E-01
 -1.26984128523740414E-01 -1.28579707793367637E-01 -1.30195292623913300E-01
 -1.31831132195851936E-01 -1.33487478730060699E-01 -1.35164587522476842E-01
 -1.36862716979054999E-01 -1.38582128651022568E-01 -1.40323087270429386E-01
 -1.42085860785994278E-01 -1.43870720399240398E-01 -1.45677940600922318E-01
 -1.47507799207739432E-01 -1.49360577399332839E-01 -1.51236559755564576E-01
 -1.53136034294071161E-01 -1.55059292508094415E-01 -1.57006629404578379E-01
 -1.58978343542532624E-01 -1.60974737071656160E-01 -1.62996115771214339E-01
 -1.65042789089166309E-01 -1.67115070181535541E-01 -1.69213275952016601E-01
 -1.71337727091812941E-01 -1.73488748119695529E-01 -1.75666667422278044E-01
 -1.77871817294497581E-01 -1.80104533980293330E-01 -1.82365157713473586E-01
 -1.84654032758761216E-01 -1.86971507453005614E-01 -1.89317934246554409E-01
 -1.91693669744766065E-01 -1.94099074749659123E-01 -1.96534514301676122E-01
 -1.99000357721557108E-01 -2.01496978652301262E-01 -2.04024755101204047E-01
 -2.06584069481955540E-01 -2.09175308656776471E-01 -2.11798863978582802E-01
 -2.14455131333151611E-01 -2.17144511181274424E-01 -2.19867408600872422E-01
 -2.22624233329056814E-01 -2.25415399804104022E-01 -2.28241327207331035E-01
 -2.31102439504834861E-01 -2.33999165489079758E-01 -2.36931938820295562E-01
 -2.39901198067665078E-01 -2.42907386750264104E-01 -2.45950953377726433E-01
 -2.49032351490598297E-01 -2.52152039700346609E-01 -2.55310481728986238E-01
 -2.58508146448285181E-01 -2.61745507918512810E-01 -2.65023045426679260E-01
 -2.68341243524237216E-01 -2.71700592064181623E-01 -2.75101586237518347E-01
 -2.78544726609036786E-01 -2.82030519152342840E-01 -2.85559475284097364E-01
 -2.89132111897393351E-01 -2.92748951394232626E-01 -2.96410521717015540E-01
 -3.00117356378999001E-01 -3.03869994493647710E-01 -3.07668980802801195E-01
 -3.11514865703604094E-01 -3.15408205274095021E-01 -3.19349561297399998E-01
 -3.23339501284436615E-01 -3.27378598495032647E-01 -3.31467431957394143E-01
 -3.35606586485805436E-01 -3.39796652696466861E-01 -3.44038227021395082E-01
 -3.48331911720231702E-01 -3.52678314889895372E-01 -3.57078050471944852E-01
 -3.61531738257516555E-01 -3.66040003889747001E-01 -3.70603478863526459E-01
 -3.75222800522442668E-01 -3.79898612052806006E-01 -3.84631562474581801E-01
 -3.89422306629078174E-01 -3.94271505163253544E-01 -3.99179824510469294E-01
 -4.04147936867491731E-01 -4.09176520167609248E-01 -4.14266258049662162E-01
 -4.19417839822765148E-01 -4.24631960426563648E-01 -4.29909320386818117E-01
 -4.35250625766047450E-01 -4.40656588109060332E-01 -4.46127924383138474E-01
 -4.51665356912601901E-01 -4.57269613307506206E-01 -4.62941426386247135E-01
 -4.68681534091781815E-01 -4.74490679401150084E-01 -4.80369610228047750E-01
 -4.86319079318155378E-01 -4.92339844136868265E-01 -4.98432666749098807E-01
 -5.04598313690848621E-01 -5.10837555832202472E-01 -5.17151168231309466E-01
 -5.23539929979019436E-01 -5.30004624033790894E-01 -5.36546037046460533E-01
 -5.43164959174387119E-01 -5.49862183884584521E-01 -5.56638507745381594E-01
 -5.63494730206156036E-01 -5.70431653364563362E-01 -5.77450081720811248E-01
 -5.84550821918459529E-01 -5.91734682471200313E-01 -5.99002473474982811E-01
 -6.06355006304926225E-01 -6.13793093296421066E-01 -6.21317547409804716E-01
 -6.28929181877911248E-01 -6.36628809835772747E-01 -6.44417243931835859E-01
 -6.52295295919934848E-01 -6.60263776231303612E-01 -6.68323493525737833E-01
 -6.76475254221126532E-01 -6.84719862000550683E-01 -6.93058117296048048E-01
 -7.01490816748173374E-01 -7.10018752640303563E-01 -7.18642712306778564E-01
 -7.27363477513889300E-01 -7.36181823812654734E-01 -7.45098519862357866E-01
 -7.54114326723584250E-01 -7.63229997119679648E-01 -7.72446274665452348E-01
 -7.81763893061866000E-01 -7.91183575255470450E-01 -8.00706032561205427E-01
 -8.10331963747117467E-01 -8.20062054079699898E-01 -8.29896974328354520E-01
 -8.39837379727450650E-01 -8.49883908894470519E-01 -8.60037182702507175E-01
 -8.70297803105428702E-01 -8.80666351914097478E-01 -8.91143389521798501E-01
 -9.01729453577034490E-01 -9.12425057601850220E-01 -9.23230689553602879E-01
 -9.34146810328097099E-01 -9.45173852202149334E-01 -9.56312217213351801E-01
 -9.67562275474802003E-01 -9.78924363422533528E-01 -9.90398781993307664E-01
 -1.00198579473008698E+00 -1.01368562581286348E+00 -1.02549845801225947E+00
 -1.03742443056316791E+00 -1.04946363695569778E+00 -1.06161612264061600E+00
 -1.07388188264642492E+00 -1.08626085910475556E+00 -1.09875293868127333E+00
 -1.11135794990888725E+00 -1.12407566041996843E+00 -1.13690577407422433E+00
 -1.14984792797877877E+00 -1.16290168939705940E+00 -1.17606655254261505E+00
 -1.18934193525411658E+00 -1.20272717554795561E+00 -1.21622152804442996E+00
 -1.22982416026350960E+00 -1.24353414878605650E+00 -1.25735047527632671E+00
 -1.27127202236155634E+00 -1.28529756936409845E+00 -1.29942578788138685E+00
 -1.31365523720954602E+00 -1.32798435960585959E+00 -1.34241147538528671E+00
 -1.35693477784620375E+00 -1.37155232802040650E+00 -1.38626204924236851E+00
 -1.40106172153284891E+00 -1.41594897579128776E+00 -1.43092128779167282E+00
 -1.44597597197696759E+00 -1.46111017504653118E+00 -1.47632086933109408E+00
 -1.49160484594978970E+00 -1.50695870774371898E+00 -1.52237886198046146E+00
 -1.53786151282402117E+00 -1.55340265356483909E+00 -1.56899805860350128E+00
 -1.58464327518299020E+00 -1.60033361486410430E+00 -1.61606414473835702E+00
 -1.63182967837287873E+00 -1.64762476648193656E+00 -1.66344368731974890E+00
 -1.67928043678942740E+00 -1.69512871826297284E+00 -1.71098193210760186E+00
 -1.72683316491386685E+00 -1.74267517841999275E+00 -1.75850039812919001E+00
 -1.77430090161590637E+00 -1.79006840651727717E+00 -1.80579425820647943E+00
 -1.82146941714514043E+00 -1.83708444591235565E+00 -1.85262949590839443E+00
 -1.86809429373169311E+00 -1.88346812722834200E+00 -1.89873983121411993E+00
 -1.91389777286996909E+00 -1.92892983681067398E+00 -1.94382340983034907E+00
 -1.95856536532784209E+00 -1.97314204741602639E+00 -1.98753925472026616E+00
 -2.00174222387254463E+00 -2.01573561270898693E+00 -2.02950348317997742E+00
 -2.04302928398351069E+00 -2.05629583293405149E+00 -2.06928529908096026E+00
 -2.08197918459235431E+00 -2.09435830642304488E+00 -2.10640277778556273E+00
 -2.11809198944580634E+00 -2.12940459087001033E+00 -2.14031847124989971E+00
 -2.15081074043621046E+00 -2.16085770981392278E+00 -2.17043487315569195E+00
 -2.17951688749339789E+00 -2.18807755405137172E+00 -2.19608979928869497E+00
 -2.20352565610207085E+00 -2.21035624524512730E+00 -2.21655175702458029E+00
 -2.22208143333859098E+00 -2.22691355012810233E+00 -2.23101540031809042E+00
 -2.23435327732661548E+00 -2.23689245923217150E+00 -2.23859719369377652E+00
 -2.23943068372407694E+00 -2.23935507442336146E+00 -2.23833144078985136E+00
 -2.23631977672941140E+00 -2.23327898539594205E+00 -2.22916687100232247E+00
 -2.22394013225061560E+00 -2.21755435753962304E+00 -2.20996402211752763E+00
 -2.20112248735748439E+00 -2.19098200234450635E+00 -2.17949370797283892E+00
 -2.16660764376434267E+00 -2.15227275763051518E+00 -2.13643691881381192E+00
 -2.11904693424841684E+00 -2.10004856860457512E+00 -2.07938656828875601E+00
 -2.05700468968414585E+00 -2.03284573193033546E+00 -2.00685157455477903E+00
 -1.97896322028240856E+00 -1.94912084336376235E+00 -1.91726384377589332E+00
 -1.88333090766426525E+00 -1.84726007440758577E+00 -1.80898881070107964E+00
 -1.76845409206688986E+00 -1.72559249221303923E+00 -1.68034028067449914E+00
 -1.63263352918132143E+00 -1.58240822720921459E+00 -1.52960040717734036E+00
 -1.47414627976609447E+00 -1.41598237983488917E+00 -1.35504572342665353E+00
 -1.29127397633586294E+00 -1.22460563473387829E+00 -1.15498021833738584E+00
 -1.08233847659724902E+00 -1.00662260837799611E+00 -9.27776495585458938E-01
 -8.45745951183152322E-01 -7.60478982016267069E-01 -6.71926066835242808E-01
 -5.80040449878148068E-01 -4.84778450332027877E-01 -3.86099787947375872E-01
 -2.83967925026244128E-01 -1.78350424942762292E-01 -6.92193272839387863E-02
  4.34484603816501572E-02  1.59670754190469638E-01  2.79459669310911207E-01
  4.02821179209055191E-01  5.29754659277997697E-01  6.60252415394871894E-01
  7.94299198122768613E-01  9.31871703442596178E-01  1.07293806108200052E+00
  1.21745731170492366E+00  1.36537887445004658E+00  1.51664200652040670E+00
  1.67117525677678502E+00  1.82889591555106890E+00  1.98970946316865027E+00
  2.15350901995677901E+00  2.32017480081545369E+00  2.48957357773629084E+00
  2.66155815397011386E+00  2.83596685386184211E+00  3.01262303268677689E+00
  3.19133461112981420E+00  3.37189363934076880E+00  3.55407589576622751E+00
  3.73764052619024589E+00  3.92232972859956686E+00  4.10786848960866990E+00
  4.29396437821696431E+00  4.48030740260349170E+00  4.66656993546704690E+00
  4.85240671306220595E+00  5.03745491252802591E+00  5.22133431131518844E+00
  5.40364753144030185E+00  5.58398036987684687E+00  5.76190221456523410E+00
  5.93696654321402395E+00  6.10871149918279333E+00  6.27666053518499290E+00
  6.44032311121641676E+00  6.59919542779991897E+00  6.75276116934495985E+00
  6.90049222481389446E+00  7.04184934382108452E+00  7.17628267574370948E+00
  7.30323215242717261E+00  7.42212827192629199E+00  7.53239364418044666E+00
  7.63344478490737544E+00  7.72469410766274667E+00  7.80555212316918734E+00
  7.87542985431195053E+00  7.93374147455883971E+00  7.97990717678470229E+00
  8.01335627853452159E+00  8.03353056862478709E+00  8.03988789864450304E+00
  8.03190602135716780E+00  8.00908667620618608E+00  7.97095992007133525E+00
  7.91708869909582003E+00  7.84707365478597652E+00  7.76055815466319387E+00
  7.65723353450598321E+00  7.53684453564696977E+00  7.39919491687463271E+00
  7.24415321622586639E+00  7.07165863333894507E+00  6.88172699806750643E+00
  6.67445678574086276E+00  6.45003513380454319E+00  6.20874380860709074E+00
  5.95096506483888721E+00  5.67718733361298877E+00  5.38801066845416265E+00
  5.08415187158668491E+00  4.76644921586212966E+00  4.43586667081838293E+00
  4.09349753442283149E+00  3.74056736535655610E+00  3.37843610436656405E+00
  3.00859926735448147E+00  2.63268808766244478E+00  2.25246848064907690E+00
  1.86983870032776744E+00  1.48682555579410280E+00  1.10557905464850514E+00
  7.28365341890573226E-01  3.57557806110335774E-01 -4.37376947100731519E-03
 -3.54876125136109222E-01 -6.91327614568154947E-01 -1.01105555430822003E+00
 -1.31135590211275432E+00 -1.58951531109877253E+00 -1.84283557982005908E+00
 -2.06866048710785311E+00 -2.26440496439947880E+00 -2.42758651718807084E+00
 -2.55585876104175602E+00 -2.64704688633326057E+00 -2.69918480946566319E+00
 -2.71055370717414457E+00 -2.67972156476990131E+00 -2.60558329947980694E+00
 -2.48740094702281267E+00 -2.32484332416374651E+00 -2.11802450334460790E+00
 -1.86754035901698168E+00 -1.57450237066171295E+00 -1.24056779670973039E+00
 -8.67965268739673834E-01 -4.59514799428160592E-01 -1.86411531037978494E-02
  4.50620501978431842E-01  9.43627752166292910E-01  1.45514399009294793E+00
  1.97936240608451808E+00  2.50994190065224476E+00  3.04005580039038081E+00
  3.56245412380839221E+00  4.06953996709844290E+00  4.55346035944159677E+00
  5.00621167097904340E+00  5.41975934242311475E+00  5.78617134302327507E+00
  6.09776435418022533E+00  6.34726122202008902E+00  6.52795772825621512E+00
  6.63389620147157721E+00  6.66004293986224383E+00  6.60246585356892979E+00
  6.45850817503589347E+00  6.22695354752588059E+00  5.90817730629010907E+00
  5.50427833832655811E+00  5.01918557240475582E+00  4.45873294080845550E+00
  3.83069659964141040E+00  3.14478832818957033E+00  2.41259938232615045E+00
  1.64748968345830749E+00  8.64418111158185676E-01  7.97108574993082297E-02
 -6.89233689876693423E-01 -1.42430323456779395E+00 -2.10709057298021296E+00
 -2.71936840344234954E+00 -3.24361232371260044E+00 -3.66356148456282504E+00
 -3.96480333342676738E+00 -4.13536583217073161E+00 -4.16629759532527810E+00
 -4.05221372169257066E+00 -3.79178285683750405E+00 -3.38812941822930558E+00
 -2.84912414256943913E+00 -2.18753638419886487E+00 -1.42102310637272877E+00
 -5.71932446657903437E-01  3.33095747251787477E-01  1.26374382655252715E+00
  2.18684822047223948E+00  3.06744328028950619E+00  3.87000008058618672E+00
  4.55983099031973804E+00  5.10461789569300528E+00  5.47600885528391501E+00
  5.65121542402649979E+00  5.61453173599380850E+00  5.35868766315223244E+00
  4.88594300353475219E+00  4.20882875476895801E+00  3.35044610303513091E+00
  2.34424467088336863E+00  1.23321944995906696E+00  6.84909801531824319E-02
 -1.09273444969008771E+00 -2.18978925142640346E+00 -3.16167480893031261E+00
 -3.95057239707637153E+00 -4.50556321211916710E+00 -4.78634310395451656E+00
 -4.76668227983438531E+00 -4.43735689479361906E+00 -3.80827252294660923E+00
 -2.90951314531510752E+00 -1.79108681654272472E+00 -5.21202574357556903E-01
  8.16997456622438945E-01  2.13021371999431519E+00  3.32110387389424710E+00
  4.29542543461826654E+00  4.96975382852094683E+00  5.27919609010166990E+00
  5.18442337343419357E+00  4.67729483942621282E+00  3.78435674929019239E+00
  2.56758617278792434E+00  1.12191583012677865E+00 -4.30675034802618928E-01
 -1.95039895621952741E+00 -3.29175213899548202E+00 -4.31759456428523780E+00
 -4.91398369944783564E+00 -5.00424642695299760E+00 -4.56057723052063402E+00
 -3.61147590167422017E+00 -2.24357152891037703E+00 -5.96791845204845850E-01
  1.14747042810594158E+00  2.78469081103258453E+00  4.11061372290599358E+00
  4.94732958457639960E+00  5.16886949150198483E+00  4.72271097020358877E+00
  3.64354514096958049E+00  2.05618860135600512E+00  1.65685876351738204E-01
 -1.76575129157357003E+00 -3.45325546729534150E+00 -4.63134622820744823E+00
 -5.09774197540941909E+00 -4.75184557712967148E+00 -3.62054881207337687E+00
 -1.86501490625331168E+00  2.35489008025093427E-01  2.32302056371972432E+00
  4.01955176297520911E+00  4.99614657481119373E+00  5.04059134327865710E+00
  4.10958761859801669E+00  2.35250494748608752E+00  9.76054006751514991E-02
 -2.20162193144563201E+00 -4.05378109382976248E+00 -5.03547907583532162E+00
 -4.89380909118857765E+00 -3.62046845371144910E+00 -1.47541157062054507E+00
  1.05310018735637012E+00  3.35083388228069312E+00  4.82435702996408988E+00
  5.05916149481929001E+00  3.94726416330313779E+00  1.74406785846799206E+00
 -9.71948106745349261E-01 -3.43858972599847101E+00 -4.92023807985896600E+00
 -4.93412780610260615E+00 -3.42303149234125792E+00 -8.10844553260901435E-01
  2.09396122348855718E+00  4.33564232496883850E+00  5.12641674536260794E+00
  4.13814960148531785E+00  1.66062917977175695E+00 -1.45152814538129671E+00
 -4.05270585370728220E+00 -5.12444888662735742E+00 -4.19026847432701999E+00
                              </PP_CHI.2>
 <PP_CHI.3 type="real" size="   777" l="1" occupation=" 0.0000" columns="3" label= "0P">
  1.51294919894397640E-06  1.55124966721276232E-06  1.59051971526997238E-06
  1.63078388808474450E-06  1.67206735198114059E-06  1.71439591036837107E-06
  1.75779601986926437E-06  1.80229480685594912E-06  1.84792008440307665E-06
  1.89470036967287409E-06  1.94266490173954372E-06  1.99184365986336651E-06
  2.04226738222760364E-06  2.09396758515216844E-06  2.14697658279201680E-06
  2.20132750733227063E-06  2.25705432969761484E-06  2.31419188078591400E-06
  2.37277587323675503E-06  2.43284292375191049E-06  2.49443057598355756E-06
  2.55757732399908837E-06  2.62232263633860970E-06  2.68870698068594814E-06
  2.75677184916172174E-06  2.82655978425391717E-06  2.89811440541004261E-06
  2.97148043630061371E-06  3.04670373276907497E-06  3.12383131149478946E-06
  3.20291137938001048E-06  3.28399336367648666E-06  3.36712794288100305E-06
  3.45236707841062715E-06  3.53976404707572231E-06  3.62937347438234395E-06
  3.72125136867301684E-06  3.81545515612981934E-06  3.91204371667083629E-06
  4.01107742074762035E-06  4.11261816707709245E-06  4.21672942133243555E-06
  4.32347625580457048E-06  4.43292539007677034E-06  4.54514523272444068E-06
  4.66020592406768616E-06  4.77817938001503018E-06  4.89913933700564219E-06
  5.02316139809854083E-06  5.15032308022474275E-06  5.28070386263215333E-06
  5.41438523656635038E-06  5.55145075619580925E-06  5.69198609083957740E-06
  5.83607907850667863E-06  5.98381978079587593E-06  6.13530053918609895E-06
  6.29061603274496134E-06  6.44986333730973047E-06  6.61314198615131894E-06
  6.78055403219057822E-06  6.95220411177267986E-06  7.12819951007146154E-06
  7.30865022813571022E-06  7.49366905164379883E-06  7.68337162138998272E-06
  7.87787650556121205E-06  8.07730527383931109E-06  8.28178257338129638E-06
  8.49143620672180757E-06  8.70639721164786705E-06  8.92679994309512617E-06
  9.15278215711803089E-06  9.38448509698334663E-06  9.62205358144685459E-06
  9.86563609525815298E-06  1.01153848819655628E-05  1.03714560390577109E-05
  1.06340096155290830E-05  1.09032097118963000E-05  1.11792245827670316E-05
  1.14622267419834091E-05  1.17523930704469632E-05  1.20499049266567943E-05
  1.23549482600548702E-05  1.26677137272396521E-05  1.29883968111125211E-05
  1.33171979430565242E-05  1.36543226281870158E-05  1.39999815737914021E-05
  1.43543908210087327E-05  1.47177718798414104E-05  1.50903518675964725E-05
  1.54723636508122152E-05  1.58640459907935058E-05  1.62656436928248867E-05
  1.66774077591520522E-05  1.70995955458521185E-05  1.75324709236603350E-05
  1.79763044428689033E-05  1.84313735024102545E-05  1.88979625232057738E-05
  1.93763631259069534E-05  1.98668743131428527E-05  2.03698026563678280E-05
  2.08854624874418481E-05  2.14141760950679254E-05  2.19562739261910777E-05
  2.25120947924934388E-05  2.30819860821263006E-05  2.36663039767937282E-05
  2.42654136743247034E-05  2.48796896168873479E-05  2.55095157249779742E-05
  2.61552856373268501E-05  2.68174029568734191E-05  2.74962815029753750E-05
  2.81923455699962199E-05  2.89060301924340063E-05  2.96377814167586151E-05
  3.03880565801347741E-05  3.11573245961955372E-05  3.19460662480460390E-05
  3.27547744886794729E-05  3.35839547489995865E-05  3.44341252536378272E-05
  3.53058173447605935E-05  3.61995758140697959E-05  3.71159592432028268E-05
  3.80555403527486780E-05  3.90189063600959488E-05  4.00066593463344644E-05
  4.10194166324402191E-05  4.20578111649790051E-05  4.31224919115682126E-05
  4.42141242663460812E-05  4.53333904657002607E-05  4.64809900145146858E-05
  4.76576401232003106E-05  4.88640761557831619E-05  5.01010520893295608E-05
  5.13693409849939390E-05  5.26697354709846580E-05  5.40030482377479884E-05
  5.53701125456802814E-05  5.67717827456845758E-05  5.82089348128950909E-05
  5.96824668939046235E-05  6.11932998678346192E-05  6.27423779215984922E-05
  6.43306691397174061E-05  6.59591661090545947E-05  6.76288865388477960E-05
  6.93408738964246089E-05  7.10961980589974236E-05  7.28959559819456631E-05
  7.47412723839992481E-05  7.66333004497535329E-05  7.85732225499514709E-05
  8.05622509799825976E-05  8.26016287170600126E-05  8.46926301965449406E-05
  8.68365621079054896E-05  8.90347642108035950E-05  9.12886101718193046E-05
  9.35995084223344891E-05  9.59689030381079820E-05  9.83982746410933440E-05
  1.00889141324058456E-04  1.03443059598584144E-04  1.06061625367031962E-04
  1.08746474919085062E-04  1.11499285953485199E-04  1.14321778625598803E-04
  1.17215716621467010E-04  1.20182908259009068E-04  1.23225207617059477E-04
  1.26344515692947623E-04  1.29542781589335693E-04  1.32822003731055636E-04
  1.36184231112701943E-04  1.39631564577751308E-04  1.43166158130011490E-04
  1.46790220278218296E-04  1.50506015414607320E-04  1.54315865228323479E-04
  1.58222150154542219E-04  1.62227310860202871E-04  1.66333849767277792E-04
  1.70544332614542177E-04  1.74861390058793619E-04  1.79287719316518763E-04
  1.83826085847022631E-04  1.88479325078066973E-04  1.93250344175123875E-04
  1.98142123855305028E-04  2.03157720247092036E-04  2.08300266797007794E-04
  2.13572976224474150E-04  2.18979142526037473E-04  2.24522143030179392E-04
  2.30205440503960872E-04  2.36032585312914516E-04  2.42007217635468352E-04
  2.48133069733219894E-04  2.54413968278475837E-04  2.60853836740641745E-04
  2.67456697832798608E-04  2.74226676019922089E-04  2.81168000090483762E-04
  2.88285005792980132E-04  2.95582138538834068E-04  3.03063956173526270E-04
  3.10735131817756118E-04  3.18600456780073827E-04  3.26664843542995222E-04
  3.34933328824598613E-04  3.43411076717067007E-04  3.52103381904441055E-04
  3.61015672961666873E-04  3.70153515736456544E-04  3.79522616816642226E-04
  3.89128827084932042E-04  3.98978145362890372E-04  4.09076722147218080E-04
  4.19430863439779352E-04  4.30047034674144765E-04  4.40931864741351154E-04
  4.52092150116431676E-04  4.63534859089514896E-04  4.75267136102930604E-04
  4.87296306197655953E-04  4.99629879571892232E-04  5.12275556253753098E-04
  5.25241230892379185E-04  5.38534997668593048E-04  5.52165155330007289E-04
  5.66140212351973161E-04  5.80468892228820556E-04  5.95160138897872981E-04
  6.10223122299727110E-04  6.25667244078611596E-04  6.41502143425346102E-04
  6.57737703067932033E-04  6.74384055411538300E-04  6.91451588833883065E-04
  7.08950954137303746E-04  7.26893071164229289E-04  7.45289135577116807E-04
  7.64150625810085075E-04  7.83489310193283121E-04  8.03317254257524980E-04
  8.23646828220508053E-04  8.44490714662079231E-04  8.65861916390630150E-04
  8.87773764507435561E-04  9.10239926672495869E-04  9.33274415577272243E-04
  9.56891597630177087E-04  9.81106201858060467E-04  1.00593332903235917E-03
  1.03138846102096603E-03  1.05748747037665621E-03  1.08424663016254592E-03
  1.11168262402501906E-03  1.13981255651728953E-03  1.16865396368030176E-03
  1.19822482388950557E-03  1.22854356896938020E-03  1.25962909558834861E-03
  1.29150077693523501E-03  1.32417847468766013E-03  1.35768255127962506E-03
  1.39203388247172654E-03  1.42725387023774348E-03  1.46336445596921658E-03
  1.50038813400877485E-03  1.53834796552191765E-03  1.57726759270986148E-03
  1.61717125337841020E-03  1.65808379586774050E-03  1.70003069435015934E-03
  1.74303806451107826E-03  1.78713267961588687E-03  1.83234198697412539E-03
  1.87869412481462108E-03  1.92621793957458830E-03  1.97494300361675994E-03
  2.02489963338712328E-03  2.07611890801724262E-03  2.12863268838673660E-03
  2.18247363665849143E-03  2.23767523629149869E-03  2.29427181254736887E-03
  2.35229855350455822E-03  2.41179153158576666E-03  2.47278772561396448E-03
  2.53532504341399869E-03  2.59944234496574215E-03  2.66517946612260161E-03
  2.73257724291581065E-03  2.80167753645177691E-03  2.87252325841472027E-03
  2.94515839719567980E-03  3.01962804466033175E-03  3.09597842356604215E-03
  3.17425691564587019E-03  3.25451209038076861E-03  3.33679373446865626E-03
  3.42115288200572172E-03  3.50764184540273147E-03  3.59631424705226686E-03
  3.68722505175932006E-03  3.78043059995271553E-03  3.87598864170349408E-03
  3.97395837156271949E-03  4.07440046423560194E-03  4.17737711111064707E-03
  4.28295205767191371E-03  4.39119064180661274E-03  4.50215983302768626E-03
  4.61592827263104279E-03  4.73256631481737151E-03  4.85214606879251931E-03
  4.97474144186761322E-03  5.10042818357915855E-03  5.22928393086013153E-03
  5.36138825428106314E-03  5.49682270538097255E-03  5.63567086511170511E-03
  5.77801839342214751E-03  5.92395308001286616E-03  6.07356489627678461E-03
  6.22694604845357505E-03  6.38419103202039762E-03  6.54539668735395087E-03
  6.71066225668705187E-03  6.88008944238214550E-03  7.05378246655074138E-03
  7.23184813204324085E-03  7.41439588484809481E-03  7.60153787792167048E-03
  7.79338903647535351E-03  7.99006712475061956E-03  8.19169281430763736E-03
  8.39838975386756649E-03  8.61028464073435897E-03  8.82750729382161814E-03
  9.05019072831808082E-03  9.27847123201962914E-03  9.51248844336203929E-03
  9.75238543119391794E-03  9.99830877630942388E-03  1.02504086547760762E-02
  1.05088389230901576E-02  1.07737572051869873E-02  1.10453249813485168E-02
  1.13237076790397174E-02  1.16090747656978008E-02  1.19015998435108381E-02
  1.22014607462177828E-02  1.25088396379578106E-02  1.28239231142097260E-02
  1.31469023048559775E-02  1.34779729793924330E-02  1.38173356543196176E-02
  1.41651957027472460E-02  1.45217634662410562E-02  1.48872543689389618E-02
  1.52618890339840229E-02  1.56458934022881101E-02  1.60394988536562318E-02
  1.64429423303014514E-02  1.68564664627774002E-02  1.72803196983526489E-02
  1.77147564318488153E-02  1.81600371389852057E-02  1.86164285122356887E-02
  1.90842035992206394E-02  1.95636419436564027E-02  2.00550297288801943E-02
  2.05586599239671076E-02  2.10748324324472151E-02  2.16038542436478298E-02
  2.21460395866737471E-02  2.27017100870188816E-02  2.32711949258213070E-02
  2.38548310017642970E-02  2.44529630956231252E-02  2.50659440374544039E-02
  2.56941348764141847E-02  2.63379050532040228E-02  2.69976325751400542E-02
  2.76737041938068008E-02  2.83665155852804059E-02  2.90764715328936628E-02
  2.98039861125111438E-02  3.05494828802764691E-02  3.13133950627876509E-02
  3.20961657496438846E-02  3.28982480883237352E-02  3.37201054813351386E-02
  3.45622117855504049E-02  3.54250515136568869E-02  3.63091200376397388E-02
  3.72149237942034639E-02  3.81429804920311796E-02  3.90938193207703774E-02
  4.00679811616235435E-02  4.10660187994032061E-02  4.20884971359390264E-02
  4.31359934046668184E-02  4.42090973862276498E-02  4.53084116249059254E-02
  4.64345516457161309E-02  4.75881461719337567E-02  4.87698373428517434E-02
  4.99802809315284396E-02  5.12201465622772190E-02  5.24901179276271793E-02
  5.37908930044653857E-02  5.51231842690933574E-02  5.64877189108439134E-02
  5.78852390439213993E-02  5.93165019171066621E-02  6.07822801209439503E-02
  6.22833617920034235E-02  6.38205508137897476E-02  6.53946670138432495E-02
  6.70065463565534813E-02  6.86570411311798606E-02  7.03470201345414436E-02
  7.20773688478062863E-02  7.38489896068300483E-02  7.56628017653841328E-02
  7.75197418506230196E-02  7.94207637101082137E-02  8.13668386496682466E-02
  8.33589555613385852E-02  8.53981210405888175E-02  8.74853594920077388E-02
  8.96217132225778507E-02  9.18082425216313336E-02  9.40460257265390981E-02
  9.63361592731415417E-02  9.86797577298755835E-02  1.01077953814540336E-01
  1.03531898392593649E-01  1.06042760455775306E-01  1.08611727079854836E-01
  1.11240003360241965E-01  1.13928812324149753E-01  1.16679394817947937E-01
  1.19493009368298056E-01  1.22370932015608544E-01  1.25314456118298168E-01
  1.28324892126305851E-01  1.31403567322231934E-01  1.34551825528446994E-01
  1.37771026778449546E-01  1.41062546950703110E-01  1.44427777363122900E-01
  1.47868124326390571E-01  1.51385008654144643E-01  1.54979865128077765E-01
  1.58654141915939045E-01  1.62409299940386193E-01  1.66246812196587268E-01
  1.70168163016436752E-01  1.74174847277206446E-01  1.78268369552421063E-01
  1.82450243202715634E-01  1.86721989404403377E-01  1.91085136113459619E-01
  1.95541216962608094E-01  2.00091770089179666E-01  2.04738336891408745E-01
  2.09482460710823742E-01  2.14325685438394170E-01  2.19269554042098774E-01
  2.24315607013639284E-01  2.29465380731980501E-01  2.34720405741467075E-01
  2.40082204942310251E-01  2.45552291691281316E-01  2.51132167810513063E-01
  2.56823321502373747E-01  2.62627225168461598E-01  2.68545333130854880E-01
  2.74579079253853442E-01  2.80729874464554274E-01  2.86999104170729713E-01
  2.93388125574597813E-01  2.99898264881222953E-01  3.06530814400426843E-01
  3.13287029541248985E-01  3.20168125698161055E-01  3.27175275028406931E-01
  3.34309603120017618E-01  3.41572185550226837E-01  3.48964044334205969E-01
  3.56486144264161531E-01  3.64139389139057912E-01  3.71924617885383224E-01
  3.79842600569509026E-01  3.87894034302333157E-01  3.96079539036998329E-01
  4.04399653260555325E-01  4.12854829580486138E-01  4.21445430206991434E-01
  4.30171722331895268E-01  4.39033873404904074E-01  4.48031946307757667E-01
  4.57165894426552033E-01  4.66435556622121938E-01  4.75840652097914374E-01
  4.85380775164168166E-01  4.95055389896475739E-01  5.04863824685912954E-01
  5.14805266676855333E-01  5.24878756087340470E-01  5.35083180405391046E-01
  5.45417268453016968E-01  5.55879584307709895E-01  5.66468521069079411E-01
  5.77182294455885203E-01  5.88018936215748078E-01  5.98976287327121604E-01
  6.10051990969744606E-01  6.21243485236124382E-01  6.32547995552780629E-01
  6.43962526775865629E-01  6.55483854921441678E-01  6.67108518486199675E-01
  6.78832809309787732E-01  6.90652762925321961E-01  7.02564148340146466E-01
  7.14562457184702127E-01  7.26642892163620546E-01  7.38800354740134058E-01
  7.51029431982945472E-01  7.63324382504135146E-01  7.75679121418044959E-01
  7.88087204254915852E-01  8.00541809770044299E-01  8.13035721600239181E-01
  8.25561308735377364E-01  8.38110504795107181E-01  8.50674786130637628E-01
  8.63245148810819929E-01  8.75812084602371255E-01  8.88365556118512423E-01
  9.00894971391341337E-01  9.13389158224223063E-01  9.25836338805310466E-01
  9.38224105216642346E-01  9.50539396660198044E-01  9.62768479449709225E-01
  9.74896931091697172E-01  9.86909630109622849E-01  9.98790753656678243E-01
  1.01052378474976301E+00  1.02209151497669160E+00  1.03347603285790535E+00
  1.04465871136124044E+00  1.05562019621287595E+00  1.06634039510505851E+00
  1.07679846791467471E+00  1.08697281805508816E+00  1.09684108509188527E+00
  1.10638013876165942E+00  1.11556607454178014E+00  1.12437421092820755E+00
  1.13277908858784482E+00  1.14075447156162357E+00  1.14827335070449044E+00
  1.15530794955867999E+00  1.16182973286709679E+00  1.16780941794423665E+00
  1.17321698913283590E+00  1.17802171558529256E+00  1.18219217261979859E+00
  1.18569626691200991E+00  1.18850126579386961E+00  1.19057383094184499E+00
  1.19188005674721698E+00  1.19238551367110146E+00  1.19205529689646283E+00
  1.19085408059837561E+00  1.18874617816208095E+00  1.18569560868589918E+00
  1.18166617011276998E+00  1.17662151933757286E+00  1.17052525964347720E+00
  1.16334103582202375E+00  1.15503263733148542E+00  1.14556410984651569E+00
  1.13489987554791893E+00  1.12300486249453546E+00  1.10984464340941225E+00
  1.09538558419927456E+00  1.07959500250948692E+00  1.06244133659579432E+00
  1.04389432476876887E+00  1.02392519563662443E+00  1.00250686933644895E+00
  9.79614169902494170E-01  9.55224048872397646E-01  9.29315820177699980E-01
  9.01871406303098144E-01  8.72875595629123757E-01  8.42316310794732792E-01
  8.10184887829100364E-01  7.76476365705218718E-01  7.41189785861052663E-01
  7.04328501116584516E-01  6.65900493286483708E-01  6.25918698647857208E-01
  5.84401340270200298E-01  5.41372266049784834E-01  4.96861291112966452E-01
  4.50904543061983243E-01  4.03544808332649552E-01  3.54831877715704125E-01
  3.04822888862638752E-01  2.53582663352789284E-01  2.01184035641604891E-01
  1.47708170941120542E-01  9.32448688032415096E-02  3.78928488859356441E-02
 -1.82399849171666212E-02 -7.50363061099682538E-02 -1.32369157428136847E-01
 -1.90101777627665336E-01 -2.48087468295240671E-01 -3.06169506058380669E-01
 -3.64181105878392142E-01 -4.21945441400866983E-01 -4.79275728613845764E-01
 -5.35975379316770972E-01 -5.91838231127668868E-01 -6.46648860944586401E-01
 -7.00182988922464000E-01 -7.52207980119716568E-01 -8.02483451000752024E-01
 -8.50761987941192288E-01 -8.96789984761051873E-01 -9.40308606095865862E-01
 -9.81054883094538699E-01 -1.01876294749254503E+00 -1.05316540953650906E+00
 -1.08399488451716430E+00 -1.11098567178793339E+00 -1.13387558909133479E+00
 -1.15240796377068033E+00 -1.16633378099592910E+00 -1.17541398746646286E+00
 -1.17942194715731552E+00 -1.17814604353765651E+00 -1.17139242030150581E+00
 -1.15898785000348226E+00 -1.14078271708239343E+00 -1.11665409858184850E+00
 -1.08650892244299579E+00 -1.05028717955845985E+00 -1.00796516185257223E+00
 -9.59558694512088639E-01 -9.05126326162292716E-01 -8.44772436302953511E-01
 -7.78650214734018742E-01 -7.06964463069812865E-01 -6.29974163832159539E-01
 -5.47994758109391245E-01 -4.61400068465102231E-01 -3.70623799787556829E-01
 -2.76160547212836949E-01 -1.78566237271868961E-01 -7.84579261589075649E-02
  2.34871223326775999E-02  1.26533156927630730E-01  2.29888533741999856E-01
  3.32709260109719518E-01  4.34103557334394319E-01  5.33137506169868214E-01
  6.28841830538314994E-01  7.20219864294604495E-01  8.06256732562975920E-01
  8.85929763109492230E-01  9.58220124205859447E-01  1.02212566335985944E+00
  1.07667489605601352E+00  1.12094206524984008E+00  1.15406316084808136E+00
  1.17525275393386597E+00  1.18382146331428539E+00  1.17919383245504084E+00
  1.16092635353825013E+00  1.12872533290540189E+00  1.08246424936739305E+00
  1.02220021479957968E+00  9.48189106305612373E-01  8.60898902441476377E-01
  7.61020724150710870E-01  6.49477055975623996E-01  5.27426606757201766E-01
  3.96265263551298430E-01  2.57622600120384404E-01  1.13353424426158839E-01
 -3.44761096301774497E-02 -1.83608240152557528E-01 -3.31619515922228325E-01
 -4.75953120101709037E-01 -6.13957691330834887E-01 -7.42932576642114428E-01
 -8.60179266653850805E-01 -9.63058554362664521E-01 -1.04905272651609094E+00
 -1.11583184424471149E+00 -1.16132290207028532E+00 -1.18378037789104562E+00
 -1.18185640912235801E+00 -1.15466856169928023E+00 -1.10186291081495646E+00
 -1.02366993852607457E+00 -9.20950588750082733E-01 -7.95229721061357031E-01
 -6.48714188296143024E-01 -4.84292846822036105E-01 -3.05516009474802619E-01
 -1.16552185274514553E-01  7.78795697454282565E-02  2.72602730559014128E-01
  4.62102054621527869E-01  6.40667298930154172E-01  8.02560096096109343E-01
  9.42200957740919054E-01  1.05437205473116680E+00  1.13443005438385813E+00
  1.17852193084595558E+00  1.18379537607901208E+00  1.14859430617665925E+00
  1.07262907249209638E+00  9.57110447992752356E-01  8.04836368372702338E-01
  6.20220864482262768E-01  4.09255718213429431E-01  1.79397181484203944E-01
 -6.06273357313206682E-02 -3.01094366859380680E-01 -5.31638969636795800E-01
 -7.41681767193328456E-01 -9.20916236752630013E-01 -1.05983858263694364E+00
 -1.15029712017835606E+00 -1.18603309420475345E+00 -1.16318068503614880E+00
 -1.08069108278849768E+00 -9.40644419396353459E-01 -7.48414500822230155E-01
 -5.12655082163566811E-01 -2.45083168195653567E-01  3.99553705132212611E-02
  3.26139791051320904E-01  5.96034604256408973E-01  8.32125005839082554E-01
  1.01797848507446731E+00  1.13946556098638152E+00  1.18595666659437460E+00
  1.15140009399627075E+00  1.03517954559771508E+00  8.42651051952038821E-01
  5.85269372262203991E-01  2.80234524645282979E-01 -5.03799389137876280E-02
 -3.81014643706056755E-01 -6.84477433810447011E-01 -9.34158236103284301E-01
                              </PP_CHI.3>
                             </PP_PSWFC> 
<PP_FULL_WFC number_of_wfc=" 3">
 <PP_AEWFC.1 type="real" size="   777" l="0" columns="3" label= "1S">
  1.68752504459132330E-03  1.70873132782440847E-03  1.73020385016897974E-03
  1.75194594786695721E-03  1.77396099880344597E-03  1.79625242302519140E-03
  1.81882368326544163E-03  1.84167828547130851E-03  1.86481977933398318E-03
  1.88825175883425549E-03  1.91197786279229684E-03  1.93600177541941977E-03
  1.96032722687710000E-03  1.98495799384996096E-03  2.00989790012093229E-03
  2.03515081714845947E-03  2.06072066465837287E-03  2.08661141124295759E-03
  2.11282707496112266E-03  2.13937172394768407E-03  2.16624947703626626E-03
  2.19346450438360607E-03  2.22102102809875000E-03  2.24892332288881888E-03
  2.27717571670781310E-03  2.30578259140825845E-03  2.33474838340974123E-03
  2.36407758437247621E-03  2.39377474187288429E-03  2.42384446009598570E-03
  2.45429140053382566E-03  2.48512028268595749E-03  2.51633588477725122E-03
  2.54794304448116137E-03  2.57994665964626996E-03  2.61235168904089265E-03
  2.64516315310102694E-03  2.67838613468488178E-03  2.71202577984479580E-03
  2.74608729860007081E-03  2.78057596572203096E-03  2.81549712153247996E-03
  2.85085617270309675E-03  2.88665859307285109E-03  2.92290992447132025E-03
  2.95961577754923991E-03  2.99678183262652243E-03  3.03441384054125868E-03
  3.07251762351592149E-03  3.11109907603128585E-03  3.15016416570810046E-03
  3.18971893420601747E-03  3.22976949812436593E-03  3.27032204992212458E-03
  3.31138285884256074E-03  3.35295827185162982E-03  3.39505471458829110E-03
  3.43767869232203217E-03  3.48083679092813479E-03  3.52453567786658499E-03
  3.56878210318084489E-03  3.61358290050041659E-03  3.65894498806226039E-03
  3.70487536973839295E-03  3.75138113608007150E-03  3.79846946537095928E-03
  3.84614762469480875E-03  3.89442297101439457E-03  3.94330295226363783E-03
  3.99279510845239501E-03  4.04290707278399507E-03  4.09364657278600986E-03
  4.14502143145417407E-03  4.19703956840929756E-03  4.24970900106846818E-03
  4.30303784582837610E-03  4.35703431926458967E-03  4.41170673934172895E-03
  4.46706352664142520E-03  4.52311320560004615E-03  4.57986440576556644E-03
  4.63732586306403287E-03  4.69550642108510982E-03  4.75441503237889265E-03
  4.81406075976972825E-03  4.87445277768473739E-03  4.93560037349617849E-03
  4.99751294888201025E-03  5.06020002119847954E-03  5.12367122487163325E-03
  5.18793631280271145E-03  5.25300515778966311E-03  5.31888775396649298E-03
  5.38559421825630848E-03  5.45313479184322044E-03  5.52151984165995431E-03
  5.59075986189139923E-03  5.66086547549714790E-03  5.73184743574944085E-03
  5.80371662778878146E-03  5.87648407019810467E-03  5.95016091659310471E-03
  6.02475845723101072E-03  6.10028812063801058E-03  6.17676147525366738E-03
  6.25419023109407678E-03  6.33258624143421926E-03  6.41196150450807061E-03
  6.49232816522757328E-03  6.57369851692146592E-03  6.65608500309268231E-03
  6.73950021919479409E-03  6.82395691442867682E-03  6.90946799355875944E-03
  6.99604651874886213E-03  7.08370571141800440E-03  7.17245895411701938E-03
  7.26231979242528743E-03  7.35330193686791877E-03  7.44541926485372575E-03
  7.53868582263443783E-03  7.63311582728491093E-03  7.72872366870456899E-03
  7.82552391164023468E-03  7.92353129773086355E-03  8.02276074757405679E-03
  8.12322736281458589E-03  8.22494642825506890E-03  8.32793341398896728E-03
  8.43220397755630076E-03  8.53777396612202116E-03  8.64465941867731749E-03
  8.75287656826398940E-03  8.86244184422206073E-03  8.97337187446084136E-03
  9.08568348775362286E-03  9.19939371605617458E-03  9.31451979684918413E-03
  9.43107917550483135E-03  9.54908950767765531E-03  9.66856866171990868E-03
  9.78953472112154693E-03  9.91200598697501711E-03  1.00360009804650475E-02
  1.01615384453835628E-02  1.02886373506699477E-02  1.04173168929766781E-02
  1.05475964992606877E-02  1.06794958294004431E-02  1.08130347788389751E-02
  1.09482334812530512E-02  1.10851123112484899E-02  1.12236918870819626E-02
  1.13639930734093023E-02  1.15060369840604398E-02  1.16498449848412948E-02
  1.17954386963624522E-02  1.19428399968950754E-02  1.20920710252539788E-02
  1.22431541837080479E-02  1.23961121409182102E-02  1.25509678349028757E-02
  1.27077444760311953E-02  1.28664655500441063E-02  1.30271548211033216E-02
  1.31898363348683725E-02  1.33545344216017062E-02  1.35212736993021044E-02
  1.36900790768663926E-02  1.38609757572795127E-02  1.40339892408331522E-02
  1.42091453283728179E-02  1.43864701245735929E-02  1.45659900412445763E-02
  1.47477318006619795E-02  1.49317224389311203E-02  1.51179893093770952E-02
  1.53065600859643713E-02  1.54974627667452559E-02  1.56907256773371959E-02
  1.58863774744290483E-02  1.60844471493161376E-02  1.62849640314642677E-02
  1.64879577921026275E-02  1.66934584478454807E-02  1.69014963643427281E-02
  1.71121022599590965E-02  1.73253072094821520E-02  1.75411426478588421E-02
  1.77596403739606716E-02  1.79808325543773691E-02  1.82047517272387847E-02
  1.84314308060650814E-02  1.86609030836450591E-02  1.88932022359424162E-02
  1.91283623260299837E-02  1.93664178080513970E-02  1.96074035312102483E-02
  1.98513547437866554E-02  2.00983070971808286E-02  2.03482966499835410E-02
  2.06013598720728545E-02  2.08575336487375369E-02  2.11168552848264648E-02
  2.13793625089235897E-02  2.16450934775484459E-02  2.19140867793817251E-02
  2.21863814395157101E-02  2.24620169237288482E-02  2.27410331427843650E-02
  2.30234704567527475E-02  2.33093696793567930E-02  2.35987720823396009E-02
  2.38917193998548980E-02  2.41882538328786929E-02  2.44884180536421650E-02
  2.47922552100852817E-02  2.50998089303301405E-02  2.54111233271737472E-02
  2.57262430025997427E-02  2.60452130523078362E-02  2.63680790702607616E-02
  2.66948871532480259E-02  2.70256839054650588E-02  2.73605164431080239E-02
  2.76994323989825132E-02  2.80424799271255173E-02  2.83897077074404570E-02
  2.87411649503430192E-02  2.90969014014183305E-02  2.94569673460873226E-02
  2.98214136142816028E-02  3.01902915851262332E-02  3.05636531916282789E-02
  3.09415509253711980E-02  3.13240378412127304E-02  3.17111675619857827E-02
  3.21029942832006115E-02  3.24995727777473639E-02  3.29009584005970149E-02
  3.33072070934999492E-02  3.37183753896800886E-02  3.41345204185232176E-02
  3.45556999102583987E-02  3.49819722006298808E-02  3.54133962355588916E-02
  3.58500315757923557E-02  3.62919384015381388E-02  3.67391775170833254E-02
  3.71918103553954132E-02  3.76498989827024413E-02  3.81135061030519681E-02
  3.85826950628450141E-02  3.90575298553441710E-02  3.95380751251527066E-02
  4.00243961726627281E-02  4.05165589584700128E-02  4.10146301077526712E-02
  4.15186769146117796E-02  4.20287673463703715E-02  4.25449700478292836E-02
  4.30673543454756433E-02  4.35959902516427494E-02  4.41309484686165793E-02
  4.46723003926877277E-02  4.52201181181441092E-02  4.57744744412018831E-02
  4.63354428638717911E-02  4.69030975977558287E-02  4.74775135677731538E-02
  4.80587664158091052E-02  4.86469325042854575E-02  4.92420889196475420E-02
  4.98443134757633813E-02  5.04536847172328481E-02  5.10702819226004426E-02
  5.16941851074688985E-02  5.23254750275091232E-02  5.29642331813608147E-02
  5.36105418134210296E-02  5.42644839165143805E-02  5.49261432344403458E-02
  5.55956042643935971E-02  5.62729522592511633E-02  5.69582732297212249E-02
  5.76516539463492600E-02  5.83531819413747807E-02  5.90629455104331041E-02
  5.97810337140976394E-02  6.05075363792548920E-02  6.12425441003070364E-02
  6.19861482401964578E-02  6.27384409312441993E-02  6.34995150757967364E-02
  6.42694643466749371E-02  6.50483831874166807E-02  6.58363668123070067E-02
  6.66335112061893081E-02  6.74399131240483868E-02  6.82556700903587943E-02
  6.90808803981908526E-02  6.99156431080663471E-02  7.07600580465543444E-02
  7.16142258046007646E-02  7.24782477355825766E-02  7.33522259530766940E-02
  7.42362633283357165E-02  7.51304634874616767E-02  7.60349308082677589E-02
  7.69497704168181779E-02  7.78750881836366843E-02  7.88109907195750775E-02
  7.97575853713292510E-02  8.07149802165928604E-02  8.16832840588397752E-02
  8.26626064217224205E-02  8.36530575430757262E-02  8.46547483685140129E-02
  8.56677905446118632E-02  8.66922964116551703E-02  8.77283789959499571E-02
  8.87761520016775441E-02  8.98357298022833400E-02  9.09072274313868084E-02
  9.19907605731983963E-02  9.30864455524298001E-02  9.41943993236858401E-02
  9.53147394603229975E-02  9.64475841427597791E-02  9.75930521462248096E-02
  9.87512628279278437E-02  9.99223361136400978E-02  1.01106392483667040E-01
  1.02303552958197874E-01  1.03513939082016462E-01  1.04737672908557566E-01
  1.05974876983292776E-01  1.07225674326428266E-01  1.08490188414896507E-01
  1.09768543163626511E-01  1.11060862906073907E-01  1.12367272373994326E-01
  1.13687896676440262E-01  1.15022861277962532E-01  1.16372291975999353E-01
  1.17736314877432427E-01  1.19115056374292622E-01  1.20508643118593356E-01
  1.21917201996272803E-01  1.23340860100223465E-01  1.24779744702389672E-01
  1.26233983224913332E-01  1.27703703210304748E-01  1.29189032290617289E-01
  1.30690098155604756E-01  1.32207028519838177E-01  1.33739951088761883E-01
  1.35288993523666079E-01  1.36854283405550531E-01  1.38435948197859482E-01
  1.40034115208061194E-01  1.41648911548050177E-01  1.43280464093348797E-01
  1.44928899441084114E-01  1.46594343866714577E-01  1.48276923279482026E-01
  1.49976763176565053E-01  1.51693988595907353E-01  1.53428724067695504E-01
  1.55181093564465439E-01  1.56951220449806111E-01  1.58739227425638146E-01
  1.60545236478039643E-01  1.62369368821593890E-01  1.64211744842232887E-01
  1.66072484038548546E-01  1.67951704961550402E-01  1.69849525152837827E-01
  1.71766061081163129E-01  1.73701428077357445E-01  1.75655740267594007E-01
  1.77629110504961218E-01  1.79621650299319036E-01  1.81633469745412474E-01
  1.83664677449219077E-01  1.85715380452497913E-01  1.87785684155518412E-01
  1.89875692237940680E-01  1.91985506577822207E-01  1.94115227168726145E-01
  1.96264952034902268E-01  1.98434777144519764E-01  2.00624796320927751E-01
  2.02835101151914221E-01  2.05065780896943106E-01  2.07316922392343617E-01
  2.09588609954430044E-01  2.11880925280529570E-01  2.14193947347893737E-01
  2.16527752310474109E-01  2.18882413393540726E-01  2.21258000786126424E-01
  2.23654581531272961E-01  2.26072219414061554E-01  2.28510974847411424E-01
  2.30970904755629008E-01  2.33452062455691250E-01  2.35954497536249558E-01
  2.38478255734339728E-01  2.41023378809784028E-01  2.43589904417279152E-01
  2.46177865976157706E-01  2.48787292537813037E-01  2.51418208650781405E-01
  2.54070634223476532E-01  2.56744584384571373E-01  2.59440069341026869E-01
  2.62157094233766097E-01  2.64895658990994931E-01  2.67655758179172920E-01
  2.70437380851637932E-01  2.73240510394899772E-01  2.76065124372605331E-01
  2.78911194367189752E-01  2.81778685819226271E-01  2.84667557864495380E-01
  2.87577763168789358E-01  2.90509247760477984E-01  2.93461950860859022E-01
  2.96435804712321560E-01  2.99430734404354970E-01  3.02446657697436005E-01
  3.05483484844829567E-01  3.08541118412356430E-01  3.11619453096160903E-01
  3.14718375538530826E-01  3.17837764141820300E-01  3.20977488880533235E-01
  3.24137411111627860E-01  3.27317383383105787E-01  3.30517249240953659E-01
  3.33736843034512620E-01  3.36975989720350255E-01  3.40234504664720883E-01
  3.43512193444696357E-01  3.46808851648060468E-01  3.50124264672066254E-01
  3.53458207521164247E-01  3.56810444603799015E-01  3.60180729528389587E-01
  3.63568804898613485E-01  3.66974402108119602E-01  3.70397241134796495E-01
  3.73837030334736586E-01  3.77293466236035546E-01  3.80766233332575366E-01
  3.84255003877947310E-01  3.87759437679673302E-01  3.91279181893896488E-01
  3.94813870820712343E-01  3.98363125700321008E-01  4.01926554510185052E-01
  4.05503751763402698E-01  4.09094298308489035E-01  4.12697761130768115E-01
  4.16313693155598685E-01  4.19941633053654839E-01  4.23581105048493334E-01
  4.27231618726644780E-01  4.30892668850475336E-01  4.34563735174071042E-01
  4.38244282262404750E-01  4.41933759314054764E-01  4.45631599987751259E-01
  4.49337222233030187E-01  4.53050028125289383E-01  4.56769403705541255E-01
  4.60494718825170124E-01  4.64225326996002663E-01  4.67960565246005655E-01
  4.71699753980966197E-01  4.75442196852466137E-01  4.79187180632491272E-01
  4.82933975095029389E-01  4.86681832905009826E-01  4.90429989514948317E-01
  4.94177663069662987E-01  4.97924054319437148E-01  5.01668346542008869E-01
  5.05409705473773951E-01  5.09147279250589224E-01  5.12880198358580230E-01
  5.16607575595349311E-01  5.20328506041988659E-01  5.24042067046317062E-01
  5.27747318217741235E-01  5.31443301434174065E-01  5.35129040861416994E-01
  5.38803542985439310E-01  5.42465796657971233E-01  5.46114773155828237E-01
  5.49749426254435236E-01  5.53368692315951316E-01  5.56971490392418223E-01
  5.60556722344368596E-01  5.64123272975318946E-01  5.67670010182576457E-01
  5.71195785124779420E-01  5.74699432406592159E-01  5.78179770280972782E-01
  5.81635600869420455E-01  5.85065710400613503E-01  5.88468869467836719E-01
  5.91843833305590317E-01  5.95189342085769457E-01  5.98504121233788378E-01
  6.01786881765021264E-01  6.05036320641915260E-01  6.08251121152123431E-01
  6.11429953307994323E-01  6.14571474267740947E-01  6.17674328778594628E-01
  6.20737149642243913E-01  6.23758558202831770E-01  6.26737164857773532E-01
  6.29671569591617963E-01  6.32560362533244880E-01  6.35402124536563639E-01
  6.38195427784889802E-01  6.40938836419175706E-01  6.43630907190238188E-01
  6.46270190135108891E-01  6.48855229277597423E-01  6.51384563353144208E-01
  6.53856726558004753E-01  6.56270249322787436E-01  6.58623659110333493E-01
  6.60915481237905666E-01  6.63144239723612583E-01  6.65308458156979698E-01
  6.67406660593532375E-01  6.69437372473237757E-01  6.71399121562605727E-01
  6.73290438920231771E-01  6.75109859885516639E-01  6.76855925090270705E-01
  6.78527181492875275E-01  6.80122183434635263E-01  6.81639493717919098E-01
  6.83077684705653665E-01  6.84435339441692880E-01  6.85711052791550646E-01
  6.86903432602945840E-01  6.88011100885567828E-01  6.89032695009430096E-01
  6.89966868921109588E-01  6.90812294377267433E-01  6.91567662194648269E-01
  6.92231683515736163E-01  6.92803091089272516E-01  6.93280640564762796E-01
  6.93663111800071230E-01  6.93949310181153245E-01  6.94138067952942084E-01
  6.94228245560361890E-01  6.94218732998401866E-01  6.94108451170147078E-01
  6.93896353251616027E-01  6.93581426062228501E-01  6.93162691439669132E-01
  6.92639207617893327E-01  6.92010070606967398E-01  6.91274415573404299E-01
  6.90431418219616955E-01  6.89480296161070094E-01  6.88420310299675653E-01
  6.87250766191941920E-01  6.85971015410342111E-01  6.84580456896337175E-01
  6.83078538303449667E-01  6.81464757328745674E-01  6.79738663031049573E-01
  6.77899857134176664E-01  6.75947995313437966E-01  6.73882788463627369E-01
  6.71704003946678618E-01  6.69411466817129375E-01  6.67005061023512313E-01
  6.64484730583739802E-01  6.61850480732535273E-01  6.59102379038898234E-01
  6.56240556491545779E-01  6.53265208550428134E-01  6.50176596162119091E-01
  6.46975046736933845E-01  6.43660955085663233E-01  6.40234784313732153E-01
  6.36697066670583456E-01  6.33048404352043015E-01  6.29289470253405536E-01
  6.25421008670947742E-01  6.21443835949560430E-01  6.17358841074156839E-01
  6.13166986202509534E-01  6.08869307137134608E-01  6.04466913733838096E-01
  5.99960990244520875E-01  5.95352795591831740E-01  5.90643663573247379E-01
  5.85835002992161513E-01  5.80928297713564135E-01  5.75925106641895002E-01
  5.70827063618673303E-01  5.65635877237515516E-01  5.60353330574180020E-01
  5.54981280829303203E-01  5.49521658881531483E-01  5.43976468748789355E-01
  5.38347786955483576E-01  5.32637761803495313E-01  5.26848612544884909E-01
  5.20982628454309427E-01  5.15042167799242501E-01  5.09029656706189604E-01
  5.02947587921249606E-01  4.96798519464908606E-01  4.90585073171236286E-01
  4.84309933127789860E-01  4.77975843996889249E-01  4.71585609226713054E-01
  4.65142089149406801E-01  4.58648198965655007E-01  4.52106906615339477E-01
  4.45521230534090484E-01  4.38894237295956058E-01  4.32229039142520310E-01
  4.25528791398999906E-01  4.18796689778288933E-01  4.12035967574162387E-01
  4.05249892745171758E-01  3.98441764891085126E-01  3.91614912124069459E-01
  3.84772687837159511E-01  3.77918467372925448E-01  3.71055644595619682E-01
  3.64187628370468919E-01  3.57317838954165412E-01  3.50449704301007192E-01
  3.43586656289543269E-01  3.36732126874976778E-01  3.29889544172994098E-01
  3.23062328481089955E-01  3.16253888243865910E-01  3.09467615969177656E-01
  3.02706884102404872E-01  2.95975040866500338E-01  2.89275406075852615E-01
  2.82611266932356664E-01  2.75985873812435500E-01  2.69402436054082761E-01
  2.62864117753303039E-01  2.56374033579610638E-01  2.49935244620511338E-01
  2.43550754265109332E-01  2.37223504137194618E-01  2.30956370088320179E-01
  2.24752158261514873E-01  2.18613601236366917E-01  2.12543354266266415E-01
  2.06543991618602180E-01  2.00618003028679437E-01  1.94767790278039615E-01
  1.88995663907742195E-01  1.83303840076993879E-01  1.77694437577283620E-01
  1.72169475011915513E-01  1.66730868150507222E-01  1.61380427467647941E-01
  1.56119855874492258E-01  1.50950746651593082E-01  1.45874581590761609E-01
  1.40892729353177815E-01  1.36006444050366548E-01  1.31216864053983667E-01
  1.26525011039680946E-01  1.21931789269584423E-01  1.17437985117151394E-01
  1.13044266837371871E-01  1.08751184584451002E-01  1.04559170678259289E-01
  1.00468540119962715E-01  9.64794913563568890E-02  9.25921072915286136E-02
  8.88063565435635721E-02  8.51220949431051865E-02  8.15390672696698487E-02
  7.80569092207214210E-02  7.46751496076262095E-02  7.13932127717442633E-02
  6.82104212130672516E-02  6.51259984230040390E-02  6.21390719121316312E-02
  5.92486764229865487E-02  5.64537573172744292E-02  5.37531741262200768E-02
  5.11457042521799854E-02  4.86300468090906449E-02  4.62048265888367338E-02
  4.38685981401950309E-02  4.16198499466436875E-02  3.94570086890274480E-02
  3.73784435788375655E-02  3.53824707477011294E-02  3.34673576785804450E-02
  3.16313276641600818E-02  2.98725642779442517E-02  2.81892158437026183E-02
  2.65793998890860757E-02  2.50412075694844069E-02  2.35727080485121226E-02
  2.21719528218872475E-02  2.08369799719049301E-02  1.95658183402012721E-02
  1.83564916070504194E-02  1.72070222660353073E-02  1.61154354835730852E-02
  1.50797628334599192E-02  1.40980458973201956E-02  1.31683397225943223E-02
  1.22887161304794761E-02  1.14572668670357945E-02  1.06721065914883555E-02
  9.93137569658328855E-03  9.23324295669858061E-03  8.57590800027765304E-03
  7.95760360381648178E-03  7.37659780568654562E-03  6.83119583882245938E-03
  6.31974188204182091E-03  5.84062063057096126E-03  5.39225868709783483E-03
  4.97312577539524986E-03  4.58173577924442244E-03  4.21664761004120290E-03
  3.87646590708189565E-03  3.55984157509771923E-03  3.26547216413781982E-03
  2.99210209738615509E-03  2.73852275293637185E-03  2.50357240594186554E-03
  2.28613603790169852E-03  2.08514502013954113E-03  1.89957667878060078E-03
  1.72845374873078789E-03  1.57084372431538148E-03  1.42585811433965895E-03
  1.29265160939488126E-03  1.17042116924953631E-03  1.05840503814004549E-03
  9.55881695709393637E-04  8.62168751237942150E-04  7.76621788670627628E-04
  6.98633169771250488E-04  6.27630802529902565E-04  5.63076881716911533E-04
  5.04466608218115376E-04  4.51326893505240548E-04  4.03215055294011890E-04
  3.59717510124425352E-04  3.20448468265197917E-04  2.85048636000517427E-04
  2.53183930004601465E-04  2.24544208151046201E-04  1.98842020741877553E-04
  1.75811385778386884E-04  1.55206591534376594E-04  1.36801029334769186E-04
                              </PP_AEWFC.1>
 <PP_AEWFC.2 type="real" size="   777" l="0" columns="3" label= "0S">
 -1.63976915388255769E-02 -1.66037519972586853E-02 -1.68123994464384682E-02
 -1.70236663023538848E-02 -1.72375853855522114E-02 -1.74541899261734801E-02
 -1.76735135690470405E-02 -1.78955903788122553E-02 -1.81204548450668960E-02
 -1.83481418876639650E-02 -1.85786868620498313E-02 -1.88121255646214978E-02
 -1.90484942381542177E-02 -1.92878295773645861E-02 -1.95301687344946115E-02
 -1.97755493249155909E-02 -2.00240094328741763E-02 -2.02755876173081953E-02
 -2.05303229176730280E-02 -2.07882548598563276E-02 -2.10494234622247665E-02
 -2.13138692416842516E-02 -2.15816332197875035E-02 -2.18527569290022580E-02
 -2.21272824190088119E-02 -2.24052522630249808E-02 -2.26867095642947977E-02
 -2.29716979626258359E-02 -2.32602616409458979E-02 -2.35524453320226368E-02
 -2.38482943252415064E-02 -2.41478544734035107E-02 -2.44511721996907919E-02
 -2.47582945046849641E-02 -2.50692689734170471E-02 -2.53841437825923152E-02
 -2.57029677078473226E-02 -2.60257901310706058E-02 -2.63526610478916207E-02
 -2.66836310751784322E-02 -2.70187514586536053E-02 -2.73580740806397306E-02
 -2.77016514678138023E-02 -2.80495367991359448E-02 -2.84017839138350457E-02
 -2.87584473194642289E-02 -2.91195822001252304E-02 -2.94852444247020590E-02
 -2.98554905552609294E-02 -3.02303778555245983E-02 -3.06099642994214910E-02
 -3.09943085798015626E-02 -3.13834701171697150E-02 -3.17775090686046660E-02
 -3.21764863367226331E-02 -3.25804635787738453E-02 -3.29895032158539145E-02
 -3.34036684421846683E-02 -3.38230232345660548E-02 -3.42476323618630049E-02
 -3.46775613946838229E-02 -3.51128767150949497E-02 -3.55536455265173384E-02
 -3.59999358636823238E-02 -3.64518166027471141E-02 -3.69093574714966302E-02
 -3.73726290596850946E-02 -3.78417028294857419E-02 -3.83166511260673373E-02
 -3.87975471882924736E-02 -3.92844651595382621E-02 -3.97774800986441940E-02
 -4.02766679909862604E-02 -4.07821057596757588E-02 -4.12938712768952387E-02
 -4.18120433753507229E-02 -4.23367018598768269E-02 -4.28679275191465037E-02
 -4.34058021375510125E-02 -4.39504085071735009E-02 -4.45018304399459469E-02
 -4.50601527798978538E-02 -4.56254614155875149E-02 -4.61978432926409555E-02
 -4.67773864264535502E-02 -4.73641799150320217E-02 -4.79583139519685481E-02
 -4.85598798395887044E-02 -4.91689700022140130E-02 -4.97856779996050103E-02
 -5.04100985405365257E-02 -5.10423274965265752E-02 -5.16824619157349591E-02
 -5.23306000369922197E-02 -5.29868413040078812E-02 -5.36512863797278736E-02
 -5.43240371608434344E-02 -5.50051967924801641E-02 -5.56948696830331727E-02
 -5.63931615191697252E-02 -5.71001792810075515E-02 -5.78160312574460961E-02
 -5.85408270616722334E-02 -5.92746776468421749E-02 -6.00176953219238030E-02
 -6.07699937677158644E-02 -6.15316880530478727E-02 -6.23028946511474876E-02
 -6.30837314561852741E-02 -6.38743178000060752E-02 -6.46747744690347598E-02
 -6.54852237213606886E-02 -6.63057893040116947E-02 -6.71365964704113832E-02
 -6.79777719980195622E-02 -6.88294442061593154E-02 -6.96917429740381844E-02
 -7.05647997589567560E-02 -7.14487476147076667E-02 -7.23437212101677718E-02
 -7.32498568480876716E-02 -7.41672924840757197E-02 -7.50961677457785415E-02
 -7.60366239522594634E-02 -7.69888041335790169E-02 -7.79528530505761014E-02
 -7.89289172148516932E-02 -7.99171449089560587E-02 -8.09176862067807062E-02
 -8.19306929941581302E-02 -8.29563189896686815E-02 -8.39947197656566724E-02
 -8.50460527694560514E-02 -8.61104773448276573E-02 -8.71881547536084989E-02
 -8.82792481975753773E-02 -8.93839228405225728E-02 -9.05023458305557749E-02
 -9.16346863226021047E-02 -9.27811155011381977E-02 -9.39418066031370985E-02
 -9.51169349412341186E-02 -9.63066779271139067E-02 -9.75112150951181617E-02
 -9.87307281260758340E-02 -9.99654008713563302E-02 -1.01215419377145663E-01
 -1.02480971908947116E-01 -1.03762248976306481E-01 -1.05059443357762808E-01
 -1.06372750126024887E-01 -1.07702366673373393E-01 -1.09048492737290323E-01
 -1.10411330426314777E-01 -1.11791084246125716E-01 -1.13187961125852457E-01
 -1.14602170444611587E-01 -1.16033924058271704E-01 -1.17483436326445131E-01
 -1.18950924139706551E-01 -1.20436606947038699E-01 -1.21940706783503633E-01
 -1.23463448298140641E-01 -1.25005058782089090E-01 -1.26565768196936212E-01
 -1.28145809203288913E-01 -1.29745417189567863E-01 -1.31364830301024582E-01
 -1.33004289468978881E-01 -1.34664038440276218E-01 -1.36344323806963624E-01
 -1.38045395036181490E-01 -1.39767504500271617E-01 -1.41510907507097883E-01
 -1.43275862330578513E-01 -1.45062630241428347E-01 -1.46871475538106450E-01
 -1.48702665577970072E-01 -1.50556470808629272E-01 -1.52433164799501392E-01
 -1.54333024273561631E-01 -1.56256329139286027E-01 -1.58203362522783886E-01
 -1.60174410800117656E-01 -1.62169763629802538E-01 -1.64189713985486541E-01
 -1.66234558188802201E-01 -1.68304595942388169E-01 -1.70400130363075969E-01
 -1.72521468015235185E-01 -1.74668918944272888E-01 -1.76842796710280914E-01
 -1.79043418421826750E-01 -1.81271104769879426E-01 -1.83526180061865746E-01
 -1.85808972255849525E-01 -1.88119812994825608E-01 -1.90459037641123152E-01
 -1.92826985310908222E-01 -1.95223998908778479E-01 -1.97650425162442189E-01
 -2.00106614657469539E-01 -2.02592921872110476E-01 -2.05109705212166454E-01
 -2.07657327045906420E-01 -2.10236153739018578E-01 -2.12846555689581468E-01
 -2.15488907363047572E-01 -2.18163587327225711E-01 -2.20870978287247610E-01
 -2.23611467120508528E-01 -2.26385444911563594E-01 -2.29193306986971407E-01
 -2.32035452950063309E-01 -2.34912286715627305E-01 -2.37824216544490263E-01
 -2.40771655077975516E-01 -2.43755019372226517E-01 -2.46774730932374009E-01
 -2.49831215746523089E-01 -2.52924904319552779E-01 -2.56056231706692172E-01
 -2.59225637546861343E-01 -2.62433566095757020E-01 -2.65680466258646775E-01
 -2.68966791622863244E-01 -2.72293000489964854E-01 -2.75659555907532217E-01
 -2.79066925700591384E-01 -2.82515582502611717E-01 -2.86006003786070884E-01
 -2.89538671892544175E-01 -2.93114074062286400E-01 -2.96732702463290754E-01
 -3.00395054219759650E-01 -3.04101631439993692E-01 -3.07852941243616673E-01
 -3.11649495788144604E-01 -3.15491812294823204E-01 -3.19380413073715064E-01
 -3.23315825547991487E-01 -3.27298582277371797E-01 -3.31329220980693340E-01
 -3.35408284557527525E-01 -3.39536321108841743E-01 -3.43713883956599353E-01
 -3.47941531662314618E-01 -3.52219828044433247E-01 -3.56549342194562080E-01
 -3.60930648492413408E-01 -3.65364326619480151E-01 -3.69850961571307313E-01
 -3.74391143668365622E-01 -3.78985468565399108E-01 -3.83634537259233299E-01
 -3.88338956094929078E-01 -3.93099336770241392E-01 -3.97916296338293562E-01
 -4.02790457208377972E-01 -4.07722447144848177E-01 -4.12712899263935284E-01
 -4.17762452028522524E-01 -4.22871749240642469E-01 -4.28041440031757980E-01
 -4.33272178850601208E-01 -4.38564625448550904E-01 -4.43919444862437118E-01
 -4.49337307394603980E-01 -4.54818888590248327E-01 -4.60364869211760952E-01
 -4.65975935210102721E-01 -4.71652777693010061E-01 -4.77396092889891377E-01
 -4.83206582113403338E-01 -4.89084951717393357E-01 -4.95031913051241113E-01
 -5.01048182410375742E-01 -5.07134480982774249E-01 -5.13291534791447068E-01
 -5.19520074632570217E-01 -5.25820836009203485E-01 -5.32194559060481520E-01
 -5.38641988485924594E-01 -5.45163873464875715E-01 -5.51760967570827154E-01
 -5.58434028680324879E-01 -5.65183818876458299E-01 -5.72011104346610066E-01
 -5.78916655274196335E-01 -5.85901245724371744E-01 -5.92965653523326308E-01
 -6.00110660130917961E-01 -6.07337050506565723E-01 -6.14645612968042765E-01
 -6.22037139042843856E-01 -6.29512423312052927E-01 -6.37072263246358572E-01
 -6.44717459033797069E-01 -6.52448813399153060E-01 -6.60267131414684849E-01
 -6.68173220301672588E-01 -6.76167889222659357E-01 -6.84251949064105580E-01
 -6.92426212208930081E-01 -7.00691492298648910E-01 -7.09048603984878678E-01
 -7.17498362669782286E-01 -7.26041584234881632E-01 -7.34679084758073975E-01
 -7.43411680218469928E-01 -7.52240186188440019E-01 -7.61165417512481124E-01
 -7.70188187972584148E-01 -7.79309309939660633E-01 -7.88529594010305979E-01
 -7.97849848628578773E-01 -8.07270879692357557E-01 -8.16793490143754908E-01
 -8.26418479542801343E-01 -8.36146643624069874E-01 -8.45978773835682429E-01
 -8.55915656860158691E-01 -8.65958074116204735E-01 -8.76106801241061328E-01
 -8.86362607552776738E-01 -8.96726255491807400E-01 -9.07198500040997668E-01
 -9.17780088123366644E-01 -9.28471757977073486E-01 -9.39274238506835890E-01
 -9.50188248610952746E-01 -9.61214496482960756E-01 -9.72353678887397210E-01
 -9.83606480408763417E-01 -9.94973572672925077E-01 -1.00645561353977908E+00
 -1.01805324626639582E+00 -1.02976709863981952E+00 -1.04159778207852050E+00
 -1.05354589070160953E+00 -1.06561200036444559E+00 -1.07779666765980764E+00
 -1.09010042888363201E+00 -1.10252379896413477E+00 -1.11506727035334197E+00
 -1.12773131187947517E+00 -1.14051636755917429E+00 -1.15342285536844424E+00
 -1.16645116597097109E+00 -1.17960166140261835E+00 -1.19287467371064704E+00
 -1.20627050354604215E+00 -1.21978941870792079E+00 -1.23343165263845522E+00
 -1.24719740286683112E+00 -1.26108682940085637E+00 -1.27510005306434548E+00
 -1.28923715377869397E+00 -1.30349816878728197E+00 -1.31788309082089250E+00
 -1.33239186620242256E+00 -1.34702439288929687E+00 -1.36178051845146619E+00
 -1.37666003798307246E+00 -1.39166269194624492E+00 -1.40678816394495132E+00
 -1.42203607842690261E+00 -1.43740599831157567E+00 -1.45289742254235987E+00
 -1.46850978356017836E+00 -1.48424244469688582E+00 -1.50009469748624769E+00
 -1.51606575889016981E+00 -1.53215476843788045E+00 -1.54836078527581611E+00
 -1.56468278512593484E+00 -1.58111965714938218E+00 -1.59767020071363564E+00
 -1.61433312206055857E+00 -1.63110703087275710E+00 -1.64799043673561507E+00
 -1.66498174549241873E+00 -1.68207925549011494E+00 -1.69928115371254917E+00
 -1.71658551179837238E+00 -1.73399028194133509E+00 -1.75149329266994913E+00
 -1.76909224450367786E+00 -1.78678470548277080E+00 -1.80456810656889721E+00
 -1.82243973691386230E+00 -1.84039673899318235E+00 -1.85843610360121514E+00
 -1.87655466470560173E+00 -1.89474909415783932E+00 -1.91301589625699275E+00
 -1.93135140216360202E+00 -1.94975176416085949E+00 -1.96821294976011774E+00
 -1.98673073564821023E+00 -2.00530070147303352E+00 -2.02391822346453099E+00
 -2.04257846788893849E+00 -2.06127638433330684E+00 -2.08000669881761224E+00
 -2.09876390673189617E+00 -2.11754226559592285E+00 -2.13633578763898591E+00
 -2.15513823219763090E+00 -2.17394309792955598E+00 -2.19274361484047065E+00
 -2.21153273612278456E+00 -2.23030312980469958E+00 -2.24904717020800105E+00
 -2.26775692921325689E+00 -2.28642416733136367E+00 -2.30504032458069563E+00
 -2.32359651116929244E+00 -2.34208349798188875E+00 -2.36049170687209831E+00
 -2.37881120076043340E+00 -2.39703167353751168E+00 -2.41514243977510112E+00
 -2.43313242424656684E+00 -2.45099015125873887E+00 -2.46870373379791097E+00
 -2.48626086249322098E+00 -2.50364879440129195E+00 -2.52085434161661182E+00
 -2.53786385971285267E+00 -2.55466323602104284E+00 -2.57123787775152612E+00
 -2.58757269996759520E+00 -2.60365211341730651E+00 -2.61946001223459435E+00
 -2.63497976151995283E+00 -2.65019418481197810E+00 -2.66508555146237791E+00
 -2.67963556392834779E+00 -2.69382534499745585E+00 -2.70763542496159326E+00
 -2.72104572875798656E+00 -2.73403556309684781E+00 -2.74658360359682563E+00
 -2.75866788195123913E+00 -2.77026577315057843E+00 -2.78135398278683788E+00
 -2.79190853446764464E+00 -2.80190475737303668E+00 -2.81131727398742060E+00
 -2.82011998804221387E+00 -2.82828607270730314E+00 -2.83578795907211179E+00
 -2.84259732495987283E+00 -2.84868508412160493E+00 -2.85402137585944127E+00
 -2.85857555513215722E+00 -2.86231618319913927E+00 -2.86521101886263674E+00
 -2.86722701037182670E+00 -2.86833028805639900E+00 -2.86848615776211524E+00
 -2.86765909516059647E+00 -2.86581274101618577E+00 -2.86290989749496960E+00
 -2.85891252560506715E+00 -2.85378174386287631E+00 -2.84747782828515428E+00
 -2.83996021381228347E+00 -2.83118749727360974E+00 -2.82111744201163450E+00
 -2.80970698428782439E+00 -2.79691224159903484E+00 -2.78268852303996761E+00
 -2.76699034185372383E+00 -2.74977143031929128E+00 -2.73098475713185396E+00
 -2.71058254743896709E+00 -2.68851630570342781E+00 -2.66473684157189883E+00
 -2.63919429893000990E+00 -2.61183818834126535E+00 -2.58261742307112607E+00
 -2.55148035890491087E+00 -2.51837483797690975E+00 -2.48324823683628360E+00
 -2.44604751898341721E+00 -2.40671929211860824E+00 -2.36520987035299379E+00
 -2.32146534163965956E+00 -2.27543164069069803E+00 -2.22705462765364404E+00
 -2.17628017282812847E+00 -2.12305424771071705E+00 -2.06732302266253276E+00
 -2.00903297150060656E+00 -1.94813098331952550E+00 -1.88456448185509240E+00
 -1.81828155270598013E+00 -1.74923107873331296E+00 -1.67736288396192657E+00
 -1.60262788630051234E+00 -1.52497825940884169E+00 -1.44436760403524067E+00
 -1.36075112914300989E+00 -1.27408584314110085E+00 -1.18433075552803557E+00
 -1.09144708924962108E+00 -9.95398504060233891E-01 -8.96151331164126708E-01
 -7.93674819397126807E-01 -6.87941393189893224E-01 -5.78926922531443622E-01
 -4.66611005125505518E-01 -3.50977260902266441E-01 -2.32013639013711748E-01
 -1.09712737401882615E-01  1.59278650144508913E-02  1.44905263538464418E-01
  2.77210870337941562E-01  4.12830044651655237E-01  5.51741710746786684E-01
  6.93917963889332801E-01  8.39323664671508207E-01  9.87916022129906590E-01
  1.13964416618601372E+00  1.29444871005205164E+00  1.45226130335515102E+00
  1.61300417686162012E+00  1.77658967982099614E+00  1.94291981109599643E+00
  2.11188574540291141E+00  2.28336735615713682E+00  2.45723273660052843E+00
  2.63333772108173347E+00  2.81152540856784050E+00  2.99162569068556339E+00
  3.17345478682360183E+00  3.35681478907406827E+00  3.54149322005064615E+00
  3.72726260689415367E+00  3.91388007506189428E+00  4.10108696579580911E+00
  4.28860848147505358E+00  4.47615336338067227E+00  4.66341360673252492E+00
  4.85006421820068923E+00  5.03576302144337173E+00  5.22015051657949680E+00
  5.40284979986487723E+00  5.58346655020296456E+00  5.76158908948309811E+00
  5.93678852409660163E+00  6.10861897533138265E+00  6.27661790668541020E+00
  6.44030655647033168E+00  6.59919048434009081E+00  6.75276024069158076E+00
  6.90049216811990185E+00  7.04184934429547926E+00  7.17628267578502932E+00
  7.30323215243067825E+00  7.42212827192658331E+00  7.53239364418047064E+00
  7.63344478490737721E+00  7.72469410766274667E+00  7.80555212316918734E+00
  7.87542985431195053E+00  7.93374147455883971E+00  7.97990717678470229E+00
  8.01335627853452159E+00  8.03353056862478709E+00  8.03988789864450304E+00
  8.03190602135716780E+00  8.00908667620618608E+00  7.97095992007133525E+00
  7.91708869909582003E+00  7.84707365478597652E+00  7.76055815466319387E+00
  7.65723353450598321E+00  7.53684453564696977E+00  7.39919491687463271E+00
  7.24415321622586639E+00  7.07165863333894507E+00  6.88172699806750643E+00
  6.67445678574086276E+00  6.45003513380454319E+00  6.20874380860709074E+00
  5.95096506483888721E+00  5.67718733361298877E+00  5.38801066845416265E+00
  5.08415187158668491E+00  4.76644921586212966E+00  4.43586667081838293E+00
  4.09349753442283149E+00  3.74056736535655610E+00  3.37843610436656405E+00
  3.00859926735448147E+00  2.63268808766244478E+00  2.25246848064907690E+00
  1.86983870032776744E+00  1.48682555579410280E+00  1.10557905464850514E+00
  7.28365341890573226E-01  3.57557806110335774E-01 -4.37376947100731519E-03
 -3.54876125136109222E-01 -6.91327614568154947E-01 -1.01105555430822003E+00
 -1.31135590211275432E+00 -1.58951531109877253E+00 -1.84283557982005908E+00
 -2.06866048710785311E+00 -2.26440496439947880E+00 -2.42758651718807084E+00
 -2.55585876104175602E+00 -2.64704688633326057E+00 -2.69918480946566319E+00
 -2.71055370717414457E+00 -2.67972156476990131E+00 -2.60558329947980694E+00
 -2.48740094702281267E+00 -2.32484332416374651E+00 -2.11802450334460790E+00
 -1.86754035901698168E+00 -1.57450237066171295E+00 -1.24056779670973039E+00
 -8.67965268739673834E-01 -4.59514799428160592E-01 -1.86411531037978494E-02
  4.50620501978431842E-01  9.43627752166292910E-01  1.45514399009294793E+00
  1.97936240608451808E+00  2.50994190065224476E+00  3.04005580039038081E+00
  3.56245412380839221E+00  4.06953996709844290E+00  4.55346035944159677E+00
  5.00621167097904340E+00  5.41975934242311475E+00  5.78617134302327507E+00
  6.09776435418022533E+00  6.34726122202008902E+00  6.52795772825621512E+00
  6.63389620147157721E+00  6.66004293986224383E+00  6.60246585356892979E+00
  6.45850817503589347E+00  6.22695354752588059E+00  5.90817730629010907E+00
  5.50427833832655811E+00  5.01918557240475582E+00  4.45873294080845550E+00
  3.83069659964141040E+00  3.14478832818957033E+00  2.41259938232615045E+00
  1.64748968345830749E+00  8.64418111158185676E-01  7.97108574993082297E-02
 -6.89233689876693423E-01 -1.42430323456779395E+00 -2.10709057298021296E+00
 -2.71936840344234954E+00 -3.24361232371260044E+00 -3.66356148456282504E+00
 -3.96480333342676738E+00 -4.13536583217073161E+00 -4.16629759532527810E+00
 -4.05221372169257066E+00 -3.79178285683750405E+00 -3.38812941822930558E+00
 -2.84912414256943913E+00 -2.18753638419886487E+00 -1.42102310637272877E+00
 -5.71932446657903437E-01  3.33095747251787477E-01  1.26374382655252715E+00
  2.18684822047223948E+00  3.06744328028950619E+00  3.87000008058618672E+00
  4.55983099031973804E+00  5.10461789569300528E+00  5.47600885528391501E+00
  5.65121542402649979E+00  5.61453173599380850E+00  5.35868766315223244E+00
  4.88594300353475219E+00  4.20882875476895801E+00  3.35044610303513091E+00
  2.34424467088336863E+00  1.23321944995906696E+00  6.84909801531824319E-02
 -1.09273444969008771E+00 -2.18978925142640346E+00 -3.16167480893031261E+00
 -3.95057239707637153E+00 -4.50556321211916710E+00 -4.78634310395451656E+00
 -4.76668227983438531E+00 -4.43735689479361906E+00 -3.80827252294660923E+00
 -2.90951314531510752E+00 -1.79108681654272472E+00 -5.21202574357556903E-01
  8.16997456622438945E-01  2.13021371999431519E+00  3.32110387389424710E+00
  4.29542543461826654E+00  4.96975382852094683E+00  5.27919609010166990E+00
  5.18442337343419357E+00  4.67729483942621282E+00  3.78435674929019239E+00
  2.56758617278792434E+00  1.12191583012677865E+00 -4.30675034802618928E-01
 -1.95039895621952741E+00 -3.29175213899548202E+00 -4.31759456428523780E+00
 -4.91398369944783564E+00 -5.00424642695299760E+00 -4.56057723052063402E+00
 -3.61147590167422017E+00 -2.24357152891037703E+00 -5.96791845204845850E-01
  1.14747042810594158E+00  2.78469081103258453E+00  4.11061372290599358E+00
  4.94732958457639960E+00  5.16886949150198483E+00  4.72271097020358877E+00
  3.64354514096958049E+00  2.05618860135600512E+00  1.65685876351738204E-01
 -1.76575129157357003E+00 -3.45325546729534150E+00 -4.63134622820744823E+00
 -5.09774197540941909E+00 -4.75184557712967148E+00 -3.62054881207337687E+00
 -1.86501490625331168E+00  2.35489008025093427E-01  2.32302056371972432E+00
  4.01955176297520911E+00  4.99614657481119373E+00  5.04059134327865710E+00
  4.10958761859801669E+00  2.35250494748608752E+00  9.76054006751514991E-02
 -2.20162193144563201E+00 -4.05378109382976248E+00 -5.03547907583532162E+00
 -4.89380909118857765E+00 -3.62046845371144910E+00 -1.47541157062054507E+00
  1.05310018735637012E+00  3.35083388228069312E+00  4.82435702996408988E+00
  5.05916149481929001E+00  3.94726416330313779E+00  1.74406785846799206E+00
 -9.71948106745349261E-01 -3.43858972599847101E+00 -4.92023807985896600E+00
 -4.93412780610260615E+00 -3.42303149234125792E+00 -8.10844553260901435E-01
  2.09396122348855718E+00  4.33564232496883850E+00  5.12641674536260794E+00
  4.13814960148531785E+00  1.66062917977175695E+00 -1.45152814538129671E+00
 -4.05270585370728220E+00 -5.12444888662735742E+00 -4.19026847432701999E+00
                              </PP_AEWFC.2>
 <PP_AEWFC.3 type="real" size="   777" l="1" columns="3" label= "0P">
  1.75439406890075491E-06  1.79957611988426680E-06  1.84588366521184073E-06
  1.89334532357996677E-06  1.94199041036049335E-06  1.99184897558073005E-06
  2.04295184317367953E-06  2.09533062218533927E-06  2.14901769371533818E-06
  2.20404625905607885E-06  2.26045037240132990E-06  2.31826494344310950E-06
  2.37752574377783501E-06  2.43826945878983872E-06  2.50053371066023182E-06
  2.56435705338524744E-06  2.62977901196315099E-06  2.69684012254516038E-06
  2.76558193966714312E-06  2.83604705351395920E-06  2.90827914069738287E-06
  2.98232298440870034E-06  3.05822448216567232E-06  3.13603069738051387E-06
  3.21578988929161718E-06  3.29755152095588377E-06  3.38136630792912717E-06
  3.46728625475344315E-06  3.55536466642976019E-06  3.64565619619114486E-06
  3.73821688516701648E-06  3.83310417792565200E-06  3.93037697271377475E-06
  4.03009566105497498E-06  4.13232214845990808E-06  4.23711990911214013E-06
  4.34455402241369614E-06  4.45469120225700668E-06  4.56759985477221517E-06
  4.68335011066588182E-06  4.80201386756525086E-06  4.92366484589792801E-06
  5.04837862042495111E-06  5.17623267712039847E-06  5.30730646073105309E-06
  5.44168141618414015E-06  5.57944105157503483E-06  5.72067097879837905E-06
  5.86545897319094340E-06  6.01389502849619475E-06  6.16607140654171988E-06
  6.32208270445355644E-06  6.48202590310692816E-06  6.64600043591249289E-06
  6.81410824583341420E-06  6.98645384960285847E-06  7.16314440557480430E-06
  7.34428977478974355E-06  7.53000259659965825E-06  7.72039835080568246E-06
  7.91559543716483127E-06  8.11571524225145368E-06  8.32088222051889631E-06
  8.53122396744571802E-06  8.74687130191974568E-06  8.96795834562249842E-06
  9.19462260755643836E-06  9.42700506907106626E-06  9.66525027157751654E-06
  9.90950640662508691E-06  1.01599254077510737E-05  1.04166630451831008E-05
  1.06798790226162101E-05  1.09497370762882908E-05  1.12264050773368136E-05
  1.15100551351559198E-05  1.18008637058343756E-05  1.20990116999130574E-05
  1.24046845971616324E-05  1.27180725592091336E-05  1.30393705504829639E-05
  1.33687784567298176E-05  1.37065012114504464E-05  1.40527489216726840E-05
  1.44077369992110588E-05  1.47716862946931330E-05  1.51448232337459981E-05
  1.55273799591999460E-05  1.59195944736299068E-05  1.63217107884684055E-05
  1.67339790750302109E-05  1.71566558195473463E-05  1.75900039834101315E-05
  1.80342931653196710E-05  1.84897997694529635E-05  1.89568071770388953E-05
  1.94356059216526343E-05  1.99264938704032272E-05  2.04297764083668148E-05
  2.09457666279806850E-05  2.14747855239190721E-05  2.20171621918310711E-05
  2.25732340325714719E-05  2.31433469619344759E-05  2.37278556249252152E-05
  2.43271236157547540E-05  2.49415237037025462E-05  2.55714380641461992E-05
  2.62172585154515550E-05  2.68793867622463017E-05  2.75582346444817446E-05
  2.82542243925984567E-05  2.89677888894612184E-05  2.96993719387975013E-05
  3.04494285402236853E-05  3.12184251711817749E-05  3.20068400761889561E-05
  3.28151635632164954E-05  3.36438983074584919E-05  3.44935596627315739E-05
  3.53646759808398214E-05  3.62577889388731426E-05  3.71734538747049958E-05
  3.81122401308840326E-05  3.90747314072388774E-05  4.00615261223306738E-05
  4.10732377839445641E-05  4.21104953688803709E-05  4.31739437122588459E-05
  4.42642439066334581E-05  4.53820737111194702E-05  4.65281279707678181E-05
  4.77031190464593228E-05  4.89077772555823018E-05  5.01428513237563652E-05
  5.14091088478949463E-05  5.27073367708831347E-05  5.40383418681470590E-05
  5.54029512464195541E-05  5.68020128550073851E-05  5.82363960098716872E-05
  5.97069919308401199E-05  6.12147142922784290E-05  6.27604997875565168E-05
  6.43453087076559905E-05  6.59701255342666504E-05  6.76359595477327190E-05
  6.93438454502214995E-05  7.10948440044915746E-05  7.28900426886490042E-05
  7.47305563672903846E-05  7.66175279794381256E-05  7.85521292436880202E-05
  8.05355613809956181E-05  8.25690558555394337E-05  8.46538751341122895E-05
  8.67913134644977835E-05  8.89826976733068856E-05  9.12293879837555732E-05
  9.35327788538791214E-05  9.58942998356915674E-05  9.83154164558067937E-05
  1.00797631118057545E-04  1.03342484028655021E-04  1.05951554144449202E-04
  1.08626460144862656E-04  1.11368861428081951E-04  1.14180459132111529E-04
  1.17062997181302482E-04  1.20018263358988251E-04  1.23048090406873833E-04
  1.26154357151837983E-04  1.29338989660829335E-04  1.32603962424549226E-04
  1.35951299570633287E-04  1.39383076107063038E-04  1.42901419196548641E-04
  1.46508509462653461E-04  1.50206582328440383E-04  1.53997929388443439E-04
  1.57884899814787874E-04  1.61869901798295521E-04  1.65955404025445254E-04
  1.70143937192071657E-04  1.74438095554699745E-04  1.78840538520450687E-04
  1.83353992276459084E-04  1.87981251459780341E-04  1.92725180868780899E-04
  1.97588717217038533E-04  2.02574870930790501E-04  2.07686727990996536E-04
  2.12927451821115911E-04  2.18300285221718551E-04  2.23808552353090765E-04
  2.29455660767001246E-04  2.35245103488828430E-04  2.41180461151285010E-04
  2.47265404181018066E-04  2.53503695039370379E-04  2.59899190518621671E-04
  2.66455844095056515E-04  2.73177708340283771E-04  2.80068937392210474E-04
  2.87133789487112637E-04  2.94376629554303330E-04  3.01801931874951640E-04
  3.09414282806587978E-04  3.17218383574882656E-04  3.25219053134375173E-04
  3.33421231099831632E-04  3.41829980749890679E-04  3.50450492104817271E-04
  3.59288085080166795E-04  3.68348212718145023E-04  3.77636464498593331E-04
  3.87158569731558340E-04  3.96920401033343728E-04  4.06927977888126881E-04
  4.17187470297235416E-04  4.27705202518102886E-04  4.38487656895185103E-04
  4.49541477785018225E-04  4.60873475577622358E-04  4.72490630816731422E-04
  4.84400098421073277E-04  4.96609212009210929E-04  5.09125488330493259E-04
  5.21956631804498979E-04  5.35110539171813958E-04  5.48595304258605101E-04
  5.62419222857841756E-04  5.76590797729980360E-04  5.91118743725827845E-04
  6.06011993034760266E-04  6.21279700560996664E-04  6.36931249431289402E-04
  6.52976256636916461E-04  6.69424578813374461E-04  6.86286318160939904E-04
  7.03571828509492623E-04  7.21291721531085411E-04  7.39456873103639615E-04
  7.58078429829583088E-04  7.77167815712810715E-04  7.96736738998078046E-04
  8.16797199176284155E-04  8.37361494160000471E-04  8.58442227632808387E-04
  8.80052316577058713E-04  9.02204998983723201E-04  9.24913841749185842E-04
  9.48192748762844090E-04  9.72055969190495318E-04  9.96518105957696449E-04
  1.02159412443810849E-03  1.04729936135144141E-03  1.07364953387594224E-03
  1.10066074898059483E-03  1.12834951298182375E-03  1.15673274133046506E-03
  1.18582776863369183E-03  1.21565235891813871E-03  1.24622471613904909E-03
  1.27756349494183752E-03  1.30968781168145959E-03  1.34261725570567619E-03
  1.37637190090860416E-03  1.41097231756011853E-03  1.44643958441836710E-03
  1.48279530113104205E-03  1.52006160093258978E-03  1.55826116364413863E-03
  1.59741722898251682E-03  1.63755361018636772E-03  1.67869470796568206E-03
  1.72086552478258829E-03  1.76409167947115422E-03  1.80839942220309283E-03
  1.85381564980819421E-03  1.90036792145692880E-03  1.94808447471319550E-03
  1.99699424196643797E-03  2.04712686725073978E-03  2.09851272345986132E-03
  2.15118292996768073E-03  2.20516937066213888E-03  2.26050471240243260E-03
  2.31722242390929077E-03  2.37535679509694566E-03  2.43494295685729592E-03
  2.49601690130653222E-03  2.55861550250342925E-03  2.62277653765041968E-03
  2.68853870878833908E-03  2.75594166499467785E-03  2.82502602509687034E-03
  2.89583340091238532E-03  2.96840642102613999E-03  3.04278875511694363E-03
  3.11902513884584117E-03  3.19716139931756167E-03  3.27724448112708556E-03
  3.35932247300488578E-03  3.44344463507326734E-03  3.52966142672615909E-03
  3.61802453514601481E-03  3.70858690447197891E-03  3.80140276563211083E-03
  3.89652766685345299E-03  3.99401850486497643E-03  4.09393355680775888E-03
  4.19633251286634715E-03  4.30127650963621922E-03  4.40882816424372284E-03
  4.51905160923294583E-03  4.63201252823513144E-03  4.74777819243637784E-03
  4.86641749786103153E-03  4.98800100348619282E-03  5.11260097020385228E-03
  5.24029140064762380E-03  5.37114807990228885E-03  5.50524861711274190E-03
  5.64267248800987345E-03  5.78350107837111507E-03  5.92781772843494360E-03
  6.07570777828726327E-03  6.22725861423787871E-03  6.38255971620598113E-03
  6.54170270613409210E-03  6.70478139745067387E-03  6.87189184559980869E-03
  7.04313239965807802E-03  7.21860375505843643E-03  7.39840900744236692E-03
  7.58265370766054905E-03  7.77144591794211390E-03  7.96489626925358726E-03
  8.16311801986839038E-03  8.36622711516935014E-03  8.57434224870499105E-03
  8.78758492452094003E-03  9.00607952078820613E-03  9.22995335475026990E-03
  9.45933674901181139E-03  9.69436309919109555E-03  9.93516894295754655E-03
  1.01818940304772895E-02  1.04346813962887305E-02  1.06936774326310945E-02
  1.09590319642493671E-02  1.12308983246968159E-02  1.15094334341579400E-02
  1.17947978788146852E-02  1.20871559917775564E-02  1.23866759356055060E-02
  1.26935297864366244E-02  1.30078936197508682E-02  1.33299475977874636E-02
  1.36598760586385901E-02  1.39978676070406788E-02  1.43441152068855098E-02
  1.46988162754724521E-02  1.50621727795214825E-02  1.54343913329676157E-02
  1.58156832965569427E-02  1.62062648792634066E-02  1.66063572415449043E-02
  1.70161866004591711E-02  1.74359843366551324E-02  1.78659871032574233E-02
  1.83064369366603280E-02  1.87575813692466113E-02  1.92196735440460405E-02
  1.96929723313466649E-02  2.01777424472736992E-02  2.06742545743457823E-02
  2.11827854840191676E-02  2.17036181612294612E-02  2.22370419309385718E-02
  2.27833525866933048E-02  2.33428525212000214E-02  2.39158508589194622E-02
  2.45026635906838569E-02  2.51036137103340662E-02  2.57190313533754815E-02
  2.63492539376479276E-02  2.69946263060028488E-02  2.76555008709790662E-02
  2.83322377614644016E-02  2.90252049713302200E-02  2.97347785100226213E-02
  3.04613425550879953E-02  3.12052896066111266E-02  3.19670206435387141E-02
  3.27469452818585083E-02  3.35454819346009542E-02  3.43630579736240588E-02
  3.52001098931411516E-02  3.60570834749449412E-02  3.69344339552784354E-02
  3.78326261932954364E-02  3.87521348410504521E-02  3.96934445149526929E-02
  4.06570499686122258E-02  4.16434562670012151E-02  4.26531789618464705E-02
  4.36867442681634147E-02  4.47446892418340153E-02  4.58275619581264004E-02
  4.69359216910440261E-02  4.80703390933840818E-02  4.92313963773782989E-02
  5.04196874957800953E-02  5.16358183232525428E-02  5.28804068379029393E-02
  5.41540833027991386E-02  5.54574904472926108E-02  5.67912836479629313E-02
  5.81561311089853761E-02  5.95527140417155751E-02  6.09817268432672754E-02
  6.24438772738498890E-02  6.39398866326174459E-02  6.54704899317678085E-02
  6.70364360686149380E-02  6.86384879953425980E-02  7.02774228861309941E-02
  7.19540323013318495E-02  7.36691223483491170E-02  7.54235138388651832E-02
  7.72180424420317452E-02  7.90535588332290651E-02  8.09309288379704145E-02
  8.28510335705115175E-02  8.48147695667003931E-02  8.68230489105810271E-02
  8.88767993542391721E-02  9.09769644303533437E-02  9.31245035568876584E-02
  9.53203921333373311E-02  9.75656216279066624E-02  9.98611996549722686E-02
  1.02208150042151780E-01  1.04607512886267184E-01  1.07060344597459375E-01
  1.09567717930675518E-01  1.12130722003714225E-01  1.14750462300977463E-01
  1.17428060662039771E-01  1.20164655254105482E-01  1.22961400527381845E-01
  1.25819467152355730E-01  1.28740041937914412E-01  1.31724327729206531E-01
  1.34773543284091801E-01  1.37888923126975760E-01  1.41071717378781214E-01
  1.44323191561746972E-01  1.47644626377695654E-01  1.51037317458355747E-01
  1.54502575086258892E-01  1.58041723884681129E-01  1.61656102475027819E-01
  1.65347063100001856E-01  1.69115971210827054E-01  1.72964205016729100E-01
  1.76893154994808288E-01  1.80904223358363009E-01  1.84998823481650865E-01
  1.89178379278993752E-01  1.93444324536058698E-01  1.97798102191060782E-01
  2.02241163563551402E-01  2.06774967528373405E-01  2.11400979632268726E-01
  2.16120671150542565E-01  2.20935518081088966E-01  2.25847000072993742E-01
  2.30856599286821673E-01  2.35965799183610880E-01  2.41176083239487526E-01
  2.46488933582713649E-01  2.51905829549873062E-01  2.57428246157795193E-01
  2.63057652487705684E-01  2.68795509977985292E-01  2.74643270621801106E-01
  2.80602375065767684E-01  2.86674250605670144E-01  2.92860309075177350E-01
  2.99161944623346998E-01  3.05580531376608622E-01  3.12117420980798033E-01
  3.18773940018686808E-01  3.25551387298347150E-01  3.32451031007560349E-01
  3.39474105729369924E-01  3.46621809313764184E-01  3.53895299600357649E-01
  3.61295690986815354E-01  3.68824050837673112E-01  3.76481395728106516E-01
  3.84268687517079099E-01  3.92186829244221880E-01  4.00236660844689895E-01
  4.08418954676167401E-01  4.16734410852112047E-01  4.25183652375255461E-01
  4.33767220065321923E-01  4.42485567274875036E-01  4.51339054387160155E-01
  4.60327943089791136E-01  4.69452390418110155E-01  4.78712442562061080E-01
  4.88108028430432939E-01  4.97638952966372894E-01  5.07304890208127968E-01
  5.17105376089061819E-01  5.27039800971098926E-01  5.37107401905888904E-01
  5.47307254618146222E-01  5.57638265205824157E-01  5.68099161552015341E-01
  5.78688484443773410E-01  5.89404578393248890E-01  6.00245582157022950E-01
  6.11209418949894889E-01  6.22293786349805367E-01  6.33496145891113915E-01
  6.44813712344010748E-01  6.56243442678490663E-01  6.67782024712022082E-01
  6.79425865440820065E-01  6.91171079055505455E-01  7.03013474642858349E-01
  7.14948543576431228E-01  7.26971446599903426E-01  7.39077000608298507E-01
  7.51259665133536036E-01  7.63513528542239972E-01  7.75832293955316943E-01
  7.88209264900531559E-01  8.00637330711156392E-01  8.13108951685779235E-01
  8.25616144026501741E-01  8.38150464575087684E-01  8.50702995369100323E-01
  8.63264328042761320E-01  8.75824548100099132E-01  8.88373219091052491E-01
  9.00899366724438488E-01  9.13391462955211342E-01  9.25837410087167023E-01
  9.38224524936305815E-01  9.50539523103870354E-01  9.62768503413006793E-01
  9.74896932567660301E-01  9.86909630097196677E-01  9.98790753655595887E-01
  1.01052378474967131E+00  1.02209151497668405E+00  1.03347603285790468E+00
  1.04465871136124044E+00  1.05562019621287595E+00  1.06634039510505851E+00
  1.07679846791467471E+00  1.08697281805508816E+00  1.09684108509188527E+00
  1.10638013876165942E+00  1.11556607454178014E+00  1.12437421092820755E+00
  1.13277908858784482E+00  1.14075447156162357E+00  1.14827335070449044E+00
  1.15530794955867999E+00  1.16182973286709679E+00  1.16780941794423665E+00
  1.17321698913283590E+00  1.17802171558529256E+00  1.18219217261979859E+00
  1.18569626691200991E+00  1.18850126579386961E+00  1.19057383094184499E+00
  1.19188005674721698E+00  1.19238551367110146E+00  1.19205529689646283E+00
  1.19085408059837561E+00  1.18874617816208095E+00  1.18569560868589918E+00
  1.18166617011276998E+00  1.17662151933757286E+00  1.17052525964347720E+00
  1.16334103582202375E+00  1.15503263733148542E+00  1.14556410984651569E+00
  1.13489987554791893E+00  1.12300486249453546E+00  1.10984464340941225E+00
  1.09538558419927456E+00  1.07959500250948692E+00  1.06244133659579432E+00
  1.04389432476876887E+00  1.02392519563662443E+00  1.00250686933644895E+00
  9.79614169902494170E-01  9.55224048872397646E-01  9.29315820177699980E-01
  9.01871406303098144E-01  8.72875595629123757E-01  8.42316310794732792E-01
  8.10184887829100364E-01  7.76476365705218718E-01  7.41189785861052663E-01
  7.04328501116584516E-01  6.65900493286483708E-01  6.25918698647857208E-01
  5.84401340270200298E-01  5.41372266049784834E-01  4.96861291112966452E-01
  4.50904543061983243E-01  4.03544808332649552E-01  3.54831877715704125E-01
  3.04822888862638752E-01  2.53582663352789284E-01  2.01184035641604891E-01
  1.47708170941120542E-01  9.32448688032415096E-02  3.78928488859356441E-02
 -1.82399849171666212E-02 -7.50363061099682538E-02 -1.32369157428136847E-01
 -1.90101777627665336E-01 -2.48087468295240671E-01 -3.06169506058380669E-01
 -3.64181105878392142E-01 -4.21945441400866983E-01 -4.79275728613845764E-01
 -5.35975379316770972E-01 -5.91838231127668868E-01 -6.46648860944586401E-01
 -7.00182988922464000E-01 -7.52207980119716568E-01 -8.02483451000752024E-01
 -8.50761987941192288E-01 -8.96789984761051873E-01 -9.40308606095865862E-01
 -9.81054883094538699E-01 -1.01876294749254503E+00 -1.05316540953650906E+00
 -1.08399488451716430E+00 -1.11098567178793339E+00 -1.13387558909133479E+00
 -1.15240796377068033E+00 -1.16633378099592910E+00 -1.17541398746646286E+00
 -1.17942194715731552E+00 -1.17814604353765651E+00 -1.17139242030150581E+00
 -1.15898785000348226E+00 -1.14078271708239343E+00 -1.11665409858184850E+00
 -1.08650892244299579E+00 -1.05028717955845985E+00 -1.00796516185257223E+00
 -9.59558694512088639E-01 -9.05126326162292716E-01 -8.44772436302953511E-01
 -7.78650214734018742E-01 -7.06964463069812865E-01 -6.29974163832159539E-01
 -5.47994758109391245E-01 -4.61400068465102231E-01 -3.70623799787556829E-01
 -2.76160547212836949E-01 -1.78566237271868961E-01 -7.84579261589075649E-02
  2.34871223326775999E-02  1.26533156927630730E-01  2.29888533741999856E-01
  3.32709260109719518E-01  4.34103557334394319E-01  5.33137506169868214E-01
  6.28841830538314994E-01  7.20219864294604495E-01  8.06256732562975920E-01
  8.85929763109492230E-01  9.58220124205859447E-01  1.02212566335985944E+00
  1.07667489605601352E+00  1.12094206524984008E+00  1.15406316084808136E+00
  1.17525275393386597E+00  1.18382146331428539E+00  1.17919383245504084E+00
  1.16092635353825013E+00  1.12872533290540189E+00  1.08246424936739305E+00
  1.02220021479957968E+00  9.48189106305612373E-01  8.60898902441476377E-01
  7.61020724150710870E-01  6.49477055975623996E-01  5.27426606757201766E-01
  3.96265263551298430E-01  2.57622600120384404E-01  1.13353424426158839E-01
 -3.44761096301774497E-02 -1.83608240152557528E-01 -3.31619515922228325E-01
 -4.75953120101709037E-01 -6.13957691330834887E-01 -7.42932576642114428E-01
 -8.60179266653850805E-01 -9.63058554362664521E-01 -1.04905272651609094E+00
 -1.11583184424471149E+00 -1.16132290207028532E+00 -1.18378037789104562E+00
 -1.18185640912235801E+00 -1.15466856169928023E+00 -1.10186291081495646E+00
 -1.02366993852607457E+00 -9.20950588750082733E-01 -7.95229721061357031E-01
 -6.48714188296143024E-01 -4.84292846822036105E-01 -3.05516009474802619E-01
 -1.16552185274514553E-01  7.78795697454282565E-02  2.72602730559014128E-01
  4.62102054621527869E-01  6.40667298930154172E-01  8.02560096096109343E-01
  9.42200957740919054E-01  1.05437205473116680E+00  1.13443005438385813E+00
  1.17852193084595558E+00  1.18379537607901208E+00  1.14859430617665925E+00
  1.07262907249209638E+00  9.57110447992752356E-01  8.04836368372702338E-01
  6.20220864482262768E-01  4.09255718213429431E-01  1.79397181484203944E-01
 -6.06273357313206682E-02 -3.01094366859380680E-01 -5.31638969636795800E-01
 -7.41681767193328456E-01 -9.20916236752630013E-01 -1.05983858263694364E+00
 -1.15029712017835606E+00 -1.18603309420475345E+00 -1.16318068503614880E+00
 -1.08069108278849768E+00 -9.40644419396353459E-01 -7.48414500822230155E-01
 -5.12655082163566811E-01 -2.45083168195653567E-01  3.99553705132212611E-02
  3.26139791051320904E-01  5.96034604256408973E-01  8.32125005839082554E-01
  1.01797848507446731E+00  1.13946556098638152E+00  1.18595666659437460E+00
  1.15140009399627075E+00  1.03517954559771508E+00  8.42651051952038821E-01
  5.85269372262203991E-01  2.80234524645282979E-01 -5.03799389137876280E-02
 -3.81014643706056755E-01 -6.84477433810447011E-01 -9.34158236103284301E-01
                              </PP_AEWFC.3>
 <PP_PSWFC.1 type="real" size="   777" l="0" columns="3" label= "1S">
  1.23724083718438184E-03  1.25280338712500483E-03  1.26856168892981150E-03
  1.28451820481913226E-03  1.30067542798288269E-03  1.31703588297005496E-03
  1.33360212608311761E-03  1.35037674577736903E-03  1.36736236306531176E-03
  1.38456163192611677E-03  1.40197723972022587E-03  1.41961190760917498E-03
  1.43746839098069282E-03  1.45554947987914379E-03  1.47385799944138758E-03
  1.49239681033810630E-03  1.51116880922069329E-03  1.53017692917375363E-03
  1.54942414017329093E-03  1.56891344955066570E-03  1.58864790246236861E-03
  1.60863058236571468E-03  1.62886461150050913E-03  1.64935315137677212E-03
  1.67009940326859558E-03  1.69110660871419813E-03  1.71237805002227980E-03
  1.73391705078473207E-03  1.75572697639579450E-03  1.77781123457774375E-03
  1.80017327591317552E-03  1.82281659438399113E-03  1.84574472791715067E-03
  1.86896125893728777E-03  1.89246981492627460E-03  1.91627406898980685E-03
  1.94037774043112230E-03  1.96478459533192288E-03  1.98949844714059899E-03
  2.01452315726785179E-03  2.03986263568978416E-03  2.06552084155858968E-03
  2.09150178382090353E-03  2.11780952184392659E-03  2.14444816604942310E-03
  2.17142187855567026E-03  2.19873487382748773E-03  2.22639141933442730E-03
  2.25439583621723410E-03  2.28275249996268657E-03  2.31146584108689844E-03
  2.34054034582722352E-03  2.36998055684284337E-03  2.39979107392415290E-03
  2.42997655471107344E-03  2.46054171542036109E-03  2.49149133158207579E-03
  2.52283023878529166E-03  2.55456333343316837E-03  2.58669557350752225E-03
  2.61923197934297181E-03  2.65217763441083455E-03  2.68553768611285056E-03
  2.71931734658487816E-03  2.75352189351069001E-03  2.78815667094596585E-03
  2.82322709015265204E-03  2.85873863044379178E-03  2.89469684003895115E-03
  2.93110733693040986E-03  2.96797580976019063E-03  3.00530801870812526E-03
  3.04310979639105727E-03  3.08138704877333009E-03  3.12014575608871893E-03
  3.15939197377389886E-03  3.19913183341366232E-03  3.23937154369797987E-03
  3.28011739139107356E-03  3.32137574231265720E-03  3.36315304233146886E-03
  3.40545581837128908E-03  3.44829067942956872E-03  3.49166431760883095E-03
  3.53558350916103031E-03  3.58005511554497589E-03  3.62508608449704913E-03
  3.67068345111532966E-03  3.71685433895732349E-03  3.76360596115145980E-03
  3.81094562152250235E-03  3.85888071573109014E-03  3.90741873242755802E-03
  3.95656725442021431E-03  4.00633395985827007E-03  4.05672662342957367E-03
  4.10775311757337596E-03  4.15942141370828199E-03  4.21173958347557855E-03
  4.26471579999816112E-03  4.31835833915519222E-03  4.37267558087276430E-03
  4.42767601043069295E-03  4.48336821978569285E-03  4.53976090891113071E-03
  4.59686288715350447E-03  4.65468307460594963E-03  4.71323050349891498E-03
  4.77251431960824552E-03  4.83254378368088832E-03  4.89332827287841405E-03
  4.95487728223862472E-03  5.01720042615542202E-03  5.08030743987719115E-03
  5.14420818102392582E-03  5.20891263112329556E-03  5.27443089716593712E-03
  5.34077321318018189E-03  5.40794994182644279E-03  5.47597157601155491E-03
  5.54484874052323367E-03  5.61459219368498890E-03  5.68521282903167863E-03
  5.75672167700599664E-03  5.82912990667614015E-03  5.90244882747488053E-03
  5.97668989096036916E-03  6.05186469259889632E-03  6.12798497356987874E-03
  6.20506262259338300E-03  6.28310967778037376E-03  6.36213832850608327E-03
  6.44216091730669387E-03  6.52318994179965691E-03  6.60523805662792656E-03
  6.68831807542842171E-03  6.77244297282493871E-03  6.85762588644593662E-03
  6.94388011896737625E-03  7.03121914018098749E-03  7.11965658908827320E-03
  7.20920627602049825E-03  7.29988218478506198E-03  7.39169847483852390E-03
  7.48466948348662162E-03  7.57880972811161239E-03  7.67413390842721418E-03
  7.77065690876159020E-03  7.86839380036860429E-03  7.96735984376772781E-03
  8.06757049111300403E-03  8.16904138859127563E-03  8.27178837885018253E-03
  8.37582750345618535E-03  8.48117500538299492E-03  8.58784733153084533E-03
  8.69586113527680629E-03  8.80523327905670394E-03  8.91598083697890849E-03
  9.02812109747035130E-03  9.14167156595530224E-03  9.25664996756704779E-03
  9.37307424989311175E-03  9.49096258575425102E-03  9.61033337601769136E-03
  9.73120525244500906E-03  9.85359708057498979E-03  9.97752796264199035E-03
  1.01030172405301398E-02  1.02300844987638188E-02  1.03587495675348459E-02
  1.04890325257667519E-02  1.06209537042166961E-02  1.07545336886152813E-02
  1.08897933228448637E-02  1.10267537121567435E-02  1.11654362264276136E-02
  1.13058625034558290E-02  1.14480544522979118E-02  1.15920342566457144E-02
  1.17378243782447628E-02  1.18854475603541610E-02  1.20349268312486424E-02
  1.21862855077631699E-02  1.23395471988805138E-02  1.24947358093624918E-02
  1.26518755434250306E-02  1.28109909084578900E-02  1.29721067187892856E-02
  1.31352480994960299E-02  1.33004404902597011E-02  1.34677096492692040E-02
  1.36370816571704471E-02  1.38085829210634718E-02  1.39822401785476263E-02
  1.41580805018153184E-02  1.43361313017947613E-02  1.45164203323423936E-02
  1.46989756944853750E-02  1.48838258407147702E-02  1.50709995793299086E-02
  1.52605260788344251E-02  1.54524348723846187E-02  1.56467558622906122E-02
  1.58435193245708011E-02  1.60427559135603373E-02  1.62444966665738315E-02
  1.64487730086232652E-02  1.66556167571913494E-02  1.68650601270609671E-02
  1.70771357352013688E-02  1.72918766057114162E-02  1.75093161748207556E-02
  1.77294882959492597E-02  1.79524272448252746E-02  1.81781677246635326E-02
  1.84067448714027790E-02  1.86381942590041934E-02  1.88725519048108595E-02
  1.91098542749688557E-02  1.93501382899107545E-02  1.95934413299016959E-02
  1.98398012406489771E-02  2.00892563389755037E-02  2.03418454185576442E-02
  2.05976077557282235E-02  2.08565831153448220E-02  2.11188117567244239E-02
  2.13843344396444958E-02  2.16531924304113124E-02  2.19254275079960072E-02
  2.22010819702386647E-02  2.24801986401212753E-02  2.27628208721098908E-02
  2.30489925585664647E-02  2.33387581362310623E-02  2.36321625927744944E-02
  2.39292514734224630E-02  2.42300708876511742E-02  2.45346675159551081E-02
  2.48430886166874192E-02  2.51553820329731836E-02  2.54715961996962309E-02
  2.57917801505596483E-02  2.61159835252206887E-02  2.64442565765000796E-02
  2.67766501776664292E-02  2.71132158297958809E-02  2.74540056692073840E-02
  2.77990724749739848E-02  2.81484696765102668E-02  2.85022513612362902E-02
  2.88604722823182988E-02  2.92231878664863109E-02  2.95904542219289912E-02
  2.99623281462656176E-02  3.03388671345957116E-02  3.07201293876260551E-02
  3.11061738198753594E-02  3.14970600679568002E-02  3.18928484989378230E-02
  3.22936002187780916E-02  3.26993770808444995E-02  3.31102416945041264E-02
  3.35262574337942057E-02  3.39474884461692522E-02  3.43739996613253093E-02
  3.48058568001003849E-02  3.52431263834515757E-02  3.56858757415077152E-02
  3.61341730226975993E-02  3.65880872029531665E-02  3.70476880949867013E-02
  3.75130463576421741E-02  3.79842335053192509E-02  3.84613219174695653E-02
  3.89443848481646135E-02  3.94334964357336837E-02  3.99287317124716740E-02
  4.04301666144150154E-02  4.09378779911848123E-02  4.14519436158961446E-02
  4.19724421951315554E-02  4.24994533789779458E-02  4.30330577711252188E-02
  4.35733369390241473E-02  4.41203734241030904E-02  4.46742507520404980E-02
  4.52350534430916579E-02  4.58028670224676568E-02  4.63777780307640039E-02
  4.69598740344364871E-02  4.75492436363220139E-02  4.81459764862015027E-02
  4.87501632914018115E-02  4.93618958274338951E-02  4.99812669486643588E-02
  5.06083705990157812E-02  5.12433018226936543E-02  5.18861567749358682E-02
  5.25370327327797648E-02  5.31960281058437359E-02  5.38632424471189933E-02
  5.45387764637660921E-02  5.52227320279118986E-02  5.59152121874418387E-02
  5.66163211767828772E-02  5.73261644276697666E-02  5.80448485798903610E-02
  5.87724814920040015E-02  5.95091722520250388E-02  6.02550311880659245E-02
  6.10101698789324506E-02  6.17747011646644570E-02  6.25487391570131307E-02
  6.33323992498469740E-02  6.41257981294793139E-02  6.49290537849075700E-02
  6.57422855179545240E-02  6.65656139533026964E-02  6.73991610484119263E-02
  6.82430501033100267E-02  6.90974057702436889E-02  6.99623540631798962E-02
  7.08380223671455644E-02  7.17245394473936676E-02  7.26220354583810707E-02
  7.35306419525456750E-02  7.44504918888686806E-02  7.53817196412081975E-02
  7.63244610063877060E-02  7.72788532120228522E-02  7.82450349240714910E-02
  7.92231462540888970E-02  8.02133287661718763E-02  8.12157254835697007E-02
  8.22304808949446547E-02  8.32577409602619223E-02  8.42976531162869386E-02
  8.53503662816707254E-02  8.64160308615960215E-02  8.74947987519634901E-02
  8.85868233430933821E-02  8.96922595229162345E-02  9.08112636796281347E-02
  9.19439937037789673E-02  9.30906089897677314E-02  9.42512704367145793E-02
  9.54261404486791420E-02  9.66153829341932918E-02  9.78191633050745080E-02
  9.90376484744830976E-02  1.00271006854191144E-01  1.01519408351023230E-01
  1.02783024362432890E-01  1.04062027771174001E-01  1.05356592939023622E-01
  1.06666895699514305E-01  1.07993113349631714E-01  1.09335424640432360E-01
  1.10694009766531834E-01  1.12069050354416860E-01  1.13460729449526510E-01
  1.14869231502048669E-01  1.16294742351380417E-01  1.17737449209193393E-01
  1.19197540641045679E-01  1.20675206546479882E-01  1.22170638137544460E-01
  1.23684027915669473E-01  1.25215569646831643E-01  1.26765458334940462E-01
  1.28333890193372491E-01  1.29921062614577726E-01  1.31527174137684555E-01
  1.33152424414022003E-01  1.34797014170473295E-01  1.36461145170580334E-01
  1.38145020173311039E-01  1.39848842889399749E-01  1.41572817935166267E-01
  1.43317150783718816E-01  1.45082047713443740E-01  1.46867715753675437E-01
  1.48674362627440826E-01  1.50502196691174372E-01  1.52351426871291523E-01
  1.54222262597504933E-01  1.56114913732764288E-01  1.58029590499701195E-01
  1.59966503403453614E-01  1.61925863150740257E-01  1.63907880565047986E-01
  1.65912766497804232E-01  1.67940731735393728E-01  1.69991986901875863E-01
  1.72066742357256136E-01  1.74165208091162899E-01  1.76287593611773485E-01
  1.78434107829838706E-01  1.80604958937635146E-01  1.82800354282679850E-01
  1.85020500236046465E-01  1.87265602055107477E-01  1.89535863740526778E-01
  1.91831487887321961E-01  1.94152675529814106E-01  1.96499625980278148E-01
  1.98872536661104993E-01  2.01271602930287508E-01  2.03697017900017791E-01
  2.06148972248205525E-01  2.08627654022719156E-01  2.11133248438141963E-01
  2.13665937664835381E-01  2.16225900610099997E-01  2.18813312691222117E-01
  2.21428345600193921E-01  2.24071167059890775E-01  2.26741940571494216E-01
  2.29440825152947586E-01  2.32167975068203525E-01  2.34923539547069044E-01
  2.37707662495429684E-01  2.40520482195635987E-01  2.43362130996838427E-01
  2.46232734995062014E-01  2.49132413702811972E-01  2.52061279708008179E-01
  2.55019438322048209E-01  2.58006987216807870E-01  2.61024016050394547E-01
  2.64070606081481363E-01  2.67146829772018535E-01  2.70252750378188078E-01
  2.73388421529452696E-01  2.76553886795554538E-01  2.79749179241341517E-01
  2.82974320969311466E-01  2.86229322649782292E-01  2.89514183038612427E-01
  2.92828888482422001E-01  2.96173412411277981E-01  2.99547714818841737E-01
  3.02951741729993340E-01  3.06385424655998995E-01  3.09848680037276503E-01
  3.13341408673853461E-01  3.16863495143709539E-01  3.20414807209170593E-01
  3.23995195211589870E-01  3.27604491454586755E-01  3.31242509576167521E-01
  3.34909043910104787E-01  3.38603868837003719E-01  3.42326738125547370E-01
  3.46077384264472321E-01  3.49855517785894299E-01  3.53660826580677545E-01
  3.57492975206611885E-01  3.61351604190252140E-01  3.65236329323374631E-01
  3.69146740954989838E-01  3.73082403280089125E-01  3.77042853626345209E-01
  3.81027601740074939E-01  3.85036129072895916E-01  3.89067888070623258E-01
  3.93122301466072577E-01  3.97198761577563342E-01  4.01296629615047584E-01
  4.05415234995924800E-01  4.09553874672748952E-01  4.13711812475180185E-01
  4.17888278468682650E-01  4.22082468332635963E-01  4.26293542760681210E-01
  4.30520626886293722E-01  4.34762809736757294E-01  4.39019143718904714E-01
  4.43288644140008070E-01  4.47570288767611568E-01  4.51863017432182545E-01
  4.56165731676612451E-01  4.60477294456799247E-01  4.64796529897725019E-01
  4.69122223109608272E-01  4.73453120068892896E-01  4.77787927568990411E-01
  4.82125313245852338E-01  4.86463905683595210E-01  4.90802294605533318E-01
  4.95139031156091036E-01  4.99472628279166719E-01  5.03801561198598091E-01
  5.08124268006433066E-01  5.12439150364731089E-01  5.16744574326617467E-01
  5.21038871282258786E-01  5.25320339035362238E-01  5.29587243015697595E-01
  5.33837817632710987E-01  5.38070267775374145E-01  5.42282770462991670E-01
  5.46473476651239132E-01  5.50640513197270032E-01  5.54781984987175791E-01
  5.58895977228426100E-01  5.62980557909160795E-01  5.67033780425329259E-01
  5.71053686375677438E-01  5.75038308523450947E-01  5.78985673922415844E-01
  5.82893807203361702E-01  5.86760734015677521E-01  5.90584484616821670E-01
  5.94363097600576706E-01  5.98094623752843613E-01  6.01777130021417195E-01
  6.05408703583652841E-01  6.08987455993213911E-01  6.12511527384150933E-01
  6.15979090707423405E-01  6.19388355971645876E-01  6.22737574456308063E-01
  6.26025042862049408E-01  6.29249107358536119E-01  6.32408167486762540E-01
  6.35500679868445828E-01  6.38525161671023023E-01  6.41480193772731022E-01
  6.44364423568273725E-01  6.47176567351829823E-01  6.49915412210707588E-01
  6.52579817359983716E-01  6.55168714846119049E-01  6.57681109546053744E-01
  6.60116078387867677E-01  6.62472768720066663E-01  6.64750395759232338E-01
  6.66948239050589642E-01  6.69065637883436093E-01  6.71101985613933083E-01
  6.73056722862088064E-01  6.74929329568629943E-01  6.76719315921770814E-01
  6.78426212194540468E-01  6.80049557571678953E-01  6.81588888092291234E-01
  6.83043723892196142E-01  6.84413555999902834E-01  6.85697833024509928E-01
  6.86895948174910065E-01  6.88007227170197133E-01  6.89030917744257621E-01
  6.89966181616645247E-01  6.90812090001955648E-01  6.91567623963472711E-01
  6.92231681191646908E-01  6.92803091108662561E-01  6.93280640566451667E-01
  6.93663111800214560E-01  6.93949310181165235E-01  6.94138067952942972E-01
  6.94228245560361890E-01  6.94218732998401866E-01  6.94108451170147078E-01
  6.93896353251616027E-01  6.93581426062228501E-01  6.93162691439669132E-01
  6.92639207617893327E-01  6.92010070606967398E-01  6.91274415573404299E-01
  6.90431418219616955E-01  6.89480296161070094E-01  6.88420310299675653E-01
  6.87250766191941920E-01  6.85971015410342111E-01  6.84580456896337175E-01
  6.83078538303449667E-01  6.81464757328745674E-01  6.79738663031049573E-01
  6.77899857134176664E-01  6.75947995313437966E-01  6.73882788463627369E-01
  6.71704003946678618E-01  6.69411466817129375E-01  6.67005061023512313E-01
  6.64484730583739802E-01  6.61850480732535273E-01  6.59102379038898234E-01
  6.56240556491545779E-01  6.53265208550428134E-01  6.50176596162119091E-01
  6.46975046736933845E-01  6.43660955085663233E-01  6.40234784313732153E-01
  6.36697066670583456E-01  6.33048404352043015E-01  6.29289470253405536E-01
  6.25421008670947742E-01  6.21443835949560430E-01  6.17358841074156839E-01
  6.13166986202509534E-01  6.08869307137134608E-01  6.04466913733838096E-01
  5.99960990244520875E-01  5.95352795591831740E-01  5.90643663573247379E-01
  5.85835002992161513E-01  5.80928297713564135E-01  5.75925106641895002E-01
  5.70827063618673303E-01  5.65635877237515516E-01  5.60353330574180020E-01
  5.54981280829303203E-01  5.49521658881531483E-01  5.43976468748789355E-01
  5.38347786955483576E-01  5.32637761803495313E-01  5.26848612544884909E-01
  5.20982628454309427E-01  5.15042167799242501E-01  5.09029656706189604E-01
  5.02947587921249606E-01  4.96798519464908606E-01  4.90585073171236286E-01
  4.84309933127789860E-01  4.77975843996889249E-01  4.71585609226713054E-01
  4.65142089149406801E-01  4.58648198965655007E-01  4.52106906615339477E-01
  4.45521230534090484E-01  4.38894237295956058E-01  4.32229039142520310E-01
  4.25528791398999906E-01  4.18796689778288933E-01  4.12035967574162387E-01
  4.05249892745171758E-01  3.98441764891085126E-01  3.91614912124069459E-01
  3.84772687837159511E-01  3.77918467372925448E-01  3.71055644595619682E-01
  3.64187628370468919E-01  3.57317838954165412E-01  3.50449704301007192E-01
  3.43586656289543269E-01  3.36732126874976778E-01  3.29889544172994098E-01
  3.23062328481089955E-01  3.16253888243865910E-01  3.09467615969177656E-01
  3.02706884102404872E-01  2.95975040866500338E-01  2.89275406075852615E-01
  2.82611266932356664E-01  2.75985873812435500E-01  2.69402436054082761E-01
  2.62864117753303039E-01  2.56374033579610638E-01  2.49935244620511338E-01
  2.43550754265109332E-01  2.37223504137194618E-01  2.30956370088320179E-01
  2.24752158261514873E-01  2.18613601236366917E-01  2.12543354266266415E-01
  2.06543991618602180E-01  2.00618003028679437E-01  1.94767790278039615E-01
  1.88995663907742195E-01  1.83303840076993879E-01  1.77694437577283620E-01
  1.72169475011915513E-01  1.66730868150507222E-01  1.61380427467647941E-01
  1.56119855874492258E-01  1.50950746651593082E-01  1.45874581590761609E-01
  1.40892729353177815E-01  1.36006444050366548E-01  1.31216864053983667E-01
  1.26525011039680946E-01  1.21931789269584423E-01  1.17437985117151394E-01
  1.13044266837371871E-01  1.08751184584451002E-01  1.04559170678259289E-01
  1.00468540119962715E-01  9.64794913563568890E-02  9.25921072915286136E-02
  8.88063565435635721E-02  8.51220949431051865E-02  8.15390672696698487E-02
  7.80569092207214210E-02  7.46751496076262095E-02  7.13932127717442633E-02
  6.82104212130672516E-02  6.51259984230040390E-02  6.21390719121316312E-02
  5.92486764229865487E-02  5.64537573172744292E-02  5.37531741262200768E-02
  5.11457042521799854E-02  4.86300468090906449E-02  4.62048265888367338E-02
  4.38685981401950309E-02  4.16198499466436875E-02  3.94570086890274480E-02
  3.73784435788375655E-02  3.53824707477011294E-02  3.34673576785804450E-02
  3.16313276641600818E-02  2.98725642779442517E-02  2.81892158437026183E-02
  2.65793998890860757E-02  2.50412075694844069E-02  2.35727080485121226E-02
  2.21719528218872475E-02  2.08369799719049301E-02  1.95658183402012721E-02
  1.83564916070504194E-02  1.72070222660353073E-02  1.61154354835730852E-02
  1.50797628334599192E-02  1.40980458973201956E-02  1.31683397225943223E-02
  1.22887161304794761E-02  1.14572668670357945E-02  1.06721065914883555E-02
  9.93137569658328855E-03  9.23324295669858061E-03  8.57590800027765304E-03
  7.95760360381648178E-03  7.37659780568654562E-03  6.83119583882245938E-03
  6.31974188204182091E-03  5.84062063057096126E-03  5.39225868709783483E-03
  4.97312577539524986E-03  4.58173577924442244E-03  4.21664761004120290E-03
  3.87646590708189565E-03  3.55984157509771923E-03  3.26547216413781982E-03
  2.99210209738615509E-03  2.73852275293637185E-03  2.50357240594186554E-03
  2.28613603790169852E-03  2.08514502013954113E-03  1.89957667878060078E-03
  1.72845374873078789E-03  1.57084372431538148E-03  1.42585811433965895E-03
  1.29265160939488126E-03  1.17042116924953631E-03  1.05840503814004549E-03
  9.55881695709393637E-04  8.62168751237942150E-04  7.76621788670627628E-04
  6.98633169771250488E-04  6.27630802529902565E-04  5.63076881716911533E-04
  5.04466608218115376E-04  4.51326893505240548E-04  4.03215055294011890E-04
  3.59717510124425352E-04  3.20448468265197917E-04  2.85048636000517427E-04
  2.53183930004601465E-04  2.24544208151046201E-04  1.98842020741877553E-04
  1.75811385778386884E-04  1.55206591534376594E-04  1.36801029334769186E-04
                              </PP_PSWFC.1>
 <PP_PSWFC.2 type="real" size="   777" l="0" columns="3" label= "0S">
 -1.02993019023326655E-02 -1.04288502746632226E-02 -1.05600281306201561E-02
 -1.06928559652737249E-02 -1.08273545314403856E-02 -1.09635448429228725E-02
 -1.11014481777910474E-02 -1.12410860817039032E-02 -1.13824803712732625E-02
 -1.15256531374697702E-02 -1.16706267490715339E-02 -1.18174238561561430E-02
 -1.19660673936364936E-02 -1.21165805848409743E-02 -1.22689869451386643E-02
 -1.24233102856098794E-02 -1.25795747167629351E-02 -1.27378046522974662E-02
 -1.28980248129149724E-02 -1.30602602301772477E-02 -1.32245362504130846E-02
 -1.33908785386741228E-02 -1.35593130827402503E-02 -1.37298661971752695E-02
 -1.39025645274334572E-02 -1.40774350540175432E-02 -1.42545050966889440E-02
 -1.44338023187307249E-02 -1.46153547312640377E-02 -1.47991906976187165E-02
 -1.49853389377585626E-02 -1.51738285327622253E-02 -1.53646889293601839E-02
 -1.55579499445286044E-02 -1.57536417701408180E-02 -1.59517949776769932E-02
 -1.61524405229929238E-02 -1.63556097511485185E-02 -1.65613344012967775E-02
 -1.67696466116340689E-02 -1.69805789244122929E-02 -1.71941642910139504E-02
 -1.74104360770906824E-02 -1.76294280677661806E-02 -1.78511744729042826E-02
 -1.80757099324428856E-02 -1.83030695217947653E-02 -1.85332887573159202E-02
 -1.87664036018423408E-02 -1.90024504702961325E-02 -1.92414662353616144E-02
 -1.94834882332326001E-02 -1.97285542694314482E-02 -1.99767026247009045E-02
 -2.02279720609696741E-02 -2.04824018273924227E-02 -2.07400316664654479E-02
 -2.10009018202186835E-02 -2.12650530364850709E-02 -2.15325265752483487E-02
 -2.18033642150699536E-02 -2.20776082595963916E-02 -2.23553015441477522E-02
 -2.26364874423884560E-02 -2.29212098730813794E-02 -2.32095133069261106E-02
 -2.35014427734826677E-02 -2.37970438681815097E-02 -2.40963627594209633E-02
 -2.43994461957532729E-02 -2.47063415131600281E-02 -2.50170966424184404E-02
 -2.53317601165593299E-02 -2.56503810784180254E-02 -2.59730092882793986E-02
 -2.62996951316178673E-02 -2.66304896269339876E-02 -2.69654444336884444E-02
 -2.73046118603347716E-02 -2.76480448724520551E-02 -2.79957971009785513E-02
 -2.83479228505479110E-02 -2.87044771079288420E-02 -2.90655155505696212E-02
 -2.94310945552488865E-02 -2.98012712068335302E-02 -3.01761033071455444E-02
 -3.05556493839387495E-02 -3.09399686999868861E-02 -3.13291212622844456E-02
 -3.17231678313613305E-02 -3.21221699307131375E-02 -3.25261898563480659E-02
 -3.29352906864519984E-02 -3.33495362911734108E-02 -3.37689913425289062E-02
 -3.41937213244315474E-02 -3.46237925428429238E-02 -3.50592721360506732E-02
 -3.55002280850730129E-02 -3.59467292241913289E-02 -3.63988452516130073E-02
 -3.68566467402655848E-02 -3.73202051487238270E-02 -3.77895928322715471E-02
 -3.82648830540993357E-02 -3.87461499966402292E-02 -3.92334687730446566E-02
 -3.97269154387963133E-02 -4.02265670034708880E-02 -4.07325014426387425E-02
 -4.12447977099138358E-02 -4.17635357491502393E-02 -4.22887965067879554E-02
 -4.28206619443499831E-02 -4.33592150510919913E-02 -4.39045398568067430E-02
 -4.44567214447848941E-02 -4.50158459649339232E-02 -4.55820006470569611E-02
 -4.61552738142933794E-02 -4.67357548967231376E-02 -4.73235344451363865E-02
 -4.79187041449704934E-02 -4.85213568304164733E-02 -4.91315864986960268E-02
 -4.97494883245120020E-02 -5.03751586746736812E-02 -5.10086951228987673E-02
 -5.16501964647946774E-02 -5.22997627330198736E-02 -5.29574952126286511E-02
 -5.36234964566003822E-02 -5.42978703015554939E-02 -5.49807218836605091E-02
 -5.56721576547237681E-02 -5.63722853984837749E-02 -5.70812142470930595E-02
 -5.77990546977985922E-02 -5.85259186298214343E-02 -5.92619193214378240E-02
 -6.00071714672630457E-02 -6.07617911957413145E-02 -6.15258960868427587E-02
 -6.22996051899702419E-02 -6.30830390420783066E-02 -6.38763196860053784E-02
 -6.46795706890229000E-02 -6.54929171616022571E-02 -6.63164857764022564E-02
 -6.71504047874797588E-02 -6.79948040497242029E-02 -6.88498150385199875E-02
 -6.97155708696377274E-02 -7.05922063193568927E-02 -7.14798578448223726E-02
 -7.23786636046361981E-02 -7.32887634796878379E-02 -7.42102990942245661E-02
 -7.51434138371637472E-02 -7.60882528836504951E-02 -7.70449632168610787E-02
 -7.80136936500560041E-02 -7.89945948488838395E-02 -7.99878193539380611E-02
 -8.09935216035699151E-02 -8.20118579569577844E-02 -8.30429867174369007E-02
 -8.40870681560905303E-02 -8.51442645356048355E-02 -8.62147401343897057E-02
 -8.72986612709673176E-02 -8.83961963286305080E-02 -8.95075157803735394E-02
 -9.06327922140956754E-02 -9.17722003580816875E-02 -9.29259171067590151E-02
 -9.40941215467349518E-02 -9.52769949831150376E-02 -9.64747209661042798E-02
 -9.76874853178940211E-02 -9.89154761598338705E-02 -1.00158883939893195E-01
 -1.01417901460411464E-01 -1.02692723906140010E-01 -1.03983548872576936E-01
 -1.05290576394595090E-01 -1.06614008975366228E-01 -1.07954051615581886E-01
 -1.09310911842971314E-01 -1.10684799742119214E-01 -1.12075927984582380E-01
 -1.13484511859307940E-01 -1.14910769303352894E-01 -1.16354920932905670E-01
 -1.17817190074611430E-01 -1.19297802797199176E-01 -1.20796987943414480E-01
 -1.22314977162254646E-01 -1.23852004941508664E-01 -1.25408308640601401E-01
 -1.26984128523740414E-01 -1.28579707793367637E-01 -1.30195292623913300E-01
 -1.31831132195851936E-01 -1.33487478730060699E-01 -1.35164587522476842E-01
 -1.36862716979054999E-01 -1.38582128651022568E-01 -1.40323087270429386E-01
 -1.42085860785994278E-01 -1.43870720399240398E-01 -1.45677940600922318E-01
 -1.47507799207739432E-01 -1.49360577399332839E-01 -1.51236559755564576E-01
 -1.53136034294071161E-01 -1.55059292508094415E-01 -1.57006629404578379E-01
 -1.58978343542532624E-01 -1.60974737071656160E-01 -1.62996115771214339E-01
 -1.65042789089166309E-01 -1.67115070181535541E-01 -1.69213275952016601E-01
 -1.71337727091812941E-01 -1.73488748119695529E-01 -1.75666667422278044E-01
 -1.77871817294497581E-01 -1.80104533980293330E-01 -1.82365157713473586E-01
 -1.84654032758761216E-01 -1.86971507453005614E-01 -1.89317934246554409E-01
 -1.91693669744766065E-01 -1.94099074749659123E-01 -1.96534514301676122E-01
 -1.99000357721557108E-01 -2.01496978652301262E-01 -2.04024755101204047E-01
 -2.06584069481955540E-01 -2.09175308656776471E-01 -2.11798863978582802E-01
 -2.14455131333151611E-01 -2.17144511181274424E-01 -2.19867408600872422E-01
 -2.22624233329056814E-01 -2.25415399804104022E-01 -2.28241327207331035E-01
 -2.31102439504834861E-01 -2.33999165489079758E-01 -2.36931938820295562E-01
 -2.39901198067665078E-01 -2.42907386750264104E-01 -2.45950953377726433E-01
 -2.49032351490598297E-01 -2.52152039700346609E-01 -2.55310481728986238E-01
 -2.58508146448285181E-01 -2.61745507918512810E-01 -2.65023045426679260E-01
 -2.68341243524237216E-01 -2.71700592064181623E-01 -2.75101586237518347E-01
 -2.78544726609036786E-01 -2.82030519152342840E-01 -2.85559475284097364E-01
 -2.89132111897393351E-01 -2.92748951394232626E-01 -2.96410521717015540E-01
 -3.00117356378999001E-01 -3.03869994493647710E-01 -3.07668980802801195E-01
 -3.11514865703604094E-01 -3.15408205274095021E-01 -3.19349561297399998E-01
 -3.23339501284436615E-01 -3.27378598495032647E-01 -3.31467431957394143E-01
 -3.35606586485805436E-01 -3.39796652696466861E-01 -3.44038227021395082E-01
 -3.48331911720231702E-01 -3.52678314889895372E-01 -3.57078050471944852E-01
 -3.61531738257516555E-01 -3.66040003889747001E-01 -3.70603478863526459E-01
 -3.75222800522442668E-01 -3.79898612052806006E-01 -3.84631562474581801E-01
 -3.89422306629078174E-01 -3.94271505163253544E-01 -3.99179824510469294E-01
 -4.04147936867491731E-01 -4.09176520167609248E-01 -4.14266258049662162E-01
 -4.19417839822765148E-01 -4.24631960426563648E-01 -4.29909320386818117E-01
 -4.35250625766047450E-01 -4.40656588109060332E-01 -4.46127924383138474E-01
 -4.51665356912601901E-01 -4.57269613307506206E-01 -4.62941426386247135E-01
 -4.68681534091781815E-01 -4.74490679401150084E-01 -4.80369610228047750E-01
 -4.86319079318155378E-01 -4.92339844136868265E-01 -4.98432666749098807E-01
 -5.04598313690848621E-01 -5.10837555832202472E-01 -5.17151168231309466E-01
 -5.23539929979019436E-01 -5.30004624033790894E-01 -5.36546037046460533E-01
 -5.43164959174387119E-01 -5.49862183884584521E-01 -5.56638507745381594E-01
 -5.63494730206156036E-01 -5.70431653364563362E-01 -5.77450081720811248E-01
 -5.84550821918459529E-01 -5.91734682471200313E-01 -5.99002473474982811E-01
 -6.06355006304926225E-01 -6.13793093296421066E-01 -6.21317547409804716E-01
 -6.28929181877911248E-01 -6.36628809835772747E-01 -6.44417243931835859E-01
 -6.52295295919934848E-01 -6.60263776231303612E-01 -6.68323493525737833E-01
 -6.76475254221126532E-01 -6.84719862000550683E-01 -6.93058117296048048E-01
 -7.01490816748173374E-01 -7.10018752640303563E-01 -7.18642712306778564E-01
 -7.27363477513889300E-01 -7.36181823812654734E-01 -7.45098519862357866E-01
 -7.54114326723584250E-01 -7.63229997119679648E-01 -7.72446274665452348E-01
 -7.81763893061866000E-01 -7.91183575255470450E-01 -8.00706032561205427E-01
 -8.10331963747117467E-01 -8.20062054079699898E-01 -8.29896974328354520E-01
 -8.39837379727450650E-01 -8.49883908894470519E-01 -8.60037182702507175E-01
 -8.70297803105428702E-01 -8.80666351914097478E-01 -8.91143389521798501E-01
 -9.01729453577034490E-01 -9.12425057601850220E-01 -9.23230689553602879E-01
 -9.34146810328097099E-01 -9.45173852202149334E-01 -9.56312217213351801E-01
 -9.67562275474802003E-01 -9.78924363422533528E-01 -9.90398781993307664E-01
 -1.00198579473008698E+00 -1.01368562581286348E+00 -1.02549845801225947E+00
 -1.03742443056316791E+00 -1.04946363695569778E+00 -1.06161612264061600E+00
 -1.07388188264642492E+00 -1.08626085910475556E+00 -1.09875293868127333E+00
 -1.11135794990888725E+00 -1.12407566041996843E+00 -1.13690577407422433E+00
 -1.14984792797877877E+00 -1.16290168939705940E+00 -1.17606655254261505E+00
 -1.18934193525411658E+00 -1.20272717554795561E+00 -1.21622152804442996E+00
 -1.22982416026350960E+00 -1.24353414878605650E+00 -1.25735047527632671E+00
 -1.27127202236155634E+00 -1.28529756936409845E+00 -1.29942578788138685E+00
 -1.31365523720954602E+00 -1.32798435960585959E+00 -1.34241147538528671E+00
 -1.35693477784620375E+00 -1.37155232802040650E+00 -1.38626204924236851E+00
 -1.40106172153284891E+00 -1.41594897579128776E+00 -1.43092128779167282E+00
 -1.44597597197696759E+00 -1.46111017504653118E+00 -1.47632086933109408E+00
 -1.49160484594978970E+00 -1.50695870774371898E+00 -1.52237886198046146E+00
 -1.53786151282402117E+00 -1.55340265356483909E+00 -1.56899805860350128E+00
 -1.58464327518299020E+00 -1.60033361486410430E+00 -1.61606414473835702E+00
 -1.63182967837287873E+00 -1.64762476648193656E+00 -1.66344368731974890E+00
 -1.67928043678942740E+00 -1.69512871826297284E+00 -1.71098193210760186E+00
 -1.72683316491386685E+00 -1.74267517841999275E+00 -1.75850039812919001E+00
 -1.77430090161590637E+00 -1.79006840651727717E+00 -1.80579425820647943E+00
 -1.82146941714514043E+00 -1.83708444591235565E+00 -1.85262949590839443E+00
 -1.86809429373169311E+00 -1.88346812722834200E+00 -1.89873983121411993E+00
 -1.91389777286996909E+00 -1.92892983681067398E+00 -1.94382340983034907E+00
 -1.95856536532784209E+00 -1.97314204741602639E+00 -1.98753925472026616E+00
 -2.00174222387254463E+00 -2.01573561270898693E+00 -2.02950348317997742E+00
 -2.04302928398351069E+00 -2.05629583293405149E+00 -2.06928529908096026E+00
 -2.08197918459235431E+00 -2.09435830642304488E+00 -2.10640277778556273E+00
 -2.11809198944580634E+00 -2.12940459087001033E+00 -2.14031847124989971E+00
 -2.15081074043621046E+00 -2.16085770981392278E+00 -2.17043487315569195E+00
 -2.17951688749339789E+00 -2.18807755405137172E+00 -2.19608979928869497E+00
 -2.20352565610207085E+00 -2.21035624524512730E+00 -2.21655175702458029E+00
 -2.22208143333859098E+00 -2.22691355012810233E+00 -2.23101540031809042E+00
 -2.23435327732661548E+00 -2.23689245923217150E+00 -2.23859719369377652E+00
 -2.23943068372407694E+00 -2.23935507442336146E+00 -2.23833144078985136E+00
 -2.23631977672941140E+00 -2.23327898539594205E+00 -2.22916687100232247E+00
 -2.22394013225061560E+00 -2.21755435753962304E+00 -2.20996402211752763E+00
 -2.20112248735748439E+00 -2.19098200234450635E+00 -2.17949370797283892E+00
 -2.16660764376434267E+00 -2.15227275763051518E+00 -2.13643691881381192E+00
 -2.11904693424841684E+00 -2.10004856860457512E+00 -2.07938656828875601E+00
 -2.05700468968414585E+00 -2.03284573193033546E+00 -2.00685157455477903E+00
 -1.97896322028240856E+00 -1.94912084336376235E+00 -1.91726384377589332E+00
 -1.88333090766426525E+00 -1.84726007440758577E+00 -1.80898881070107964E+00
 -1.76845409206688986E+00 -1.72559249221303923E+00 -1.68034028067449914E+00
 -1.63263352918132143E+00 -1.58240822720921459E+00 -1.52960040717734036E+00
 -1.47414627976609447E+00 -1.41598237983488917E+00 -1.35504572342665353E+00
 -1.29127397633586294E+00 -1.22460563473387829E+00 -1.15498021833738584E+00
 -1.08233847659724902E+00 -1.00662260837799611E+00 -9.27776495585458938E-01
 -8.45745951183152322E-01 -7.60478982016267069E-01 -6.71926066835242808E-01
 -5.80040449878148068E-01 -4.84778450332027877E-01 -3.86099787947375872E-01
 -2.83967925026244128E-01 -1.78350424942762292E-01 -6.92193272839387863E-02
  4.34484603816501572E-02  1.59670754190469638E-01  2.79459669310911207E-01
  4.02821179209055191E-01  5.29754659277997697E-01  6.60252415394871894E-01
  7.94299198122768613E-01  9.31871703442596178E-01  1.07293806108200052E+00
  1.21745731170492366E+00  1.36537887445004658E+00  1.51664200652040670E+00
  1.67117525677678502E+00  1.82889591555106890E+00  1.98970946316865027E+00
  2.15350901995677901E+00  2.32017480081545369E+00  2.48957357773629084E+00
  2.66155815397011386E+00  2.83596685386184211E+00  3.01262303268677689E+00
  3.19133461112981420E+00  3.37189363934076880E+00  3.55407589576622751E+00
  3.73764052619024589E+00  3.92232972859956686E+00  4.10786848960866990E+00
  4.29396437821696431E+00  4.48030740260349170E+00  4.66656993546704690E+00
  4.85240671306220595E+00  5.03745491252802591E+00  5.22133431131518844E+00
  5.40364753144030185E+00  5.58398036987684687E+00  5.76190221456523410E+00
  5.93696654321402395E+00  6.10871149918279333E+00  6.27666053518499290E+00
  6.44032311121641676E+00  6.59919542779991897E+00  6.75276116934495985E+00
  6.90049222481389446E+00  7.04184934382108452E+00  7.17628267574370948E+00
  7.30323215242717261E+00  7.42212827192629199E+00  7.53239364418044666E+00
  7.63344478490737544E+00  7.72469410766274667E+00  7.80555212316918734E+00
  7.87542985431195053E+00  7.93374147455883971E+00  7.97990717678470229E+00
  8.01335627853452159E+00  8.03353056862478709E+00  8.03988789864450304E+00
  8.03190602135716780E+00  8.00908667620618608E+00  7.97095992007133525E+00
  7.91708869909582003E+00  7.84707365478597652E+00  7.76055815466319387E+00
  7.65723353450598321E+00  7.53684453564696977E+00  7.39919491687463271E+00
  7.24415321622586639E+00  7.07165863333894507E+00  6.88172699806750643E+00
  6.67445678574086276E+00  6.45003513380454319E+00  6.20874380860709074E+00
  5.95096506483888721E+00  5.67718733361298877E+00  5.38801066845416265E+00
  5.08415187158668491E+00  4.76644921586212966E+00  4.43586667081838293E+00
  4.09349753442283149E+00  3.74056736535655610E+00  3.37843610436656405E+00
  3.00859926735448147E+00  2.63268808766244478E+00  2.25246848064907690E+00
  1.86983870032776744E+00  1.48682555579410280E+00  1.10557905464850514E+00
  7.28365341890573226E-01  3.57557806110335774E-01 -4.37376947100731519E-03
 -3.54876125136109222E-01 -6.91327614568154947E-01 -1.01105555430822003E+00
 -1.31135590211275432E+00 -1.58951531109877253E+00 -1.84283557982005908E+00
 -2.06866048710785311E+00 -2.26440496439947880E+00 -2.42758651718807084E+00
 -2.55585876104175602E+00 -2.64704688633326057E+00 -2.69918480946566319E+00
 -2.71055370717414457E+00 -2.67972156476990131E+00 -2.60558329947980694E+00
 -2.48740094702281267E+00 -2.32484332416374651E+00 -2.11802450334460790E+00
 -1.86754035901698168E+00 -1.57450237066171295E+00 -1.24056779670973039E+00
 -8.67965268739673834E-01 -4.59514799428160592E-01 -1.86411531037978494E-02
  4.50620501978431842E-01  9.43627752166292910E-01  1.45514399009294793E+00
  1.97936240608451808E+00  2.50994190065224476E+00  3.04005580039038081E+00
  3.56245412380839221E+00  4.06953996709844290E+00  4.55346035944159677E+00
  5.00621167097904340E+00  5.41975934242311475E+00  5.78617134302327507E+00
  6.09776435418022533E+00  6.34726122202008902E+00  6.52795772825621512E+00
  6.63389620147157721E+00  6.66004293986224383E+00  6.60246585356892979E+00
  6.45850817503589347E+00  6.22695354752588059E+00  5.90817730629010907E+00
  5.50427833832655811E+00  5.01918557240475582E+00  4.45873294080845550E+00
  3.83069659964141040E+00  3.14478832818957033E+00  2.41259938232615045E+00
  1.64748968345830749E+00  8.64418111158185676E-01  7.97108574993082297E-02
 -6.89233689876693423E-01 -1.42430323456779395E+00 -2.10709057298021296E+00
 -2.71936840344234954E+00 -3.24361232371260044E+00 -3.66356148456282504E+00
 -3.96480333342676738E+00 -4.13536583217073161E+00 -4.16629759532527810E+00
 -4.05221372169257066E+00 -3.79178285683750405E+00 -3.38812941822930558E+00
 -2.84912414256943913E+00 -2.18753638419886487E+00 -1.42102310637272877E+00
 -5.71932446657903437E-01  3.33095747251787477E-01  1.26374382655252715E+00
  2.18684822047223948E+00  3.06744328028950619E+00  3.87000008058618672E+00
  4.55983099031973804E+00  5.10461789569300528E+00  5.47600885528391501E+00
  5.65121542402649979E+00  5.61453173599380850E+00  5.35868766315223244E+00
  4.88594300353475219E+00  4.20882875476895801E+00  3.35044610303513091E+00
  2.34424467088336863E+00  1.23321944995906696E+00  6.84909801531824319E-02
 -1.09273444969008771E+00 -2.18978925142640346E+00 -3.16167480893031261E+00
 -3.95057239707637153E+00 -4.50556321211916710E+00 -4.78634310395451656E+00
 -4.76668227983438531E+00 -4.43735689479361906E+00 -3.80827252294660923E+00
 -2.90951314531510752E+00 -1.79108681654272472E+00 -5.21202574357556903E-01
  8.16997456622438945E-01  2.13021371999431519E+00  3.32110387389424710E+00
  4.29542543461826654E+00  4.96975382852094683E+00  5.27919609010166990E+00
  5.18442337343419357E+00  4.67729483942621282E+00  3.78435674929019239E+00
  2.56758617278792434E+00  1.12191583012677865E+00 -4.30675034802618928E-01
 -1.95039895621952741E+00 -3.29175213899548202E+00 -4.31759456428523780E+00
 -4.91398369944783564E+00 -5.00424642695299760E+00 -4.56057723052063402E+00
 -3.61147590167422017E+00 -2.24357152891037703E+00 -5.96791845204845850E-01
  1.14747042810594158E+00  2.78469081103258453E+00  4.11061372290599358E+00
  4.94732958457639960E+00  5.16886949150198483E+00  4.72271097020358877E+00
  3.64354514096958049E+00  2.05618860135600512E+00  1.65685876351738204E-01
 -1.76575129157357003E+00 -3.45325546729534150E+00 -4.63134622820744823E+00
 -5.09774197540941909E+00 -4.75184557712967148E+00 -3.62054881207337687E+00
 -1.86501490625331168E+00  2.35489008025093427E-01  2.32302056371972432E+00
  4.01955176297520911E+00  4.99614657481119373E+00  5.04059134327865710E+00
  4.10958761859801669E+00  2.35250494748608752E+00  9.76054006751514991E-02
 -2.20162193144563201E+00 -4.05378109382976248E+00 -5.03547907583532162E+00
 -4.89380909118857765E+00 -3.62046845371144910E+00 -1.47541157062054507E+00
  1.05310018735637012E+00  3.35083388228069312E+00  4.82435702996408988E+00
  5.05916149481929001E+00  3.94726416330313779E+00  1.74406785846799206E+00
 -9.71948106745349261E-01 -3.43858972599847101E+00 -4.92023807985896600E+00
 -4.93412780610260615E+00 -3.42303149234125792E+00 -8.10844553260901435E-01
  2.09396122348855718E+00  4.33564232496883850E+00  5.12641674536260794E+00
  4.13814960148531785E+00  1.66062917977175695E+00 -1.45152814538129671E+00
 -4.05270585370728220E+00 -5.12444888662735742E+00 -4.19026847432701999E+00
                              </PP_PSWFC.2>
 <PP_PSWFC.3 type="real" size="   777" l="1" columns="3" label= "0P">
  1.51294919894397640E-06  1.55124966721276232E-06  1.59051971526997238E-06
  1.63078388808474450E-06  1.67206735198114059E-06  1.71439591036837107E-06
  1.75779601986926437E-06  1.80229480685594912E-06  1.84792008440307665E-06
  1.89470036967287409E-06  1.94266490173954372E-06  1.99184365986336651E-06
  2.04226738222760364E-06  2.09396758515216844E-06  2.14697658279201680E-06
  2.20132750733227063E-06  2.25705432969761484E-06  2.31419188078591400E-06
  2.37277587323675503E-06  2.43284292375191049E-06  2.49443057598355756E-06
  2.55757732399908837E-06  2.62232263633860970E-06  2.68870698068594814E-06
  2.75677184916172174E-06  2.82655978425391717E-06  2.89811440541004261E-06
  2.97148043630061371E-06  3.04670373276907497E-06  3.12383131149478946E-06
  3.20291137938001048E-06  3.28399336367648666E-06  3.36712794288100305E-06
  3.45236707841062715E-06  3.53976404707572231E-06  3.62937347438234395E-06
  3.72125136867301684E-06  3.81545515612981934E-06  3.91204371667083629E-06
  4.01107742074762035E-06  4.11261816707709245E-06  4.21672942133243555E-06
  4.32347625580457048E-06  4.43292539007677034E-06  4.54514523272444068E-06
  4.66020592406768616E-06  4.77817938001503018E-06  4.89913933700564219E-06
  5.02316139809854083E-06  5.15032308022474275E-06  5.28070386263215333E-06
  5.41438523656635038E-06  5.55145075619580925E-06  5.69198609083957740E-06
  5.83607907850667863E-06  5.98381978079587593E-06  6.13530053918609895E-06
  6.29061603274496134E-06  6.44986333730973047E-06  6.61314198615131894E-06
  6.78055403219057822E-06  6.95220411177267986E-06  7.12819951007146154E-06
  7.30865022813571022E-06  7.49366905164379883E-06  7.68337162138998272E-06
  7.87787650556121205E-06  8.07730527383931109E-06  8.28178257338129638E-06
  8.49143620672180757E-06  8.70639721164786705E-06  8.92679994309512617E-06
  9.15278215711803089E-06  9.38448509698334663E-06  9.62205358144685459E-06
  9.86563609525815298E-06  1.01153848819655628E-05  1.03714560390577109E-05
  1.06340096155290830E-05  1.09032097118963000E-05  1.11792245827670316E-05
  1.14622267419834091E-05  1.17523930704469632E-05  1.20499049266567943E-05
  1.23549482600548702E-05  1.26677137272396521E-05  1.29883968111125211E-05
  1.33171979430565242E-05  1.36543226281870158E-05  1.39999815737914021E-05
  1.43543908210087327E-05  1.47177718798414104E-05  1.50903518675964725E-05
  1.54723636508122152E-05  1.58640459907935058E-05  1.62656436928248867E-05
  1.66774077591520522E-05  1.70995955458521185E-05  1.75324709236603350E-05
  1.79763044428689033E-05  1.84313735024102545E-05  1.88979625232057738E-05
  1.93763631259069534E-05  1.98668743131428527E-05  2.03698026563678280E-05
  2.08854624874418481E-05  2.14141760950679254E-05  2.19562739261910777E-05
  2.25120947924934388E-05  2.30819860821263006E-05  2.36663039767937282E-05
  2.42654136743247034E-05  2.48796896168873479E-05  2.55095157249779742E-05
  2.61552856373268501E-05  2.68174029568734191E-05  2.74962815029753750E-05
  2.81923455699962199E-05  2.89060301924340063E-05  2.96377814167586151E-05
  3.03880565801347741E-05  3.11573245961955372E-05  3.19460662480460390E-05
  3.27547744886794729E-05  3.35839547489995865E-05  3.44341252536378272E-05
  3.53058173447605935E-05  3.61995758140697959E-05  3.71159592432028268E-05
  3.80555403527486780E-05  3.90189063600959488E-05  4.00066593463344644E-05
  4.10194166324402191E-05  4.20578111649790051E-05  4.31224919115682126E-05
  4.42141242663460812E-05  4.53333904657002607E-05  4.64809900145146858E-05
  4.76576401232003106E-05  4.88640761557831619E-05  5.01010520893295608E-05
  5.13693409849939390E-05  5.26697354709846580E-05  5.40030482377479884E-05
  5.53701125456802814E-05  5.67717827456845758E-05  5.82089348128950909E-05
  5.96824668939046235E-05  6.11932998678346192E-05  6.27423779215984922E-05
  6.43306691397174061E-05  6.59591661090545947E-05  6.76288865388477960E-05
  6.93408738964246089E-05  7.10961980589974236E-05  7.28959559819456631E-05
  7.47412723839992481E-05  7.66333004497535329E-05  7.85732225499514709E-05
  8.05622509799825976E-05  8.26016287170600126E-05  8.46926301965449406E-05
  8.68365621079054896E-05  8.90347642108035950E-05  9.12886101718193046E-05
  9.35995084223344891E-05  9.59689030381079820E-05  9.83982746410933440E-05
  1.00889141324058456E-04  1.03443059598584144E-04  1.06061625367031962E-04
  1.08746474919085062E-04  1.11499285953485199E-04  1.14321778625598803E-04
  1.17215716621467010E-04  1.20182908259009068E-04  1.23225207617059477E-04
  1.26344515692947623E-04  1.29542781589335693E-04  1.32822003731055636E-04
  1.36184231112701943E-04  1.39631564577751308E-04  1.43166158130011490E-04
  1.46790220278218296E-04  1.50506015414607320E-04  1.54315865228323479E-04
  1.58222150154542219E-04  1.62227310860202871E-04  1.66333849767277792E-04
  1.70544332614542177E-04  1.74861390058793619E-04  1.79287719316518763E-04
  1.83826085847022631E-04  1.88479325078066973E-04  1.93250344175123875E-04
  1.98142123855305028E-04  2.03157720247092036E-04  2.08300266797007794E-04
  2.13572976224474150E-04  2.18979142526037473E-04  2.24522143030179392E-04
  2.30205440503960872E-04  2.36032585312914516E-04  2.42007217635468352E-04
  2.48133069733219894E-04  2.54413968278475837E-04  2.60853836740641745E-04
  2.67456697832798608E-04  2.74226676019922089E-04  2.81168000090483762E-04
  2.88285005792980132E-04  2.95582138538834068E-04  3.03063956173526270E-04
  3.10735131817756118E-04  3.18600456780073827E-04  3.26664843542995222E-04
  3.34933328824598613E-04  3.43411076717067007E-04  3.52103381904441055E-04
  3.61015672961666873E-04  3.70153515736456544E-04  3.79522616816642226E-04
  3.89128827084932042E-04  3.98978145362890372E-04  4.09076722147218080E-04
  4.19430863439779352E-04  4.30047034674144765E-04  4.40931864741351154E-04
  4.52092150116431676E-04  4.63534859089514896E-04  4.75267136102930604E-04
  4.87296306197655953E-04  4.99629879571892232E-04  5.12275556253753098E-04
  5.25241230892379185E-04  5.38534997668593048E-04  5.52165155330007289E-04
  5.66140212351973161E-04  5.80468892228820556E-04  5.95160138897872981E-04
  6.10223122299727110E-04  6.25667244078611596E-04  6.41502143425346102E-04
  6.57737703067932033E-04  6.74384055411538300E-04  6.91451588833883065E-04
  7.08950954137303746E-04  7.26893071164229289E-04  7.45289135577116807E-04
  7.64150625810085075E-04  7.83489310193283121E-04  8.03317254257524980E-04
  8.23646828220508053E-04  8.44490714662079231E-04  8.65861916390630150E-04
  8.87773764507435561E-04  9.10239926672495869E-04  9.33274415577272243E-04
  9.56891597630177087E-04  9.81106201858060467E-04  1.00593332903235917E-03
  1.03138846102096603E-03  1.05748747037665621E-03  1.08424663016254592E-03
  1.11168262402501906E-03  1.13981255651728953E-03  1.16865396368030176E-03
  1.19822482388950557E-03  1.22854356896938020E-03  1.25962909558834861E-03
  1.29150077693523501E-03  1.32417847468766013E-03  1.35768255127962506E-03
  1.39203388247172654E-03  1.42725387023774348E-03  1.46336445596921658E-03
  1.50038813400877485E-03  1.53834796552191765E-03  1.57726759270986148E-03
  1.61717125337841020E-03  1.65808379586774050E-03  1.70003069435015934E-03
  1.74303806451107826E-03  1.78713267961588687E-03  1.83234198697412539E-03
  1.87869412481462108E-03  1.92621793957458830E-03  1.97494300361675994E-03
  2.02489963338712328E-03  2.07611890801724262E-03  2.12863268838673660E-03
  2.18247363665849143E-03  2.23767523629149869E-03  2.29427181254736887E-03
  2.35229855350455822E-03  2.41179153158576666E-03  2.47278772561396448E-03
  2.53532504341399869E-03  2.59944234496574215E-03  2.66517946612260161E-03
  2.73257724291581065E-03  2.80167753645177691E-03  2.87252325841472027E-03
  2.94515839719567980E-03  3.01962804466033175E-03  3.09597842356604215E-03
  3.17425691564587019E-03  3.25451209038076861E-03  3.33679373446865626E-03
  3.42115288200572172E-03  3.50764184540273147E-03  3.59631424705226686E-03
  3.68722505175932006E-03  3.78043059995271553E-03  3.87598864170349408E-03
  3.97395837156271949E-03  4.07440046423560194E-03  4.17737711111064707E-03
  4.28295205767191371E-03  4.39119064180661274E-03  4.50215983302768626E-03
  4.61592827263104279E-03  4.73256631481737151E-03  4.85214606879251931E-03
  4.97474144186761322E-03  5.10042818357915855E-03  5.22928393086013153E-03
  5.36138825428106314E-03  5.49682270538097255E-03  5.63567086511170511E-03
  5.77801839342214751E-03  5.92395308001286616E-03  6.07356489627678461E-03
  6.22694604845357505E-03  6.38419103202039762E-03  6.54539668735395087E-03
  6.71066225668705187E-03  6.88008944238214550E-03  7.05378246655074138E-03
  7.23184813204324085E-03  7.41439588484809481E-03  7.60153787792167048E-03
  7.79338903647535351E-03  7.99006712475061956E-03  8.19169281430763736E-03
  8.39838975386756649E-03  8.61028464073435897E-03  8.82750729382161814E-03
  9.05019072831808082E-03  9.27847123201962914E-03  9.51248844336203929E-03
  9.75238543119391794E-03  9.99830877630942388E-03  1.02504086547760762E-02
  1.05088389230901576E-02  1.07737572051869873E-02  1.10453249813485168E-02
  1.13237076790397174E-02  1.16090747656978008E-02  1.19015998435108381E-02
  1.22014607462177828E-02  1.25088396379578106E-02  1.28239231142097260E-02
  1.31469023048559775E-02  1.34779729793924330E-02  1.38173356543196176E-02
  1.41651957027472460E-02  1.45217634662410562E-02  1.48872543689389618E-02
  1.52618890339840229E-02  1.56458934022881101E-02  1.60394988536562318E-02
  1.64429423303014514E-02  1.68564664627774002E-02  1.72803196983526489E-02
  1.77147564318488153E-02  1.81600371389852057E-02  1.86164285122356887E-02
  1.90842035992206394E-02  1.95636419436564027E-02  2.00550297288801943E-02
  2.05586599239671076E-02  2.10748324324472151E-02  2.16038542436478298E-02
  2.21460395866737471E-02  2.27017100870188816E-02  2.32711949258213070E-02
  2.38548310017642970E-02  2.44529630956231252E-02  2.50659440374544039E-02
  2.56941348764141847E-02  2.63379050532040228E-02  2.69976325751400542E-02
  2.76737041938068008E-02  2.83665155852804059E-02  2.90764715328936628E-02
  2.98039861125111438E-02  3.05494828802764691E-02  3.13133950627876509E-02
  3.20961657496438846E-02  3.28982480883237352E-02  3.37201054813351386E-02
  3.45622117855504049E-02  3.54250515136568869E-02  3.63091200376397388E-02
  3.72149237942034639E-02  3.81429804920311796E-02  3.90938193207703774E-02
  4.00679811616235435E-02  4.10660187994032061E-02  4.20884971359390264E-02
  4.31359934046668184E-02  4.42090973862276498E-02  4.53084116249059254E-02
  4.64345516457161309E-02  4.75881461719337567E-02  4.87698373428517434E-02
  4.99802809315284396E-02  5.12201465622772190E-02  5.24901179276271793E-02
  5.37908930044653857E-02  5.51231842690933574E-02  5.64877189108439134E-02
  5.78852390439213993E-02  5.93165019171066621E-02  6.07822801209439503E-02
  6.22833617920034235E-02  6.38205508137897476E-02  6.53946670138432495E-02
  6.70065463565534813E-02  6.86570411311798606E-02  7.03470201345414436E-02
  7.20773688478062863E-02  7.38489896068300483E-02  7.56628017653841328E-02
  7.75197418506230196E-02  7.94207637101082137E-02  8.13668386496682466E-02
  8.33589555613385852E-02  8.53981210405888175E-02  8.74853594920077388E-02
  8.96217132225778507E-02  9.18082425216313336E-02  9.40460257265390981E-02
  9.63361592731415417E-02  9.86797577298755835E-02  1.01077953814540336E-01
  1.03531898392593649E-01  1.06042760455775306E-01  1.08611727079854836E-01
  1.11240003360241965E-01  1.13928812324149753E-01  1.16679394817947937E-01
  1.19493009368298056E-01  1.22370932015608544E-01  1.25314456118298168E-01
  1.28324892126305851E-01  1.31403567322231934E-01  1.34551825528446994E-01
  1.37771026778449546E-01  1.41062546950703110E-01  1.44427777363122900E-01
  1.47868124326390571E-01  1.51385008654144643E-01  1.54979865128077765E-01
  1.58654141915939045E-01  1.62409299940386193E-01  1.66246812196587268E-01
  1.70168163016436752E-01  1.74174847277206446E-01  1.78268369552421063E-01
  1.82450243202715634E-01  1.86721989404403377E-01  1.91085136113459619E-01
  1.95541216962608094E-01  2.00091770089179666E-01  2.04738336891408745E-01
  2.09482460710823742E-01  2.14325685438394170E-01  2.19269554042098774E-01
  2.24315607013639284E-01  2.29465380731980501E-01  2.34720405741467075E-01
  2.40082204942310251E-01  2.45552291691281316E-01  2.51132167810513063E-01
  2.56823321502373747E-01  2.62627225168461598E-01  2.68545333130854880E-01
  2.74579079253853442E-01  2.80729874464554274E-01  2.86999104170729713E-01
  2.93388125574597813E-01  2.99898264881222953E-01  3.06530814400426843E-01
  3.13287029541248985E-01  3.20168125698161055E-01  3.27175275028406931E-01
  3.34309603120017618E-01  3.41572185550226837E-01  3.48964044334205969E-01
  3.56486144264161531E-01  3.64139389139057912E-01  3.71924617885383224E-01
  3.79842600569509026E-01  3.87894034302333157E-01  3.96079539036998329E-01
  4.04399653260555325E-01  4.12854829580486138E-01  4.21445430206991434E-01
  4.30171722331895268E-01  4.39033873404904074E-01  4.48031946307757667E-01
  4.57165894426552033E-01  4.66435556622121938E-01  4.75840652097914374E-01
  4.85380775164168166E-01  4.95055389896475739E-01  5.04863824685912954E-01
  5.14805266676855333E-01  5.24878756087340470E-01  5.35083180405391046E-01
  5.45417268453016968E-01  5.55879584307709895E-01  5.66468521069079411E-01
  5.77182294455885203E-01  5.88018936215748078E-01  5.98976287327121604E-01
  6.10051990969744606E-01  6.21243485236124382E-01  6.32547995552780629E-01
  6.43962526775865629E-01  6.55483854921441678E-01  6.67108518486199675E-01
  6.78832809309787732E-01  6.90652762925321961E-01  7.02564148340146466E-01
  7.14562457184702127E-01  7.26642892163620546E-01  7.38800354740134058E-01
  7.51029431982945472E-01  7.63324382504135146E-01  7.75679121418044959E-01
  7.88087204254915852E-01  8.00541809770044299E-01  8.13035721600239181E-01
  8.25561308735377364E-01  8.38110504795107181E-01  8.50674786130637628E-01
  8.63245148810819929E-01  8.75812084602371255E-01  8.88365556118512423E-01
  9.00894971391341337E-01  9.13389158224223063E-01  9.25836338805310466E-01
  9.38224105216642346E-01  9.50539396660198044E-01  9.62768479449709225E-01
  9.74896931091697172E-01  9.86909630109622849E-01  9.98790753656678243E-01
  1.01052378474976301E+00  1.02209151497669160E+00  1.03347603285790535E+00
  1.04465871136124044E+00  1.05562019621287595E+00  1.06634039510505851E+00
  1.07679846791467471E+00  1.08697281805508816E+00  1.09684108509188527E+00
  1.10638013876165942E+00  1.11556607454178014E+00  1.12437421092820755E+00
  1.13277908858784482E+00  1.14075447156162357E+00  1.14827335070449044E+00
  1.15530794955867999E+00  1.16182973286709679E+00  1.16780941794423665E+00
  1.17321698913283590E+00  1.17802171558529256E+00  1.18219217261979859E+00
  1.18569626691200991E+00  1.18850126579386961E+00  1.19057383094184499E+00
  1.19188005674721698E+00  1.19238551367110146E+00  1.19205529689646283E+00
  1.19085408059837561E+00  1.18874617816208095E+00  1.18569560868589918E+00
  1.18166617011276998E+00  1.17662151933757286E+00  1.17052525964347720E+00
  1.16334103582202375E+00  1.15503263733148542E+00  1.14556410984651569E+00
  1.13489987554791893E+00  1.12300486249453546E+00  1.10984464340941225E+00
  1.09538558419927456E+00  1.07959500250948692E+00  1.06244133659579432E+00
  1.04389432476876887E+00  1.02392519563662443E+00  1.00250686933644895E+00
  9.79614169902494170E-01  9.55224048872397646E-01  9.29315820177699980E-01
  9.01871406303098144E-01  8.72875595629123757E-01  8.42316310794732792E-01
  8.10184887829100364E-01  7.76476365705218718E-01  7.41189785861052663E-01
  7.04328501116584516E-01  6.65900493286483708E-01  6.25918698647857208E-01
  5.84401340270200298E-01  5.41372266049784834E-01  4.96861291112966452E-01
  4.50904543061983243E-01  4.03544808332649552E-01  3.54831877715704125E-01
  3.04822888862638752E-01  2.53582663352789284E-01  2.01184035641604891E-01
  1.47708170941120542E-01  9.32448688032415096E-02  3.78928488859356441E-02
 -1.82399849171666212E-02 -7.50363061099682538E-02 -1.32369157428136847E-01
 -1.90101777627665336E-01 -2.48087468295240671E-01 -3.06169506058380669E-01
 -3.64181105878392142E-01 -4.21945441400866983E-01 -4.79275728613845764E-01
 -5.35975379316770972E-01 -5.91838231127668868E-01 -6.46648860944586401E-01
 -7.00182988922464000E-01 -7.52207980119716568E-01 -8.02483451000752024E-01
 -8.50761987941192288E-01 -8.96789984761051873E-01 -9.40308606095865862E-01
 -9.81054883094538699E-01 -1.01876294749254503E+00 -1.05316540953650906E+00
 -1.08399488451716430E+00 -1.11098567178793339E+00 -1.13387558909133479E+00
 -1.15240796377068033E+00 -1.16633378099592910E+00 -1.17541398746646286E+00
 -1.17942194715731552E+00 -1.17814604353765651E+00 -1.17139242030150581E+00
 -1.15898785000348226E+00 -1.14078271708239343E+00 -1.11665409858184850E+00
 -1.08650892244299579E+00 -1.05028717955845985E+00 -1.00796516185257223E+00
 -9.59558694512088639E-01 -9.05126326162292716E-01 -8.44772436302953511E-01
 -7.78650214734018742E-01 -7.06964463069812865E-01 -6.29974163832159539E-01
 -5.47994758109391245E-01 -4.61400068465102231E-01 -3.70623799787556829E-01
 -2.76160547212836949E-01 -1.78566237271868961E-01 -7.84579261589075649E-02
  2.34871223326775999E-02  1.26533156927630730E-01  2.29888533741999856E-01
  3.32709260109719518E-01  4.34103557334394319E-01  5.33137506169868214E-01
  6.28841830538314994E-01  7.20219864294604495E-01  8.06256732562975920E-01
  8.85929763109492230E-01  9.58220124205859447E-01  1.02212566335985944E+00
  1.07667489605601352E+00  1.12094206524984008E+00  1.15406316084808136E+00
  1.17525275393386597E+00  1.18382146331428539E+00  1.17919383245504084E+00
  1.16092635353825013E+00  1.12872533290540189E+00  1.08246424936739305E+00
  1.02220021479957968E+00  9.48189106305612373E-01  8.60898902441476377E-01
  7.61020724150710870E-01  6.49477055975623996E-01  5.27426606757201766E-01
  3.96265263551298430E-01  2.57622600120384404E-01  1.13353424426158839E-01
 -3.44761096301774497E-02 -1.83608240152557528E-01 -3.31619515922228325E-01
 -4.75953120101709037E-01 -6.13957691330834887E-01 -7.42932576642114428E-01
 -8.60179266653850805E-01 -9.63058554362664521E-01 -1.04905272651609094E+00
 -1.11583184424471149E+00 -1.16132290207028532E+00 -1.18378037789104562E+00
 -1.18185640912235801E+00 -1.15466856169928023E+00 -1.10186291081495646E+00
 -1.02366993852607457E+00 -9.20950588750082733E-01 -7.95229721061357031E-01
 -6.48714188296143024E-01 -4.84292846822036105E-01 -3.05516009474802619E-01
 -1.16552185274514553E-01  7.78795697454282565E-02  2.72602730559014128E-01
  4.62102054621527869E-01  6.40667298930154172E-01  8.02560096096109343E-01
  9.42200957740919054E-01  1.05437205473116680E+00  1.13443005438385813E+00
  1.17852193084595558E+00  1.18379537607901208E+00  1.14859430617665925E+00
  1.07262907249209638E+00  9.57110447992752356E-01  8.04836368372702338E-01
  6.20220864482262768E-01  4.09255718213429431E-01  1.79397181484203944E-01
 -6.06273357313206682E-02 -3.01094366859380680E-01 -5.31638969636795800E-01
 -7.41681767193328456E-01 -9.20916236752630013E-01 -1.05983858263694364E+00
 -1.15029712017835606E+00 -1.18603309420475345E+00 -1.16318068503614880E+00
 -1.08069108278849768E+00 -9.40644419396353459E-01 -7.48414500822230155E-01
 -5.12655082163566811E-01 -2.45083168195653567E-01  3.99553705132212611E-02
  3.26139791051320904E-01  5.96034604256408973E-01  8.32125005839082554E-01
  1.01797848507446731E+00  1.13946556098638152E+00  1.18595666659437460E+00
  1.15140009399627075E+00  1.03517954559771508E+00  8.42651051952038821E-01
  5.85269372262203991E-01  2.80234524645282979E-01 -5.03799389137876280E-02
 -3.81014643706056755E-01 -6.84477433810447011E-01 -9.34158236103284301E-01
                              </PP_PSWFC.3>
                             </PP_FULL_WFC> 
 <PP_RHOATOM type="real" size="   777" columns="3">
  1.89026664089349804E-06  1.93811886844718889E-06  1.98718247576644143E-06
  2.03748812881470731E-06  2.08906726985088419E-06  2.14195213708377061E-06
  2.19617578482413264E-06  2.25177210414225729E-06  2.30877584404384525E-06
  2.36722263319346848E-06  2.42714900218476425E-06  2.48859240636769866E-06
  2.55159124925453994E-06  2.61618490652899762E-06  2.68241375065580514E-06
  2.75031917610500440E-06  2.81994362522783202E-06  2.89133061478756069E-06
  2.96452476315063707E-06  3.03957181816976036E-06  3.11651868578478328E-06
  3.19541345933520032E-06  3.27630544960898836E-06  3.35924521567165538E-06
  3.44428459646486462E-06  3.53147674319298503E-06  3.62087615255169736E-06
  3.71253870078985125E-06  3.80652167861729513E-06  3.90288382702030616E-06
  4.00168537397678605E-06  4.10298807208202950E-06  4.20685523715439341E-06
  4.31335178780773971E-06  4.42254428600776002E-06  4.53450097868701943E-06
  4.64929184039300269E-06  4.76698861700729968E-06  4.88766487060314216E-06
  5.01139602540484562E-06  5.13825941492359874E-06  5.26833433030280733E-06
  5.40170206984881180E-06  5.53844598985505440E-06  5.67865155669310882E-06
  5.82240640021025038E-06  5.96980036851713358E-06  6.12092558411290756E-06
  6.27587650147148026E-06  6.43474996606883728E-06  6.59764527488993248E-06
  6.76466423850835856E-06  6.93591124468018067E-06  7.11149332360536178E-06
  7.29152021479579787E-06  7.47610443565821785E-06  7.66536135181676041E-06
  7.85940924918581496E-06  8.05836940791773594E-06  8.26236617815638833E-06
  8.47152705778095963E-06  8.68598277204389421E-06  8.90586735529246099E-06
  9.13131823469920707E-06  9.36247631615998737E-06  9.59948607232833330E-06
  9.84249563290474684E-06  1.00916568771930494E-05  1.03471255290095615E-05
  1.06090612539887870E-05  1.08776277593539050E-05  1.11529928962100466E-05
  1.14353287644304454E-05  1.17248118201876068E-05  1.20216229862223652E-05
  1.23259477648762573E-05  1.26379763540236775E-05  1.29579037658839721E-05
  1.32859299489084597E-05  1.36222599126694858E-05  1.39671038560015984E-05
  1.43206772982902998E-05  1.46832012141707083E-05  1.50549021715650608E-05
  1.54360124732526885E-05  1.58267703020200771E-05  1.62274198694449598E-05
  1.66382115685172888E-05  1.70594021300321004E-05  1.74912547830211671E-05
  1.79340394191960006E-05  1.83880327615472092E-05  1.88535185372633195E-05
  1.93307876549430483E-05  1.98201383863620552E-05  2.03218765528138376E-05
  2.08363157161281016E-05  2.13637773745949955E-05  2.19045911637849189E-05
  2.24590950624550862E-05  2.30276356037131332E-05  2.36105680914605065E-05
  2.42082568223335135E-05  2.48210753132920256E-05  2.54494065349112508E-05
  2.60936431505913192E-05  2.67541877618527966E-05  2.74314531597932208E-05
  2.81258625828993740E-05  2.88378499814268752E-05  2.95678602884368049E-05
  3.03163496976623500E-05  3.10837859484433242E-05  3.18706486178632883E-05
  3.26774294202522518E-05  3.35046325142559947E-05  3.43527748177080259E-05
  3.52223863304459081E-05  3.61140104652783565E-05  3.70282043873158473E-05
  3.79655393619108197E-05  3.89266011113810077E-05  3.99119901807462458E-05
  4.09223223127009418E-05  4.19582288320849206E-05  4.30203570400756034E-05
  4.41093706183366666E-05  4.52259500433816193E-05  4.63707930114038900E-05
  4.75446148738566278E-05  4.87481490840449561E-05  4.99821476549992065E-05
  5.12473816289191796E-05  5.25446415584823753E-05  5.38747380003111169E-05
  5.52385020209146684E-05  5.66367857154191097E-05  5.80704627394003912E-05
  5.95404288541538109E-05  6.10476024857399140E-05  6.25929252981542185E-05
  6.41773627809756625E-05  6.58019048518598240E-05  6.74675664742501266E-05
  6.91753882906943440E-05  7.09264372721552438E-05  7.27218073837182559E-05
  7.45626202671119192E-05  7.64500259404626159E-05  7.83852035157185759E-05
  8.03693619341887987E-05  8.24037407206507403E-05  8.44896107564971588E-05
  8.66282750723995756E-05  8.88210696609794813E-05  9.10693643099928497E-05
  9.33745634565405713E-05  9.57381070628374474E-05  9.81614715140801379E-05
  1.00646170538969229E-04  1.03193756153458098E-04  1.05805819628307778E-04
  1.08483992481051144E-04  1.11229947492976698E-04  1.14045399751761881E-04
  1.16932107720400929E-04  1.19891874333085202E-04  1.22926548118716303E-04
  1.26038024352743727E-04  1.29228246238038372E-04  1.32499206115531604E-04
  1.35852946705364194E-04  1.39291562379314631E-04  1.42817200465282285E-04
  1.46432062584642706E-04  1.50138406023293943E-04  1.53938545137232666E-04
  1.57834852793531898E-04  1.61829761847604342E-04  1.65925766657660351E-04
  1.70125424637292236E-04  1.74431357847123011E-04  1.78846254626520228E-04
  1.83372871266391098E-04  1.88014033724051620E-04  1.92772639381237778E-04
  1.97651658846329241E-04  2.02654137801872237E-04  2.07783198898550773E-04
  2.13042043696834817E-04  2.18433954657403911E-04  2.23962297181582695E-04
  2.29630521703005783E-04  2.35442165831801538E-04  2.41400856552758259E-04
  2.47510312478636655E-04  2.53774346160023294E-04  2.60196866453042751E-04
  2.66781880946666370E-04  2.73533498450943509E-04  2.80455931547560970E-04
  2.87553499204178825E-04  2.94830629454582852E-04  3.02291862146053601E-04
  3.09941851755382689E-04  3.17785370275274913E-04  3.25827310173517075E-04
  3.34072687426071832E-04  3.42526644625690290E-04  3.51194454168723448E-04
  3.60081521521853532E-04  3.69193388569922685E-04  3.78535737047656787E-04
  3.88114392057739522E-04  3.97935325675980410E-04  4.08004660646651323E-04
  4.18328674170903385E-04  4.28913801788642754E-04  4.39766641357635692E-04
  4.50893957132639971E-04  4.62302683944738511E-04  4.73999931485979292E-04
  4.85992988700835807E-04  4.98289328285531096E-04  5.10896611301490380E-04
  5.23822691901937938E-04  5.37075622176257160E-04  5.50663657116166449E-04
  5.64595259702671244E-04  5.78879106122251745E-04  5.93524091110300407E-04
  6.08539333427883782E-04  6.23934181475258032E-04  6.39718219041911945E-04
  6.55901271202764531E-04  6.72493410356048973E-04  6.89504962414671033E-04
  7.06946513147236472E-04  7.24828914678076397E-04  7.43163292146726434E-04
  7.61961050531459352E-04  7.81233881642642240E-04  8.00993771285711466E-04
  8.21253006604282529E-04  8.42024183599357858E-04  8.63320214838742927E-04
  8.85154337349999690E-04  9.07540120713536580E-04  9.30491475347541472E-04
  9.54022661002923737E-04  9.78148295459281255E-04  1.00288336344060399E-03
  1.02824322574228974E-03  1.05424362858717565E-03  1.08090071320471825E-03
  1.10823102564751720E-03  1.13625152684489563E-03  1.16497960290083062E-03
  1.19443307564506569E-03  1.22463021343458467E-03  1.25558974222561939E-03
  1.28733085690299317E-03  1.31987323289549656E-03  1.35323703806069693E-03
  1.38744294486514708E-03  1.42251214285418108E-03  1.45846635142004351E-03
  1.49532783288477402E-03  1.53311940588477750E-03  1.57186445909001651E-03
  1.61158696524075096E-03  1.65231149552380998E-03  1.69406323429655589E-03
  1.73686799414942273E-03  1.78075223134184914E-03  1.82574306159356630E-03
  1.87186827625184784E-03  1.91915635885027110E-03  1.96763650204320783E-03
  2.01733862495280395E-03  2.06829339092121176E-03  2.12053222566933094E-03
  2.17408733589792048E-03  2.22899172831208170E-03  2.28527922908687694E-03
  2.34298450380079210E-03  2.40214307781699658E-03  2.46279135713935475E-03
  2.52496664976247821E-03  2.58870718749770658E-03  2.65405214830561091E-03
  2.72104167915170839E-03  2.78971691936854465E-03  2.86012002455379504E-03
  2.93229419102459784E-03  3.00628368081071662E-03  3.08213384721060194E-03
  3.15989116094000022E-03  3.23960323685457911E-03  3.32131886126053053E-03
  3.40508801985425378E-03  3.49096192627464628E-03  3.57899305127202215E-03
  3.66923515253362057E-03  3.76174330516790539E-03  3.85657393284007197E-03
  3.95378483958056057E-03  4.05343524230246822E-03  4.15558580400850197E-03
  4.26029866769551957E-03  4.36763749099456072E-03  4.47766748155349267E-03
  4.59045543315358268E-03  4.70606976257072120E-03  4.82458054722723420E-03
  4.94605956362079505E-03  5.07058032653388748E-03  5.19821812903367882E-03
  5.32905008330928926E-03  5.46315516232529462E-03  5.60061424229980724E-03
  5.74151014601329956E-03  5.88592768699602257E-03  6.03395371457247313E-03
  6.18567715976984893E-03  6.34118908209177663E-03  6.50058271720091105E-03
  6.66395352550195035E-03  6.83139924161832966E-03  7.00301992476844246E-03
  7.17891801005809353E-03  7.35919836071903186E-03  7.54396832126036452E-03
  7.73333777154656347E-03  7.92741918179257730E-03  8.12632766851530131E-03
  8.33018105142881334E-03  8.53909991126522092E-03  8.75320764852784323E-03
  8.97263054316124568E-03  9.19749781518002310E-03  9.42794168622243696E-03
  9.66409744201385951E-03  9.90610349573913321E-03  1.01541014522983884E-02
  1.04082361734781168E-02  1.06686558440059840E-02  1.09355120384552647E-02
  1.12089597889934080E-02  1.14891576539425250E-02  1.17762677871427451E-02
  1.20704560081253687E-02  1.23718918730202736E-02  1.26807487461816273E-02
  1.29972038725003937E-02  1.33214384503484874E-02  1.36536377051549723E-02
  1.39939909635674268E-02  1.43426917281184851E-02  1.46999377523623961E-02
  1.50659311164259239E-02  1.54408783028958212E-02  1.58249902730127311E-02
  1.62184825431118292E-02  1.66215752611933755E-02  1.70344932835607525E-02
  1.74574662514419658E-02  1.78907286674963618E-02  1.83345199720966918E-02
  1.87890846193484486E-02  1.92546721526771943E-02  1.97315372798696174E-02
  2.02199399474510891E-02  2.07201454142657351E-02  2.12324243241094959E-02
  2.17570527772545791E-02  2.22943124007753679E-02  2.28444904174424819E-02
  2.34078797130123327E-02  2.39847789017319998E-02  2.45754923898591389E-02
  2.51803304369855700E-02  2.57996092149184487E-02  2.64336508639308083E-02
  2.70827835461398964E-02  2.77473414957032476E-02  2.84276650655803549E-02
  2.91241007705731469E-02  2.98370013263423682E-02  3.05667256840826303E-02
  3.13136390604999634E-02  3.20781129627751571E-02  3.28605252081771645E-02
  3.36612599378760605E-02  3.44807076245776112E-02  3.53192650735613123E-02
  3.61773354166828320E-02  3.70553280988825950E-02  3.79536588567191482E-02
  3.88727496884031035E-02  3.98130288148630940E-02  4.07749306313056406E-02
  4.17588956486491664E-02  4.27653704242692279E-02  4.37948074814462282E-02
  4.48476652168814313E-02  4.59244077956241503E-02  4.70255050327281626E-02
  4.81514322609267117E-02  4.93026701835699646E-02  5.04797047121521569E-02
  5.16830267875959329E-02  5.29131321844700797E-02  5.41705212973288969E-02
  5.54556989083183349E-02  5.67691739351702113E-02  5.81114591586815443E-02
  5.94830709287534620E-02  6.08845288480401869E-02  6.23163554322284097E-02
  6.37790757459459207E-02  6.52732170133665246E-02  6.67993082024053442E-02
  6.83578795814677176E-02  6.99494622477014188E-02  7.15745876256791980E-02
  7.32337869354290349E-02  7.49275906287217991E-02  7.66565277925214950E-02
  7.84211255185021661E-02  8.02219082375388998E-02  8.20593970180797938E-02
  8.39341088273166253E-02  8.58465557541564089E-02  8.77972441928950714E-02
  8.97866739865931796E-02  9.18153375291860113E-02  9.38837188253965754E-02
  9.59922925075673700E-02  9.81415228085850272E-02  1.00331862490137300E-01
  1.02563751725620711E-01  1.04837616937099837E-01  1.07153869585821238E-01
  1.09512904915890233E-01  1.11915100650846130E-01  1.14360815643013022E-01
  1.16850388475637543E-01  1.19384136017993137E-01  1.21962351933822641E-01
  1.24585305143690511E-01  1.27253238242028388E-01  1.29966365869896600E-01
  1.32724873044742786E-01  1.35528913448713761E-01  1.38378607677380555E-01
  1.41274041451057236E-01  1.44215263791242082E-01  1.47202285165083296E-01
  1.50235075601164919E-01  1.53313562780346607E-01  1.56437630105871611E-01
  1.59607114757264051E-01  1.62821805733249725E-01  1.66081441889405046E-01
  1.69385709976769328E-01  1.72734242688263123E-01  1.76126616720371665E-01
  1.79562350858199216E-01  1.83040904092670903E-01  1.86561673779354703E-01
  1.90123993849097062E-01  1.93727133081407099E-01  1.97370293452285295E-01
  2.01052608568967034E-01  2.04773142204845160E-01  2.08530886948630007E-01
  2.12324762982607412E-01  2.16153617005697102E-01  2.20016221317870991E-01
  2.23911273082741002E-01  2.27837393786607778E-01  2.31793128912697127E-01
  2.35776947849905744E-01  2.39787244056062221E-01  2.43822335496269943E-01
  2.47880465377370129E-01  2.51959803199954535E-01  2.56058446149624530E-01
  2.60174420849336840E-01  2.64305685494673981E-01  2.68450132393701746E-01
  2.72605590932712138E-01  2.76769830988569665E-01  2.80940566807562464E-01
  2.85115461369572554E-01  2.89292131255000751E-01  2.93468152030180673E-01
  2.97641064164956393E-01  3.01808379493725965E-01  3.05967588228566845E-01
  3.10116166528661863E-01  3.14251584627900205E-01  3.18371315517759990E-01
  3.22472844177461304E-01  3.26553677338106529E-01  3.30611353761508020E-01
  3.34643455007744561E-01  3.38647616658187489E-01  3.42621539952759790E-01
  3.46563003791538204E-01  3.50469877041459321E-01  3.54340131078865139E-01
  3.58171852487902564E-01  3.61963255823437080E-01  3.65712696335145304E-01
  3.69418682536888088E-01  3.73079888492386769E-01  3.76695165674715282E-01
  3.80263554243275181E-01  3.83784293567870971E-01  3.87256831815385838E-01
  3.90680834400544574E-01  3.94056191088579755E-01  3.97383021524468638E-01
  4.00661678951130140E-01  4.03892751867316602E-01  4.07077063367007219E-01
  4.10215667893840064E-01  4.13309845138376430E-01  4.16361090803251899E-01
  4.19371103961673819E-01  4.22341770738977496E-01  4.25275144055647258E-01
  4.28173419184017134E-01  4.31038904890478636E-01  4.33873989961095441E-01
  4.36681104940258635E-01  4.39462678928858930E-01  4.42221091003818734E-01
  4.44958611421060912E-01  4.47677269191682770E-01  4.50377331503984679E-01
  4.53005313034888835E-01  4.55529597117590612E-01  4.57949032335893513E-01
  4.60262125370282105E-01  4.62467400745599388E-01  4.64563412365766815E-01
  4.66548728745111274E-01  4.68421915634406438E-01  4.70181518213534155E-01
  4.71826043618818025E-01  4.73353944638417456E-01  4.74763605607359529E-01
  4.76053331774053290E-01  4.77221343691570876E-01  4.78265778512333761E-01
  4.79184700442325973E-01  4.79976123045651959E-01  4.80638046579185740E-01
  4.81168512666394543E-01  4.81565645094131300E-01  4.81827657373968099E-01
  4.81952856925800310E-01  4.81939649237513257E-01  4.81786541977226535E-01
  4.81492149047272611E-01  4.81055194570041700E-01  4.80474516795720230E-01
  4.79749071921830417E-01  4.78877937814326804E-01  4.77860317619901609E-01
  4.76695543259062882E-01  4.75383078789479940E-01  4.73922523629059012E-01
  4.72313615628196681E-01  4.70556233980675587E-01  4.68650401962712682E-01
  4.66596289489745408E-01  4.64394215480646633E-01  4.62044650019196645E-01
  4.59548216302809787E-01  4.56905692368718863E-01  4.54118012588050346E-01
  4.51186268918506272E-01  4.48111711906659604E-01  4.44895751431226727E-01
  4.41539957179042653E-01  4.38046058845893371E-01  4.34415946054770630E-01
  4.30651667984560726E-01  4.26755432703036897E-01  4.22729606198132546E-01
  4.18576711102201127E-01  4.14299425104696806E-01  4.09900579049308988E-01
  4.05383154712298965E-01  4.00750282259500767E-01  3.96005237380220365E-01
  3.91151438097054827E-01  3.86192441251484497E-01  3.81131938665932313E-01
  3.75973752983878307E-01  3.70721833190507888E-01  3.65380249817312153E-01
  3.59953189835002962E-01  3.54444951240078021E-01  3.48859937341353898E-01
  3.43202650753790584E-01  3.37477687107941182E-01  3.31689728484379387E-01
  3.25843536583488913E-01  3.19943945642022554E-01  3.13995855108868682E-01
  3.08004222093483826E-01  3.01974053601464676E-01  2.95910398572728217E-01
  2.89818339738755482E-01  2.83702985316311995E-01  2.77569460555990799E-01
  2.71422899164827314E-01  2.65268434623099847E-01  2.59111191416260822E-01
  2.52956276203767427E-01  2.46808768948706875E-01  2.40673714022968555E-01
  2.34556111329335765E-01  2.28460907446415840E-01  2.22392986830669076E-01
  2.16357163098585242E-01  2.10358170414456952E-01  2.04400655009365773E-01
  1.98489166857048177E-01  1.92628151532624248E-01  1.86821942279822628E-01
  1.81074752312049836E-01  1.75390667372608805E-01  1.69773638578871122E-01
  1.64227475574690529E-01  1.58755840014699889E-01  1.53362239403378980E-01
  1.48050021310897562E-01  1.42822367986744414E-01  1.37682291391029388E-01
  1.32632628662113811E-01  1.27676038037868478E-01  1.22814995246394207E-01
  1.18051790380467245E-01  1.13388525268288687E-01  1.08827111351343250E-01
  1.04369268078302324E-01  1.00016521821952281E-01  9.57702053240986617E-02
  9.16314576713032763E-02  8.76012248021559720E-02  8.36802605445883391E-02
  7.98691281795034097E-02  7.61682025247456262E-02  7.25776725311751136E-02
  6.90975443803572009E-02  6.57276450711439530E-02  6.24676264802297640E-02
  5.93169698796067388E-02  5.62749908917681493E-02  5.33408448614954775E-02
  5.05135326211555713E-02  4.77919066246271715E-02  4.51746774232935910E-02
  4.26604204559879671E-02  4.02475831233784914E-02  3.79344921160359796E-02
  3.57193609643556981E-02  3.36002977776113029E-02  3.15753131387111891E-02
  2.96423281207182990E-02  2.77991823908808125E-02  2.60436423678120851E-02
  2.43734093975561360E-02  2.27861279145767370E-02  2.12793935542184426E-02
  1.98507611839546655E-02  1.84977528214740998E-02  1.72178654088162228E-02
  1.60085784132502837E-02  1.48673612268199092E-02  1.37916803381433160E-02
  1.27790062518217534E-02  1.18268201326994678E-02  1.09326201542281950E-02
  1.00939275322989488E-02  9.30829222809832768E-03  8.57329830580679311E-03
  7.88656893326421249E-03  7.24577101606325817E-03  6.64861945787788202E-03
  6.09288104216958865E-03  5.57637793272315260E-03  5.09699079272606711E-03
  4.65266152430496727E-03  4.24139563255275433E-03  3.86126422010441873E-03
  3.51040562023510316E-03  3.18702667824776603E-03  2.88940369257751793E-03
  2.61588302855684466E-03  2.36488141915129450E-03  2.13488596818299818E-03
  1.92445387260474303E-03  1.73221188126699947E-03  1.55685550833363192E-03
  1.39714802004905028E-03  1.25191921394261058E-03  1.12006400977881278E-03
  1.00054087162961339E-03  8.92370080364226310E-04  7.94631875630195592E-04
  7.06464486046052436E-04  6.27062065850398980E-04  5.55672555665382415E-04
  4.91595484345654348E-04  4.34179728108650281E-04  3.82821242290525032E-04
  3.36960780156597174E-04  2.96081612227901201E-04  2.59707258578395484E-04
  2.27399245522515983E-04  1.98754897061381491E-04  1.73405170398825052E-04
  1.51012543786014654E-04  1.31268963914993889E-04  1.13893859065963767E-04
  9.86322232282917409E-05  8.52527754693026935E-05  7.35461979252198642E-05
  6.33234549086301372E-05  5.44141948651158624E-05  4.66652361508231408E-05
  3.99391369095347329E-05  3.41128487082868170E-05  2.90764530268824981E-05
  2.47319791943498384E-05  2.09923019237497631E-05  1.77801162145272246E-05
  1.50269870669584726E-05  1.26724711838294176E-05  1.06633076175732914E-05
  8.95267415359110745E-06  7.49950609902936509E-06  6.26787406735211986E-06
  5.22641730890775266E-06  4.34782913260944732E-06  3.60839099002768969E-06
  2.98755184688524431E-06  2.46754954448743509E-06  2.03307095145308072E-06
  1.67094782084930680E-06  1.36988539625828212E-06  1.12022094941270808E-06
  9.13709579048138843E-07  7.43334752986189666E-07  6.03141230881421904E-07
  4.88088161478749981E-07  3.93920303824746356E-07  3.17055475083539582E-07
  2.54486477084685801E-07  2.03695898358535600E-07  1.62582327283604195E-07
  1.29396644365375295E-07  1.02687187050683197E-07  8.12526984829964071E-08
  6.41020819944065718E-08  5.04200858120241704E-08  3.95381374443049985E-08
  3.09096346178580911E-08  2.40890796494416775E-08  1.87145170197064472E-08
                             </PP_RHOATOM> 
<PP_PAW paw_data_format="2"> 
   <PP_OCCUPATIONS type="real" columns="3" size=" 3">
  1.00000000000000000E+00  0.00000000000000000E+00  0.00000000000000000E+00
                             </PP_OCCUPATIONS> 
 <PP_AE_NLCC type="real" size="   777" columns="3">
  0.00000000000000000E+00  0.00000000000000000E+00  0.00000000000000000E+00
  0.00000000000000000E+00  0.00000000000000000E+00  0.00000000000000000E+00
  0.00000000000000000E+00  0.00000000000000000E+00  0.00000000000000000E+00
  0.00000000000000000E+00  0.00000000000000000E+00  0.00000000000000000E+00
  0.00000000000000000E+00  0.00000000000000000E+00  0.00000000000000000E+00
  0.00000000000000000E+00  0.00000000000000000E+00  0.00000000000000000E+00
  0.00000000000000000E+00  0.00000000000000000E+00  0.00000000000000000E+00
  0.00000000000000000E+00  0.00000000000000000E+00  0.00000000000000000E+00
  0.00000000000000000E+00  0.00000000000000000E+00  0.00000000000000000E+00
  0.00000000000000000E+00  0.00000000000000000E+00  0.00000000000000000E+00
  0.00000000000000000E+00  0.00000000000000000E+00  0.00000000000000000E+00
  0.00000000000000000E+00  0.00000000000000000E+00  0.00000000000000000E+00
  0.00000000000000000E+00  0.00000000000000000E+00  0.00000000000000000E+00
  0.00000000000000000E+00  0.00000000000000000E+00  0.00000000000000000E+00
  0.00000000000000000E+00  0.00000000000000000E+00  0.00000000000000000E+00
  0.00000000000000000E+00  0.00000000000000000E+00  0.00000000000000000E+00
  0.00000000000000000E+00  0.00000000000000000E+00  0.00000000000000000E+00
  0.00000000000000000E+00  0.00000000000000000E+00  0.00000000000000000E+00
  0.00000000000000000E+00  0.00000000000000000E+00  0.00000000000000000E+00
  0.00000000000000000E+00  0.00000000000000000E+00  0.00000000000000000E+00
  0.00000000000000000E+00  0.00000000000000000E+00  0.00000000000000000E+00
  0.00000000000000000E+00  0.00000000000000000E+00  0.00000000000000000E+00
  0.00000000000000000E+00  0.00000000000000000E+00  0.00000000000000000E+00
  0.00000000000000000E+00  0.00000000000000000E+00  0.00000000000000000E+00
  0.00000000000000000E+00  0.00000000000000000E+00  0.00000000000000000E+00
  0.00000000000000000E+00  0.00000000000000000E+00  0.00000000000000000E+00
  0.00000000000000000E+00  0.00000000000000000E+00  0.00000000000000000E+00
  0.00000000000000000E+00  0.00000000000000000E+00  0.00000000000000000E+00
  0.00000000000000000E+00  0.00000000000000000E+00  0.00000000000000000E+00
  0.00000000000000000E+00  0.00000000000000000E+00  0.00000000000000000E+00
  0.00000000000000000E+00  0.00000000000000000E+00  0.00000000000000000E+00
  0.00000000000000000E+00  0.00000000000000000E+00  0.00000000000000000E+00
  0.00000000000000000E+00  0.00000000000000000E+00  0.00000000000000000E+00
  0.00000000000000000E+00  0.00000000000000000E+00  0.00000000000000000E+00
  0.00000000000000000E+00  0.00000000000000000E+00  0.00000000000000000E+00
  0.00000000000000000E+00  0.00000000000000000E+00  0.00000000000000000E+00
  0.00000000000000000E+00  0.00000000000000000E+00  0.00000000000000000E+00
  0.00000000000000000E+00  0.00000000000000000E+00  0.00000000000000000E+00
  0.00000000000000000E+00  0.00000000000000000E+00  0.00000000000000000E+00
  0.00000000000000000E+00  0.00000000000000000E+00  0.00000000000000000E+00
  0.00000000000000000E+00  0.00000000000000000E+00  0.00000000000000000E+00
  0.00000000000000000E+00  0.00000000000000000E+00  0.00000000000000000E+00
  0.00000000000000000E+00  0.00000000000000000E+00  0.00000000000000000E+00
  0.00000000000000000E+00  0.00000000000000000E+00  0.00000000000000000E+00
  0.00000000000000000E+00  0.00000000000000000E+00  0.00000000000000000E+00
  0.00000000000000000E+00  0.00000000000000000E+00  0.00000000000000000E+00
  0.00000000000000000E+00  0.00000000000000000E+00  0.00000000000000000E+00
  0.00000000000000000E+00  0.00000000000000000E+00  0.00000000000000000E+00
  0.00000000000000000E+00  0.00000000000000000E+00  0.00000000000000000E+00
  0.00000000000000000E+00  0.00000000000000000E+00  0.00000000000000000E+00
  0.00000000000000000E+00  0.00000000000000000E+00  0.00000000000000000E+00
  0.00000000000000000E+00  0.00000000000000000E+00  0.00000000000000000E+00
  0.00000000000000000E+00  0.00000000000000000E+00  0.00000000000000000E+00
  0.00000000000000000E+00  0.00000000000000000E+00  0.00000000000000000E+00
  0.00000000000000000E+00  0.00000000000000000E+00  0.00000000000000000E+00
  0.00000000000000000E+00  0.00000000000000000E+00  0.00000000000000000E+00
  0.00000000000000000E+00  0.00000000000000000E+00  0.00000000000000000E+00
  0.00000000000000000E+00  0.00000000000000000E+00  0.00000000000000000E+00
  0.00000000000000000E+00  0.00000000000000000E+00  0.00000000000000000E+00
  0.00000000000000000E+00  0.00000000000000000E+00  0.00000000000000000E+00
  0.00000000000000000E+00  0.00000000000000000E+00  0.00000000000000000E+00
  0.00000000000000000E+00  0.00000000000000000E+00  0.00000000000000000E+00
  0.00000000000000000E+00  0.00000000000000000E+00  0.00000000000000000E+00
  0.00000000000000000E+00  0.00000000000000000E+00  0.00000000000000000E+00
  0.00000000000000000E+00  0.00000000000000000E+00  0.00000000000000000E+00
  0.00000000000000000E+00  0.00000000000000000E+00  0.00000000000000000E+00
  0.00000000000000000E+00  0.00000000000000000E+00  0.00000000000000000E+00
  0.00000000000000000E+00  0.00000000000000000E+00  0.00000000000000000E+00
  0.00000000000000000E+00  0.00000000000000000E+00  0.00000000000000000E+00
  0.00000000000000000E+00  0.00000000000000000E+00  0.00000000000000000E+00
  0.00000000000000000E+00  0.00000000000000000E+00  0.00000000000000000E+00
  0.00000000000000000E+00  0.00000000000000000E+00  0.00000000000000000E+00
  0.00000000000000000E+00  0.00000000000000000E+00  0.00000000000000000E+00
  0.00000000000000000E+00  0.00000000000000000E+00  0.00000000000000000E+00
  0.00000000000000000E+00  0.00000000000000000E+00  0.00000000000000000E+00
  0.00000000000000000E+00  0.00000000000000000E+00  0.00000000000000000E+00
  0.00000000000000000E+00  0.00000000000000000E+00  0.00000000000000000E+00
  0.00000000000000000E+00  0.00000000000000000E+00  0.00000000000000000E+00
  0.00000000000000000E+00  0.00000000000000000E+00  0.00000000000000000E+00
  0.00000000000000000E+00  0.00000000000000000E+00  0.00000000000000000E+00
  0.00000000000000000E+00  0.00000000000000000E+00  0.00000000000000000E+00
  0.00000000000000000E+00  0.00000000000000000E+00  0.00000000000000000E+00
  0.00000000000000000E+00  0.00000000000000000E+00  0.00000000000000000E+00
  0.00000000000000000E+00  0.00000000000000000E+00  0.00000000000000000E+00
  0.00000000000000000E+00  0.00000000000000000E+00  0.00000000000000000E+00
  0.00000000000000000E+00  0.00000000000000000E+00  0.00000000000000000E+00
  0.00000000000000000E+00  0.00000000000000000E+00  0.00000000000000000E+00
  0.00000000000000000E+00  0.00000000000000000E+00  0.00000000000000000E+00
  0.00000000000000000E+00  0.00000000000000000E+00  0.00000000000000000E+00
  0.00000000000000000E+00  0.00000000000000000E+00  0.00000000000000000E+00
  0.00000000000000000E+00  0.00000000000000000E+00  0.00000000000000000E+00
  0.00000000000000000E+00  0.00000000000000000E+00  0.00000000000000000E+00
  0.00000000000000000E+00  0.00000000000000000E+00  0.00000000000000000E+00
  0.00000000000000000E+00  0.00000000000000000E+00  0.00000000000000000E+00
  0.00000000000000000E+00  0.00000000000000000E+00  0.00000000000000000E+00
  0.00000000000000000E+00  0.00000000000000000E+00  0.00000000000000000E+00
  0.00000000000000000E+00  0.00000000000000000E+00  0.00000000000000000E+00
  0.00000000000000000E+00  0.00000000000000000E+00  0.00000000000000000E+00
  0.00000000000000000E+00  0.00000000000000000E+00  0.00000000000000000E+00
  0.00000000000000000E+00  0.00000000000000000E+00  0.00000000000000000E+00
  0.00000000000000000E+00  0.00000000000000000E+00  0.00000000000000000E+00
  0.00000000000000000E+00  0.00000000000000000E+00  0.00000000000000000E+00
  0.00000000000000000E+00  0.00000000000000000E+00  0.00000000000000000E+00
  0.00000000000000000E+00  0.00000000000000000E+00  0.00000000000000000E+00
  0.00000000000000000E+00  0.00000000000000000E+00  0.00000000000000000E+00
  0.00000000000000000E+00  0.00000000000000000E+00  0.00000000000000000E+00
  0.00000000000000000E+00  0.00000000000000000E+00  0.00000000000000000E+00
  0.00000000000000000E+00  0.00000000000000000E+00  0.00000000000000000E+00
  0.00000000000000000E+00  0.00000000000000000E+00  0.00000000000000000E+00
  0.00000000000000000E+00  0.00000000000000000E+00  0.00000000000000000E+00
  0.00000000000000000E+00  0.00000000000000000E+00  0.00000000000000000E+00
  0.00000000000000000E+00  0.00000000000000000E+00  0.00000000000000000E+00
  0.00000000000000000E+00  0.00000000000000000E+00  0.00000000000000000E+00
  0.00000000000000000E+00  0.00000000000000000E+00  0.00000000000000000E+00
  0.00000000000000000E+00  0.00000000000000000E+00  0.00000000000000000E+00
  0.00000000000000000E+00  0.00000000000000000E+00  0.00000000000000000E+00
  0.00000000000000000E+00  0.00000000000000000E+00  0.00000000000000000E+00
  0.00000000000000000E+00  0.00000000000000000E+00  0.00000000000000000E+00
  0.00000000000000000E+00  0.00000000000000000E+00  0.00000000000000000E+00
  0.00000000000000000E+00  0.00000000000000000E+00  0.00000000000000000E+00
  0.00000000000000000E+00  0.00000000000000000E+00  0.00000000000000000E+00
  0.00000000000000000E+00  0.00000000000000000E+00  0.00000000000000000E+00
  0.00000000000000000E+00  0.00000000000000000E+00  0.00000000000000000E+00
  0.00000000000000000E+00  0.00000000000000000E+00  0.00000000000000000E+00
  0.00000000000000000E+00  0.00000000000000000E+00  0.00000000000000000E+00
  0.00000000000000000E+00  0.00000000000000000E+00  0.00000000000000000E+00
  0.00000000000000000E+00  0.00000000000000000E+00  0.00000000000000000E+00
  0.00000000000000000E+00  0.00000000000000000E+00  0.00000000000000000E+00
  0.00000000000000000E+00  0.00000000000000000E+00  0.00000000000000000E+00
  0.00000000000000000E+00  0.00000000000000000E+00  0.00000000000000000E+00
  0.00000000000000000E+00  0.00000000000000000E+00  0.00000000000000000E+00
  0.00000000000000000E+00  0.00000000000000000E+00  0.00000000000000000E+00
  0.00000000000000000E+00  0.00000000000000000E+00  0.00000000000000000E+00
  0.00000000000000000E+00  0.00000000000000000E+00  0.00000000000000000E+00
  0.00000000000000000E+00  0.00000000000000000E+00  0.00000000000000000E+00
  0.00000000000000000E+00  0.00000000000000000E+00  0.00000000000000000E+00
  0.00000000000000000E+00  0.00000000000000000E+00  0.00000000000000000E+00
  0.00000000000000000E+00  0.00000000000000000E+00  0.00000000000000000E+00
  0.00000000000000000E+00  0.00000000000000000E+00  0.00000000000000000E+00
  0.00000000000000000E+00  0.00000000000000000E+00  0.00000000000000000E+00
  0.00000000000000000E+00  0.00000000000000000E+00  0.00000000000000000E+00
  0.00000000000000000E+00  0.00000000000000000E+00  0.00000000000000000E+00
  0.00000000000000000E+00  0.00000000000000000E+00  0.00000000000000000E+00
  0.00000000000000000E+00  0.00000000000000000E+00  0.00000000000000000E+00
  0.00000000000000000E+00  0.00000000000000000E+00  0.00000000000000000E+00
  0.00000000000000000E+00  0.00000000000000000E+00  0.00000000000000000E+00
  0.00000000000000000E+00  0.00000000000000000E+00  0.00000000000000000E+00
  0.00000000000000000E+00  0.00000000000000000E+00  0.00000000000000000E+00
  0.00000000000000000E+00  0.00000000000000000E+00  0.00000000000000000E+00
  0.00000000000000000E+00  0.00000000000000000E+00  0.00000000000000000E+00
  0.00000000000000000E+00  0.00000000000000000E+00  0.00000000000000000E+00
  0.00000000000000000E+00  0.00000000000000000E+00  0.00000000000000000E+00
  0.00000000000000000E+00  0.00000000000000000E+00  0.00000000000000000E+00
  0.00000000000000000E+00  0.00000000000000000E+00  0.00000000000000000E+00
  0.00000000000000000E+00  0.00000000000000000E+00  0.00000000000000000E+00
  0.00000000000000000E+00  0.00000000000000000E+00  0.00000000000000000E+00
  0.00000000000000000E+00  0.00000000000000000E+00  0.00000000000000000E+00
  0.00000000000000000E+00  0.00000000000000000E+00  0.00000000000000000E+00
  0.00000000000000000E+00  0.00000000000000000E+00  0.00000000000000000E+00
  0.00000000000000000E+00  0.00000000000000000E+00  0.00000000000000000E+00
  0.00000000000000000E+00  0.00000000000000000E+00  0.00000000000000000E+00
  0.00000000000000000E+00  0.00000000000000000E+00  0.00000000000000000E+00
  0.00000000000000000E+00  0.00000000000000000E+00  0.00000000000000000E+00
  0.00000000000000000E+00  0.00000000000000000E+00  0.00000000000000000E+00
  0.00000000000000000E+00  0.00000000000000000E+00  0.00000000000000000E+00
  0.00000000000000000E+00  0.00000000000000000E+00  0.00000000000000000E+00
  0.00000000000000000E+00  0.00000000000000000E+00  0.00000000000000000E+00
  0.00000000000000000E+00  0.00000000000000000E+00  0.00000000000000000E+00
  0.00000000000000000E+00  0.00000000000000000E+00  0.00000000000000000E+00
  0.00000000000000000E+00  0.00000000000000000E+00  0.00000000000000000E+00
  0.00000000000000000E+00  0.00000000000000000E+00  0.00000000000000000E+00
  0.00000000000000000E+00  0.00000000000000000E+00  0.00000000000000000E+00
  0.00000000000000000E+00  0.00000000000000000E+00  0.00000000000000000E+00
  0.00000000000000000E+00  0.00000000000000000E+00  0.00000000000000000E+00
  0.00000000000000000E+00  0.00000000000000000E+00  0.00000000000000000E+00
  0.00000000000000000E+00  0.00000000000000000E+00  0.00000000000000000E+00
  0.00000000000000000E+00  0.00000000000000000E+00  0.00000000000000000E+00
  0.00000000000000000E+00  0.00000000000000000E+00  0.00000000000000000E+00
  0.00000000000000000E+00  0.00000000000000000E+00  0.00000000000000000E+00
  0.00000000000000000E+00  0.00000000000000000E+00  0.00000000000000000E+00
  0.00000000000000000E+00  0.00000000000000000E+00  0.00000000000000000E+00
  0.00000000000000000E+00  0.00000000000000000E+00  0.00000000000000000E+00
  0.00000000000000000E+00  0.00000000000000000E+00  0.00000000000000000E+00
  0.00000000000000000E+00  0.00000000000000000E+00  0.00000000000000000E+00
  0.00000000000000000E+00  0.00000000000000000E+00  0.00000000000000000E+00
  0.00000000000000000E+00  0.00000000000000000E+00  0.00000000000000000E+00
  0.00000000000000000E+00  0.00000000000000000E+00  0.00000000000000000E+00
  0.00000000000000000E+00  0.00000000000000000E+00  0.00000000000000000E+00
  0.00000000000000000E+00  0.00000000000000000E+00  0.00000000000000000E+00
  0.00000000000000000E+00  0.00000000000000000E+00  0.00000000000000000E+00
  0.00000000000000000E+00  0.00000000000000000E+00  0.00000000000000000E+00
  0.00000000000000000E+00  0.00000000000000000E+00  0.00000000000000000E+00
  0.00000000000000000E+00  0.00000000000000000E+00  0.00000000000000000E+00
  0.00000000000000000E+00  0.00000000000000000E+00  0.00000000000000000E+00
  0.00000000000000000E+00  0.00000000000000000E+00  0.00000000000000000E+00
  0.00000000000000000E+00  0.00000000000000000E+00  0.00000000000000000E+00
  0.00000000000000000E+00  0.00000000000000000E+00  0.00000000000000000E+00
  0.00000000000000000E+00  0.00000000000000000E+00  0.00000000000000000E+00
  0.00000000000000000E+00  0.00000000000000000E+00  0.00000000000000000E+00
  0.00000000000000000E+00  0.00000000000000000E+00  0.00000000000000000E+00
  0.00000000000000000E+00  0.00000000000000000E+00  0.00000000000000000E+00
  0.00000000000000000E+00  0.00000000000000000E+00  0.00000000000000000E+00
  0.00000000000000000E+00  0.00000000000000000E+00  0.00000000000000000E+00
  0.00000000000000000E+00  0.00000000000000000E+00  0.00000000000000000E+00
  0.00000000000000000E+00  0.00000000000000000E+00  0.00000000000000000E+00
  0.00000000000000000E+00  0.00000000000000000E+00  0.00000000000000000E+00
  0.00000000000000000E+00  0.00000000000000000E+00  0.00000000000000000E+00
  0.00000000000000000E+00  0.00000000000000000E+00  0.00000000000000000E+00
  0.00000000000000000E+00  0.00000000000000000E+00  0.00000000000000000E+00
  0.00000000000000000E+00  0.00000000000000000E+00  0.00000000000000000E+00
  0.00000000000000000E+00  0.00000000000000000E+00  0.00000000000000000E+00
  0.00000000000000000E+00  0.00000000000000000E+00  0.00000000000000000E+00
  0.00000000000000000E+00  0.00000000000000000E+00  0.00000000000000000E+00
  0.00000000000000000E+00  0.00000000000000000E+00  0.00000000000000000E+00
  0.00000000000000000E+00  0.00000000000000000E+00  0.00000000000000000E+00
  0.00000000000000000E+00  0.00000000000000000E+00  0.00000000000000000E+00
  0.00000000000000000E+00  0.00000000000000000E+00  0.00000000000000000E+00
  0.00000000000000000E+00  0.00000000000000000E+00  0.00000000000000000E+00
  0.00000000000000000E+00  0.00000000000000000E+00  0.00000000000000000E+00
  0.00000000000000000E+00  0.00000000000000000E+00  0.00000000000000000E+00
  0.00000000000000000E+00  0.00000000000000000E+00  0.00000000000000000E+00
  0.00000000000000000E+00  0.00000000000000000E+00  0.00000000000000000E+00
  0.00000000000000000E+00  0.00000000000000000E+00  0.00000000000000000E+00
  0.00000000000000000E+00  0.00000000000000000E+00  0.00000000000000000E+00
  0.00000000000000000E+00  0.00000000000000000E+00  0.00000000000000000E+00
  0.00000000000000000E+00  0.00000000000000000E+00  0.00000000000000000E+00
  0.00000000000000000E+00  0.00000000000000000E+00  0.00000000000000000E+00
  0.00000000000000000E+00  0.00000000000000000E+00  0.00000000000000000E+00
  0.00000000000000000E+00  0.00000000000000000E+00  0.00000000000000000E+00
  0.00000000000000000E+00  0.00000000000000000E+00  0.00000000000000000E+00
  0.00000000000000000E+00  0.00000000000000000E+00  0.00000000000000000E+00
  0.00000000000000000E+00  0.00000000000000000E+00  0.00000000000000000E+00
  0.00000000000000000E+00  0.00000000000000000E+00  0.00000000000000000E+00
  0.00000000000000000E+00  0.00000000000000000E+00  0.00000000000000000E+00
  0.00000000000000000E+00  0.00000000000000000E+00  0.00000000000000000E+00
  0.00000000000000000E+00  0.00000000000000000E+00  0.00000000000000000E+00
  0.00000000000000000E+00  0.00000000000000000E+00  0.00000000000000000E+00
  0.00000000000000000E+00  0.00000000000000000E+00  0.00000000000000000E+00
  0.00000000000000000E+00  0.00000000000000000E+00  0.00000000000000000E+00
  0.00000000000000000E+00  0.00000000000000000E+00  0.00000000000000000E+00
  0.00000000000000000E+00  0.00000000000000000E+00  0.00000000000000000E+00
  0.00000000000000000E+00  0.00000000000000000E+00  0.00000000000000000E+00
  0.00000000000000000E+00  0.00000000000000000E+00  0.00000000000000000E+00
  0.00000000000000000E+00  0.00000000000000000E+00  0.00000000000000000E+00
  0.00000000000000000E+00  0.00000000000000000E+00  0.00000000000000000E+00
  0.00000000000000000E+00  0.00000000000000000E+00  0.00000000000000000E+00
  0.00000000000000000E+00  0.00000000000000000E+00  0.00000000000000000E+00
  0.00000000000000000E+00  0.00000000000000000E+00  0.00000000000000000E+00
  0.00000000000000000E+00  0.00000000000000000E+00  0.00000000000000000E+00
  0.00000000000000000E+00  0.00000000000000000E+00  0.00000000000000000E+00
  0.00000000000000000E+00  0.00000000000000000E+00  0.00000000000000000E+00
  0.00000000000000000E+00  0.00000000000000000E+00  0.00000000000000000E+00
  0.00000000000000000E+00  0.00000000000000000E+00  0.00000000000000000E+00
  0.00000000000000000E+00  0.00000000000000000E+00  0.00000000000000000E+00
  0.00000000000000000E+00  0.00000000000000000E+00  0.00000000000000000E+00
  0.00000000000000000E+00  0.00000000000000000E+00  0.00000000000000000E+00
  0.00000000000000000E+00  0.00000000000000000E+00  0.00000000000000000E+00
  0.00000000000000000E+00  0.00000000000000000E+00  0.00000000000000000E+00
  0.00000000000000000E+00  0.00000000000000000E+00  0.00000000000000000E+00
                             </PP_AE_NLCC> 
 <PP_AE_VLOC type="real" size="   777" columns="3">
 -2.19326631685691700E+03 -2.16602112509887047E+03 -2.13911437854842461E+03
 -2.11254187297169028E+03 -2.08629945636060620E+03 -2.06038302828418773E+03
 -2.03478853924782061E+03 -2.00951199006052002E+03 -1.98454943121005226E+03
 -1.95989696224580689E+03 -1.93555073116935318E+03 -1.91150693383255339E+03
 -1.88776181334315606E+03 -1.86431165947777686E+03 -1.84115280810216041E+03
 -1.81828164059866458E+03 -1.79569458330083512E+03 -1.77338810693501523E+03
 -1.75135872606889166E+03 -1.72960299856688221E+03 -1.70811752505230311E+03
 -1.68689894837620545E+03 -1.66594395309281458E+03 -1.64524926494148485E+03
 -1.62481165033508637E+03 -1.60462791585475816E+03 -1.58469490775092277E+03
 -1.56500951145051022E+03 -1.54556865107029989E+03 -1.52636928893630170E+03
 -1.50740842510912262E+03 -1.48868309691521267E+03 -1.47019037848394532E+03
 -1.45192738029044267E+03 -1.43389124870407863E+03 -1.41607916554259873E+03
 -1.39848834763177047E+03 -1.38111604637050618E+03 -1.36395954730139124E+03
 -1.34701616968653775E+03 -1.33028326608872385E+03 -1.31375822195771821E+03
 -1.29743845522175570E+03 -1.28132141588408172E+03 -1.26540458562450704E+03
 -1.24968547740592180E+03 -1.23416163508568616E+03 -1.21883063303185418E+03
 -1.20369007574416446E+03 -1.18873759747973531E+03 -1.17397086188341768E+03
 -1.15938756162273194E+03 -1.14498541802734167E+03 -1.13076218073301038E+03
 -1.11671562732997086E+03 -1.10284356301567755E+03 -1.08914382025185796E+03
 -1.07561425842583299E+03 -1.06225276351604225E+03 -1.04905724776171996E+03
 -1.03602564933668395E+03 -1.02315593202716752E+03 -1.01044608491365716E+03
 -9.97894122056683955E+02 -9.85498082186512647E+02 -9.73256028396694433E+02
 -9.61166047841418049E+02 -9.49226251436624125E+02 -9.37434773564833904E+02
 -9.25789771783638344E+02 -9.14289426537817917E+02 -9.02931940875030250E+02
 -8.91715540165033531E+02 -8.80638471822397833E+02 -8.69699005032656487E+02
 -8.58895430481867834E+02 -8.48226060089528232E+02 -8.37689226744807115E+02
 -8.27283284046057474E+02 -8.17006606043560282E+02 -8.06857586985470220E+02
 -7.96834641066911217E+02 -7.86936202182191550E+02 -7.77160723680097590E+02
 -7.67506678122223775E+02 -7.57972557044311088E+02 -7.48556870720543657E+02
 -7.39258147930777113E+02 -7.30074935730657785E+02 -7.21005799224594739E+02
 -7.12049321341558198E+02 -7.03204102613656914E+02 -6.94468760957468930E+02
 -6.85841931458088766E+02 -6.77322266155854550E+02 -6.68908433835730079E+02
 -6.60599119819297130E+02 -6.52393025759335501E+02 -6.44288869436953178E+02
 -6.36285384561235560E+02 -6.28381320571388414E+02 -6.20575442441332257E+02
 -6.12866530486728038E+02 -6.05253380174399695E+02 -5.97734801934120583E+02
 -5.90309620972744597E+02 -5.82976677090639782E+02 -5.75734824500405693E+02
 -5.68582931647841860E+02 -5.61519881035138496E+02 -5.54544569046267952E+02
 -5.47655905774540543E+02 -5.40852814852305073E+02 -5.34134233282764285E+02
 -5.27499111273878043E+02 -5.20946412074333580E+02 -5.14475111811549482E+02
 -5.08084199331693696E+02 -5.01772676041689181E+02 -4.95539555753180252E+02
 -4.89383864528440824E+02 -4.83304640528193090E+02 -4.77300933861318924E+02
 -4.71371806436437225E+02 -4.65516331815324179E+02 -4.59733595068157626E+02
 -4.54022692630555753E+02 -4.48382732162393836E+02 -4.42812832408374391E+02
 -4.37312123060328020E+02 -4.31879744621228269E+02 -4.26514848270891719E+02
 -4.21216595733348697E+02 -4.15984159145860929E+02 -4.10816720929566372E+02
 -4.05713473661729722E+02 -4.00673619949583326E+02 -3.95696372305730790E+02
 -3.90780953025101553E+02 -3.85926594063432844E+02 -3.81132536917259984E+02
 -3.76398032505400636E+02 -3.71722341051908018E+02 -3.67104731970479691E+02
 -3.62544483750302390E+02 -3.58040883843313338E+02 -3.53593228552864616E+02
 -3.49200822923768271E+02 -3.44862980633708389E+02 -3.40579023886002005E+02
 -3.36348283303690891E+02 -3.32170097824951881E+02 -3.28043814599803397E+02
 -3.23968788888096356E+02 -3.19944383958773074E+02 -3.15969970990374918E+02
 -3.12044928972789933E+02 -3.08168644610217314E+02 -3.04340512225338955E+02
 -3.00559933664681694E+02 -2.96826318205153200E+02 -2.93139082461742134E+02
 -2.89497650296361712E+02 -2.85901452727827746E+02 -2.82349927842953775E+02
 -2.78842520708750328E+02 -2.75378683285717159E+02 -2.71957874342209720E+02
 -2.68579559369870822E+02 -2.65243210500113094E+02 -2.61948306421637199E+02
 -2.58694332298977713E+02 -2.55480779692057638E+02 -2.52307146476744094E+02
 -2.49172936766390677E+02 -2.46077660834353082E+02 -2.43020835037469709E+02
 -2.40001981740490692E+02 -2.37020629241446471E+02 -2.34076311697943595E+02
 -2.31168569054375325E+02 -2.28296946970037851E+02 -2.25460996748138285E+02
 -2.22660275265684476E+02 -2.19894344904247049E+02 -2.17162773481579165E+02
 -2.14465134184088924E+02 -2.11801005500147653E+02 -2.09169971154228278E+02
 -2.06571620041861536E+02 -2.04005546165399380E+02 -2.01471348570578044E+02
 -1.98968631283867524E+02 -1.96497003250599960E+02 -1.94056078273866717E+02
 -1.91645474954173750E+02 -1.89264816629848127E+02 -1.86913731318183153E+02
 -1.84591851657315630E+02 -1.82298814848824748E+02 -1.80034262601043622E+02
 -1.77797841073076484E+02 -1.75589200819509529E+02 -1.73407996735809661E+02
 -1.71253888004401176E+02 -1.69126538041411976E+02 -1.67025614444082379E+02
 -1.64950788938825923E+02 -1.62901737329936140E+02 -1.60878139448930483E+02
 -1.58879679104522666E+02 -1.56906044033218166E+02 -1.54956925850521685E+02
 -1.53032020002751636E+02 -1.51131025719453248E+02 -1.49253645966401820E+02
 -1.47399587399191574E+02 -1.45568560317399232E+02 -1.43760278619318001E+02
 -1.41974459757253754E+02 -1.40210824693375713E+02 -1.38469097856117145E+02
 -1.36749007097116191E+02 -1.35050283648692158E+02 -1.33372662081850308E+02
 -1.31715880264807396E+02 -1.30079679322033911E+02 -1.28463803593803647E+02
 -1.26868000596246574E+02 -1.25292020981897721E+02 -1.23735618500735782E+02
 -1.22198549961706647E+02 -1.20680575194723886E+02 -1.19181457013141880E+02
 -1.17700961176694818E+02 -1.16238856354895972E+02 -1.14794914090892377E+02
 -1.13368908765767557E+02 -1.11960617563288210E+02 -1.10569820435088872E+02
 -1.09196300066288487E+02 -1.07839841841535033E+02 -1.06500233811471190E+02
 -1.05177266659616848E+02 -1.03870733669662826E+02 -1.02580430693171408E+02
 -1.01306156117677247E+02 -1.00047710835185441E+02 -9.88048982110603333E+01
 -9.75775240533007917E+01 -9.63653965821976328E+01 -9.51683264003673202E+01
 -9.39861264631585414E+01 -9.28186120494259086E+01 -9.16656007326669027E+01
 -9.05269123525175274E+01 -8.94023689866016298E+01 -8.82917949227304177E+01
 -8.71950166314469755E+01 -8.61118627389118103E+01 -8.50421640001255668E+01
 -8.39857532724839331E+01 -8.29424654896614726E+01 -8.19121376358195619E+01
 -8.08946087201347552E+01 -7.98897197516438666E+01 -7.88973137144010224E+01
 -7.79172355429438994E+01 -7.69493320980642324E+01 -7.59934521428794909E+01
 -7.50494463192020049E+01 -7.41171671242011314E+01 -7.31964688873559481E+01
 -7.22872077476938273E+01 -7.13892416313117195E+01 -7.05024302291770937E+01
 -6.96266349752040270E+01 -6.87617190246023426E+01 -6.79075472324950766E+01
 -6.70639861328018441E+01 -6.62309039173846230E+01 -6.54081704154522896E+01
 -6.45956570732213322E+01 -6.37932369338289789E+01 -6.30007846174958459E+01
 -6.22181763019353298E+01 -6.14452897030058125E+01 -6.06820040556038123E+01
 -5.99282000947940290E+01 -5.91837600371738901E+01 -5.84485675624698828E+01
 -5.77225077953620200E+01 -5.70054672875345361E+01 -5.62973339999492808E+01
 -5.55979972853393107E+01 -5.49073478709201979E+01 -5.42252778413157586E+01
 -5.35516806216962209E+01 -5.28864509611255826E+01 -5.22294849161159149E+01
 -5.15806798343861246E+01 -5.09399343388221482E+01 -5.03071483116367091E+01
 -4.96822228787256748E+01 -4.90650603942186834E+01 -4.84555644252219579E+01
 -4.78536397367502602E+01 -4.72591922768464201E+01 -4.66721291618854224E+01
 -4.60923586620611374E+01 -4.55197901870534523E+01 -4.49543342718732148E+01
 -4.43959025628832507E+01 -4.38444078039929295E+01 -4.32997638230240938E+01
 -4.27618855182466930E+01 -4.22306888450812181E+01 -4.17060908029667914E+01
 -4.11880094223920494E+01 -4.06763637520872052E+01 -4.01710738463753358E+01
 -3.96720607526806361E+01 -3.91792464991919687E+01 -3.86925540826796208E+01
 -3.82119074564632797E+01 -3.77372315185297467E+01 -3.72684520997979973E+01
 -3.68054959525300802E+01 -3.63482907388861207E+01 -3.58967650196212702E+01
 -3.54508482429232714E+01 -3.50104707333885514E+01 -3.45755636811352645E+01
 -3.41460591310517074E+01 -3.37218899721780545E+01 -3.33029899272202741E+01
 -3.28892935421940962E+01 -3.24807361761976523E+01 -3.20772539913113306E+01
 -3.16787839426228253E+01 -3.12852637683763319E+01 -3.08966319802440239E+01
 -3.05128278537183029E+01 -3.01337914186235736E+01 -2.97594634497456596E+01
 -2.93897854575778723E+01 -2.90246996791818219E+01 -2.86641490691618479E+01
 -2.83080772907516014E+01 -2.79564287070112556E+01 -2.76091483721341753E+01
 -2.72661820228615071E+01 -2.69274760700033724E+01 -2.65929775900655621E+01
 -2.62626343169800229E+01 -2.59363946339382601E+01 -2.56142075653260584E+01
 -2.52960227687584407E+01 -2.49817905272136151E+01 -2.46714617412645012E+01
 -2.43649879214069358E+01 -2.40623211804830568E+01 -2.37634142261987868E+01
 -2.34682203537344165E+01 -2.31766934384467724E+01 -2.28887879286622322E+01
 -2.26044588385591574E+01 -2.23236617411387250E+01 -2.20463527612832024E+01
 -2.17724885689002683E+01 -2.15020263721526987E+01 -2.12349239107720038E+01
 -2.09711394494551406E+01 -2.07106317713433796E+01 -2.04533601715819913E+01
 -2.01992844509600999E+01 -1.99483649096294400E+01 -1.97005623409011648E+01
 -1.94558380251197676E+01 -1.92141537236129984E+01 -1.89754716727170418E+01
 -1.87397545778758534E+01 -1.85069656078137790E+01 -1.82770683887806449E+01
 -1.80500269988682369E+01 -1.78258059623974638E+01 -1.76043702443752110E+01
 -1.73856852450200030E+01 -1.71697167943557858E+01 -1.69564311468727418E+01
 -1.67457949762545226E+01 -1.65377753701709338E+01 -1.63323398251352963E+01
 -1.61294562414257427E+01 -1.59290929180695393E+01 -1.57312185478897746E+01
 -1.55358022126135413E+01 -1.53428133780408551E+01 -1.51522218892736902E+01
 -1.49639979660041540E+01 -1.47781121978612955E+01 -1.45945355398156611E+01
 -1.44132393076409304E+01 -1.42341951734319849E+01 -1.40573751611785820E+01
 -1.38827516423940693E+01 -1.37102973317983530E+01 -1.35399852830545466E+01
 -1.33717888845585353E+01 -1.32056818552808508E+01 -1.30416382406602214E+01
 -1.28796324085481153E+01 -1.27196390452036603E+01 -1.25616331513383237E+01
 -1.24055900382097271E+01 -1.22514853237639691E+01 -1.20992949288258913E+01
 -1.19489950733366435E+01 -1.18005622726380288E+01 -1.16539733338029450E+01
 -1.15092053520114579E+01 -1.13662357069718816E+01 -1.12250420593863094E+01
 -1.10856023474600409E+01 -1.09478947834543963E+01 -1.08118978502823317E+01
 -1.06775902981463471E+01 -1.05449511412181796E+01 -1.04139596543596955E+01
 -1.02845953698845687E+01 -1.01568380743601612E+01 -1.00306678054491147E+01
 -9.90606484879022631E+00 -9.78300973491800541E+00 -9.66148323622055472E+00
 -9.54146636393520353E+00 -9.42294036518147848E+00 -9.30588672003093720E+00
 -9.19028713861337287E+00 -9.07612355825900252E+00 -8.96337814067612726E+00
 -8.85203326916386501E+00 -8.74207154585951329E+00 -8.63347578902008372E+00
 -8.52622903033763357E+00 -8.42031451228791816E+00 -8.31571568551201068E+00
 -8.21241620623042223E+00 -8.11039993368934731E+00 -8.00965092763864739E+00
 -7.91015344584115265E+00 -7.81189194161290157E+00 -7.71485106139394539E+00
 -7.61901564234932049E+00 -7.52437070999981916E+00 -7.43090147588220695E+00
 -7.33859333523848534E+00 -7.24743186473388157E+00 -7.15740282020315721E+00
 -7.06849213442493696E+00 -6.98068591492368196E+00 -6.89397044179894536E+00
 -6.80833216558163556E+00 -6.72375770511685644E+00 -6.64023384547309270E+00
 -6.55774753587734605E+00 -6.47628588767591928E+00 -6.39583617232054813E+00
 -6.31638581937953347E+00 -6.23792241457358365E+00 -6.16043369783606121E+00
 -6.08390756139732503E+00 -6.00833204789286413E+00 -5.93369534849493352E+00
 -5.85998580106740175E+00 -5.78719188834352050E+00 -5.71530223612632504E+00
 -5.64430561151139809E+00 -5.57419092113169956E+00 -5.50494720942420646E+00
 -5.43656365691808841E+00 -5.36902957854413820E+00 -5.30233442196521132E+00
 -5.23646776592739993E+00 -5.17141931863169102E+00 -5.10717891612585273E+00
 -5.04373652071629408E+00 -4.98108221939966000E+00 -4.91920622231389792E+00
 -4.85809886120857470E+00 -4.79775058793419440E+00 -4.73815197295027879E+00
 -4.67929370385198062E+00 -4.62116658391500668E+00 -4.56376153065860546E+00
 -4.50706957442641531E+00 -4.45108185698493308E+00 -4.39578963013940172E+00
 -4.34118425436688327E+00 -4.28725719746631739E+00 -4.23400003322534779E+00
 -4.18140444010370960E+00 -4.12946219993297170E+00 -4.07816519663242882E+00
 -4.02750541494095149E+00 -3.97747493916458206E+00 -3.92806595193969255E+00
 -3.87927073301150616E+00 -3.83108165802779155E+00 -3.78349119734753803E+00
 -3.73649191486444376E+00 -3.69007646684499813E+00 -3.64423760078101688E+00
 -3.59896815425641625E+00 -3.55426105382807522E+00 -3.51010931392059566E+00
 -3.46650603573478922E+00 -3.42344440616972756E+00 -3.38091769675818199E+00
 -3.33891926261528393E+00 -3.29744254140025506E+00 -3.25648105229101859E+00
 -3.21602839497156445E+00 -3.17607824863188526E+00 -3.13662437098033653E+00
 -3.09766059726826493E+00 -3.05918083932675611E+00 -3.02117908461534412E+00
 -2.98364939528253936E+00 -2.94658590723802982E+00 -2.90998282923640161E+00
 -2.87383444197224769E+00 -2.83813509718651380E+00 -2.80287921678394536E+00
 -2.76806129196150197E+00 -2.73367588234759129E+00 -2.69971761515200503E+00
 -2.66618118432640472E+00 -2.63306134973524220E+00 -2.60035293633698084E+00
 -2.56805083337548190E+00 -2.53614999358143800E+00 -2.50464543238372750E+00
 -2.47353222713056864E+00 -2.44280551632033882E+00 -2.41246049884196045E+00
 -2.38249243322471527E+00 -2.35289663689738004E+00 -2.32366848545656524E+00
 -2.29480341194414361E+00 -2.26629690613365176E+00 -2.23814451382556046E+00
 -2.21034183615129409E+00 -2.18288452888590268E+00 -2.15576830176926260E+00
 -2.12898891783571820E+00 -2.10254219275204735E+00 -2.07642399416364931E+00
 -2.05063024104885683E+00 -2.02515690308126795E+00 -1.99999999999999911E+00
 -1.97515560098776199E+00 -1.95061982405666456E+00 -1.92638883544164274E+00
 -1.90245884900142714E+00 -1.87882612562695095E+00 -1.85548697265710505E+00
 -1.83243774330175446E+00 -1.80967483607191837E+00 -1.78719469421703092E+00
 -1.76499380516919002E+00 -1.74306869999431502E+00 -1.72141595285011495E+00
 -1.70003218045079563E+00 -1.67891404153841406E+00 -1.65805823636080008E+00
 -1.63746150615596320E+00 -1.61712063264290418E+00 -1.59703243751875346E+00
 -1.57719378196215265E+00 -1.55760156614280909E+00 -1.53825272873714058E+00
 -1.51914424644993629E+00 -1.50027313354196301E+00 -1.48163644136343509E+00
 -1.46323125789328290E+00 -1.44505470728414398E+00 -1.42710394941300445E+00
 -1.40937617943742644E+00 -1.39186862735728334E+00 -1.37457855758194381E+00
 -1.35750326850282832E+00 -1.34064009207127799E+00 -1.32398639338166757E+00
 -1.30753957025969392E+00 -1.29129705285578344E+00 -1.27525630324354622E+00
 -1.25941481502321939E+00 -1.24377011293003958E+00 -1.22831975244747493E+00
 -1.21306131942526640E+00 -1.19799242970221020E+00 -1.18311072873362955E+00
 -1.16841389122347117E+00 -1.15389962076097286E+00 -1.13956564946184558E+00
 -1.12540973761391094E+00 -1.11142967332714226E+00 -1.09762327218805233E+00
 -1.08398837691837380E+00 -1.07052285703798011E+00 -1.05722460853199429E+00
 -1.04409155352203165E+00 -1.03112163994152772E+00 -1.01831284121509791E+00
 -1.00566315594188138E+00 -9.93170607582818499E-01 -9.80833244151811723E-01
 -9.68649137910724600E-01 -9.56616385068167707E-01 -9.44733105482028934E-01
 -9.32997442365696372E-01 -9.21407561997931168E-01 -9.09961653436346718E-01
 -8.98657928234442682E-01 -8.87494620162159409E-01 -8.76469984929898138E-01
 -8.65582299915974129E-01 -8.54829863897452968E-01 -8.44210996784330647E-01
 -8.33724039357016444E-01 -8.23367353007076530E-01 -8.13139319481197886E-01
 -8.03038340628333014E-01 -7.93062838149985350E-01 -7.83211253353597647E-01
 -7.73482046909002130E-01 -7.63873698607897444E-01 -7.54384707126313447E-01
 -7.45013589790025632E-01 -7.35758882342884335E-01 -7.26619138718022195E-01
 -7.17592930811903007E-01 -7.08678848261176997E-01 -6.99875498222310322E-01
 -6.91181505153948827E-01 -6.82595510601987088E-01 -6.74116172987308415E-01
 -6.65742167396158768E-01 -6.57472185373127904E-01 -6.49304934716699145E-01
 -6.41239139277340997E-01 -6.33273538758106214E-01 -6.25406888517707205E-01
 -6.17637959376039380E-01 -6.09965537422118231E-01 -6.02388423824403940E-01
 -5.94905434643480890E-01 -5.87515400647065311E-01 -5.80217167127310307E-01
 -5.73009593720379962E-01 -5.65891554228265425E-01 -5.58861936442814455E-01
 -5.51919641971945985E-01 -5.45063586068024963E-01 -5.38292697458367497E-01
 -5.31605918177852965E-01 -5.25002203403614365E-01 -5.18480521291782792E-01
 -5.12039852816259855E-01 -5.05679191609492706E-01 -4.99397543805226884E-01
 -4.93193927883212757E-01 -4.87067374515841145E-01 -4.81016926416683976E-01
 -4.75041638190915994E-01 -4.69140576187595082E-01 -4.63312818353777245E-01
 -4.57557454090444626E-01 -4.51873584110221493E-01 -4.46260320296859414E-01
 -4.40716785566467484E-01 -4.35242113730465507E-01 -4.29835449360240873E-01
 -4.24495947653485917E-01 -4.19222774302195400E-01 -4.14015105362305069E-01
 -4.08872127124947804E-01 -4.03793035989310600E-01 -3.98777038337070122E-01
 -3.93823350408387951E-01 -3.88931198179446880E-01 -3.84099817241508046E-01
 -3.79328452681470307E-01 -3.74616358963913876E-01 -3.69962799814608390E-01
 -3.65367048105469161E-01 -3.60828385740941338E-01 -3.56346103545796655E-01
 -3.51919501154322800E-01 -3.47547886900890057E-01 -3.43230577711877316E-01
 -3.38966898998940003E-01 -3.34756184553604841E-01 -3.30597776443172897E-01
 -3.26491024907916649E-01 -3.22435288259553365E-01 -3.18429932780980363E-01
 -3.14474332627255049E-01 -3.10567869727805868E-01 -3.06709933689856828E-01
 -3.02899921703053021E-01 -2.99137238445269960E-01 -2.95421295989593435E-01
 -2.91751513712454613E-01 -2.88127318202906435E-01 -2.84548143173027013E-01
 -2.81013429369436019E-01 -2.77522624485910363E-01 -2.74075183077084783E-01
 -2.70670566473225294E-01 -2.67308242696060683E-01 -2.63987686375660335E-01
 -2.60708378668343177E-01 -2.57469807175608245E-01 -2.54271465864071011E-01
 -2.51112854986394296E-01 -2.47993481003202343E-01 -2.44912856505963672E-01
 -2.41870500140833194E-01 -2.38865936533439127E-01 -2.35898696214604853E-01
 -2.32968315546993848E-01 -2.30074336652664663E-01 -2.27216307341527340E-01
 -2.24393781040687385E-01 -2.21606316724667601E-01 -2.18853478846497751E-01
 -2.16134837269658431E-01 -2.13449967200872226E-01 -2.10798449123728582E-01
 -2.08179868733133183E-01 -2.05593816870572710E-01 -2.03039889460182005E-01
 -2.00517687445607329E-01 -1.98026816727652544E-01 -1.95566888102700009E-01
 -1.93137517201897563E-01 -1.90738324431099143E-01 -1.88368934911553210E-01
 -1.86028978421326874E-01 -1.83718089337457702E-01 -1.81435906578824968E-01
 -1.79182073549729259E-01 -1.76956238084174461E-01 -1.74758052390840690E-01
 -1.72587172998740906E-01 -1.70443260703553617E-01 -1.68325980514620638E-01
 -1.66235001602604959E-01 -1.64169997247797517E-01 -1.62130644789066414E-01
 -1.60116625573441029E-01 -1.58127624906321235E-01 -1.56163332002306199E-01
 -1.54223439936633344E-01 -1.52307645597220570E-01 -1.50415649637304721E-01
 -1.48547156428667698E-01 -1.46701874015444156E-01 -1.44879514068502857E-01
 -1.43079791840394377E-01 -1.41302426120859109E-01 -1.39547139192887193E-01
 -1.37813656789325029E-01 -1.36101708050020337E-01 -1.34411025479499430E-01
                             </PP_AE_VLOC> 
                                      </PP_PAW> 
 <PP_GIPAW gipaw_data_format="2">
  <PP_GIPAW_CORE_ORBITALS number_of_core_orbitals=" 0">
  </PP_GIPAW_CORE_ORBITALS>
 </PP_GIPAW>
</UPF> 
