<UPF version="2.0.1">
   <PP_INFO>
         UPF file from ATOMPAW code with following input
           Be 4
           XC_GGA_X_PBE+XC_GGA_C_PBE scalarrelativistic loggrid 2001
           2 2 0 0 0 0
           2 0 2
           2 1 0
           0 0 0
           v
           v
           v
           1
           1.6 1.4 1.6 1.6
           n
           y
           3.0
           n
           VANDERBILT
           2 -1.0
           1.3
           1.3
           1.6
           1.6
           PWSCFOUT
           UPFDX 1.25d-2 UPFXMIN -7. UPFZMESH 4.0
           END
  </PP_INFO>
  <!--                               -->
  <!-- END OF HUMAN READABLE SECTION -->
  <PP_HEADER generated="Generated using ATOMPAW code"
             author="   "
             date=" 11/30/2025, 11:40:50.849"
             element="Be"
             pseudo_type="PAW"
             relativistic="scalar"
             is_ultrasoft="T"
             is_paw="T"
             is_coulomb="F"
             has_so="F"
             has_wfc="T"
             has_gipaw="T"
             paw_as_gipaw="T"
             core_correction="T"
             functional="SLA PW PBX PBC"
             z_valence=" 4.000"
             l_max="1"
             l_max_rho="2"
             mesh_size="   888"
             number_of_wfc="     4"
             number_of_proj=" 4"
                                    /> 
<PP_MESH dx=" 1.2500000000000E-02" mesh="   888" xmin="-7.0000000000000E+00" zmesh=" 4.0000000000000E+00">
 <PP_R type="real" size="   888" columns="3">
  2.27970491388629061E-04  2.30838007167255560E-04  2.33741591854145538E-04
  2.36681699140313493E-04  2.39658788423504965E-04  2.42673324879977222E-04
  2.45725779537184664E-04  2.48816629347377825E-04  2.51946357262127613E-04
  2.55115452307788648E-04  2.58324409661909256E-04  2.61573730730604631E-04
  2.64863923226902535E-04  2.68195501250074206E-04  2.71568985365964468E-04
  2.74984902688329557E-04  2.78443786961200812E-04  2.81946178642283082E-04
  2.85492624987401876E-04  2.89083680136014440E-04  2.92719905197793607E-04
  2.96401868340303209E-04  3.00130144877775210E-04  3.03905317361003672E-04
  3.07727975668370250E-04  3.11598717098012380E-04  3.15518146461153627E-04
  3.19486876176606105E-04  3.23505526366462000E-04  3.27574724952990018E-04
  3.31695107756747876E-04  3.35867318595931702E-04  3.40092009386973467E-04
  3.44369840246404270E-04  3.48701479593999694E-04  3.53087604257220408E-04
  3.57528899576968603E-04  3.62026059514673889E-04  3.66579786760725757E-04
  3.71190792844271710E-04  3.75859798244393092E-04  3.80587532502682892E-04
  3.85374734337237570E-04  3.90222151758083061E-04  3.95130542184054265E-04
  4.00100672561141079E-04  4.05133319482326674E-04  4.10229269308931511E-04
  4.15389318293483479E-04  4.20614272704135296E-04  4.25904948950643495E-04
  4.31262173711935589E-04  4.36686784065279919E-04  4.42179627617080170E-04
  4.47741562635317440E-04  4.53373458183653803E-04  4.59076194257226780E-04
  4.64850661920150252E-04  4.70697763444744336E-04  4.76618412452519129E-04
  4.82613534056927326E-04  4.88684065007916773E-04  4.94830953838299174E-04
  5.01055161011959766E-04  5.07357659073933505E-04  5.13739432802364730E-04
  5.20201479362382337E-04  5.26744808461908527E-04  5.33370442509427021E-04
  5.40079416773738626E-04  5.46872779545721274E-04  5.53751592302129223E-04
  5.60716929871450838E-04  5.67769880601851724E-04  5.74911546531234005E-04
  5.82143043559428443E-04  5.89465501622558224E-04  5.96880064869593358E-04
  6.04387891841125864E-04  6.11990155650395757E-04  6.19688044166589623E-04
  6.27482760200449635E-04  6.35375521692214582E-04  6.43367561901924995E-04
  6.51460129602124578E-04  6.59654489272980390E-04  6.67951921299862641E-04
  6.76353722173406668E-04  6.84861204692092094E-04  6.93475698167372152E-04
  7.02198548631378190E-04  7.11031119047241889E-04  7.19974789522060754E-04
  7.29030957522541919E-04  7.38201038093361651E-04  7.47486464078265080E-04
  7.56888686343953833E-04  7.66409174006785774E-04  7.76049414662327163E-04
  7.85810914617795088E-04  7.95695199127416722E-04  8.05703812630756584E-04
  8.15838318994037068E-04  8.26100301754495491E-04  8.36491364367818006E-04
  8.47013130458677908E-04  8.57667244074433624E-04  8.68455369942013403E-04
  8.79379193728032109E-04  8.90440422302182419E-04  9.01640784003932623E-04
  9.12982028912585875E-04  9.24465929120733007E-04  9.36094279011145079E-04
  9.47868895537151961E-04  9.59791618506540892E-04  9.71864310869032574E-04
  9.84088859007370810E-04  9.96467173032072624E-04  1.00900118707988960E-03
  1.02169285961601665E-03  1.03454417374010919E-03  1.04755713749614485E-03
  1.06073378418618507E-03  1.07407617268808495E-03  1.08758638777719228E-03
  1.10126654045210152E-03  1.11511876826450042E-03  1.12914523565316649E-03
  1.14334813428216826E-03  1.15772968338331145E-03  1.17229213010290275E-03
  1.18703774985286941E-03  1.20196884666629749E-03  1.21708775355744078E-03
  1.23239683288626297E-03  1.24789847672755424E-03  1.26359510724470352E-03
  1.27948917706816392E-03  1.29558316967868115E-03  1.31187959979534616E-03
  1.32838101376851888E-03  1.34508998997770511E-03  1.36200913923443232E-03
  1.37914110519019289E-03  1.39648856474952491E-03  1.41405422848827700E-03
  1.43184084107714628E-03  1.44985118171053664E-03  1.46808806454081300E-03
  1.48655433911802355E-03  1.50525289083513971E-03  1.52418664137890948E-03
  1.54335854918637681E-03  1.56277160990714033E-03  1.58242885687143674E-03
  1.60233336156409578E-03  1.62248823410447176E-03  1.64289662373240473E-03
  1.66356171930029341E-03  1.68448674977136675E-03  1.70567498472420681E-03
  1.72712973486363304E-03  1.74885435253800420E-03  1.77085223226302962E-03
  1.79312681125217473E-03  1.81568156995372287E-03  1.83852003259460904E-03
  1.86164576773108605E-03  1.88506238880631729E-03  1.90877355471499041E-03
  1.93278297037501761E-03  1.95709438730644336E-03  1.98171160421762573E-03
  2.00663846759878851E-03  2.03187887232305275E-03  2.05743676225500754E-03
  2.08331613086695224E-03  2.10952102186288439E-03  2.13605552981033491E-03
  2.16292380078015852E-03  2.19013003299435701E-03  2.21767847748206457E-03
  2.24557343874378116E-03  2.27381927542395388E-03  2.30242040099203505E-03
  2.33138128443208161E-03  2.36070645094105290E-03  2.39040048263587830E-03
  2.42046801926942097E-03  2.45091375895545695E-03  2.48174245890275293E-03
  2.51295893615839649E-03  2.54456806836046929E-03  2.57657479450018514E-03
  2.60898411569362608E-03  2.64180109596316368E-03  2.67503086302873193E-03
  2.70867860910904050E-03  2.74274959173286936E-03  2.77724913456057652E-03
  2.81218262821591623E-03  2.84755553112834431E-03  2.88337337038590798E-03
  2.91964174259886061E-03  2.95636631477415443E-03  2.99355282520090546E-03
  3.03120708434702476E-03  3.06933497576711203E-03  3.10794245702177051E-03
  3.14703556060849958E-03  3.18662039490426709E-03  3.22670314511996816E-03
  3.26729007426687298E-03  3.30838752413523205E-03  3.35000191628520702E-03
  3.39213975305023346E-03  3.43480761855303584E-03  3.47801217973440786E-03
  3.52176018739493082E-03  3.56605847724981388E-03  3.61091397099696978E-03
  3.65633367739855554E-03  3.70232469337610339E-03  3.74889420511942580E-03
  3.79604948920948641E-03  3.84379791375535820E-03  3.89214693954552252E-03
  3.94110412121362504E-03  3.99067710841890209E-03  4.04087364704146853E-03
  4.09170158039260691E-03  4.14316885044031368E-03  4.19528349905024314E-03
  4.24805366924226654E-03  4.30148760646284576E-03  4.35559365987337865E-03
  4.41038028365479083E-03  4.46585603832851293E-03  4.52202959209407462E-03
  4.57890972218354467E-03  4.63650531623297120E-03  4.69482537367110243E-03
  4.75387900712556394E-03  4.81367544384673270E-03  4.87422402714949871E-03
  4.93553421787319528E-03  4.99761559585985751E-03  5.06047786145109781E-03
  5.12413083700381453E-03  5.18858446842493555E-03  5.25384882672550770E-03
  5.31993410959429383E-03  5.38685064299119273E-03  5.45460888276069322E-03
  5.52321941626561074E-03  5.59269296404140033E-03  5.66304038147124288E-03
  5.73427266048223260E-03  5.80640093126289381E-03  5.87943646400227674E-03
  5.95339067065096990E-03  6.02827510670421885E-03  6.10410147300750883E-03
  6.18088161758484963E-03  6.25862753749003697E-03  6.33735138068123628E-03
  6.41706544791910850E-03  6.49778219468883679E-03  6.57951423314632848E-03
  6.66227433408887130E-03  6.74607542895062137E-03  6.83093061182314231E-03
  6.91685314150139452E-03  7.00385644355545553E-03  7.09195411242827516E-03
  7.18115991355985830E-03  7.27148778553811902E-03  7.36295184227682246E-03
  7.45556637522092752E-03  7.54934585557962522E-03  7.64430493658752389E-03
  7.74045845579422308E-03  7.83782143738272208E-03  7.93640909451698816E-03
  8.03623683171901700E-03  8.13732024727585775E-03  8.23967513567684141E-03
  8.34331749008151990E-03  8.44826350481863927E-03  8.55452957791650800E-03
  8.66213231366525643E-03  8.77108852521125970E-03  8.88141523718424114E-03
  8.99312968835741695E-03  9.10624933434105860E-03  9.22079185031000371E-03
  9.33677513376540529E-03  9.45421730733127068E-03  9.57313672158616527E-03
  9.69355195793050219E-03  9.81548183148995418E-03  9.93894539405532941E-03
  1.00639619370594628E-02  1.01905509945915563E-02  1.03187323464493871E-02
  1.04485260212299792E-02  1.05799522994590792E-02  1.07130317167600467E-02
  1.08477850670625937E-02  1.09842334058518551E-02  1.11223980534583804E-02
  1.12623005983894554E-02  1.14039629007023514E-02  1.15474070954200304E-02
  1.16926555959897451E-02  1.18397310977852322E-02  1.19886565816528685E-02
  1.21394553175024934E-02  1.22921508679433959E-02  1.24467670919659861E-02
  1.26033281486698442E-02  1.27618585010386039E-02  1.29223829197623475E-02
  1.30849264871081023E-02  1.32495146008389571E-02  1.34161729781825338E-02
  1.35849276598493732E-02  1.37558050141018077E-02  1.39288317408741060E-02
  1.41040348759443428E-02  1.42814417951588231E-02  1.44610802187096210E-02
  1.46429782154658822E-02  1.48271642073596870E-02  1.50136669738269932E-02
  1.52025156563044932E-02  1.53937397627830590E-02  1.55873691724183576E-02
  1.57834341401996009E-02  1.59819653016768995E-02  1.61829936777481385E-02
  1.63865506795060900E-02  1.65926681131463999E-02  1.68013781849374461E-02
  1.70127135062525560E-02  1.72267070986656459E-02  1.74433923991109165E-02
  1.76628032651073991E-02  1.78849739800493145E-02  1.81099392585628745E-02
  1.83377342519305334E-02  1.85683945535834762E-02  1.88019562046631006E-02
  1.90384556996525886E-02  1.92779299920791854E-02  1.95204165002882922E-02
  1.97659531132901717E-02  2.00145781966801356E-02  2.02663305986333191E-02
  2.05212496559747069E-02  2.07793752003256407E-02  2.10407475643276005E-02
  2.13054075879442091E-02  2.15733966248426341E-02  2.18447565488551071E-02
  2.21195297605218284E-02  2.23977591937161782E-02  2.26794883223531279E-02
  2.29647611671822335E-02  2.32536223026658835E-02  2.35461168639441720E-02
  2.38422905538874137E-02  2.41421896502372058E-02  2.44458610128375220E-02
  2.47533520909565853E-02  2.50647109307009369E-02  2.53799861825227714E-02
  2.56992271088215991E-02  2.60224835916416722E-02  2.63498061404660970E-02
  2.66812459001090525E-02  2.70168546587073281E-02  2.73566848558122327E-02
  2.77007895905834779E-02  2.80492226300859473E-02  2.84020384176909418E-02
  2.87592920815831071E-02  2.91210394433742414E-02  2.94873370268256309E-02
  2.98582420666799186E-02  3.02338125176041736E-02  3.06141070632454868E-02
  3.09991851254003067E-02  3.13891068732993148E-02  3.17839332330089111E-02
  3.21837258969510584E-02  3.25885473335429249E-02  3.29984607969575558E-02
  3.34135303370076131E-02  3.38338208091531825E-02  3.42593978846356187E-02
  3.46903280607388231E-02  3.51266786711795370E-02  3.55685178966284044E-02
  3.60159147753633252E-02  3.64689392140568544E-02  3.69276619986992141E-02
  3.73921548056587727E-02  3.78624902128816485E-02  3.83387417112321244E-02
  3.88209837159757543E-02  3.93092915784069158E-02  3.98037415976225731E-02
  4.03044110324441984E-02  4.08113781134896089E-02  4.13247220553966399E-02
  4.18445230692006398E-02  4.23708623748675350E-02  4.29038222139846923E-02
  4.34434858626112919E-02  4.39899376442903917E-02  4.45432629432246235E-02
  4.51035482176177088E-02  4.56708810131836729E-02  4.62453499768260834E-02
  4.68270448704892761E-02  4.74160565851838300E-02  4.80124771551885404E-02
  4.86163997724308947E-02  4.92279188010485216E-02  4.98471297921338069E-02
  5.04741294986638667E-02  5.11090158906185171E-02  5.17518881702881683E-02
  5.24028467877744666E-02  5.30619934566857882E-02  5.37294311700301647E-02
  5.44052642163082370E-02  5.50895981958084771E-02  5.57825400371074684E-02
  5.64841980137777352E-02  5.71946817613056269E-02  5.79141022942222181E-02
  5.86425720234494269E-02  5.93802047738645478E-02  6.01271158020855595E-02
  6.08834218144801986E-02  6.16492409854016363E-02  6.24246929756534022E-02
  6.32098989511866299E-02  6.40049816020325374E-02  6.48100651614729045E-02
  6.56252754254518372E-02  6.64507397722316623E-02  6.72865871822959788E-02
  6.81329482585031759E-02  6.89899552464933036E-02  6.98577420553518486E-02
  7.07364442785332337E-02  7.16261992150475368E-02  7.25271458909138578E-02
  7.34394250808832333E-02  7.43631793304351668E-02  7.52985529780505480E-02
  7.62456921777648344E-02  7.72047449220049919E-02  7.81758610647134700E-02
  7.91591923447633322E-02  8.01548924096676801E-02  8.11631168395874486E-02
  8.21840231716410574E-02  8.32177709245199154E-02  8.42645216234135935E-02
  8.53244388252484415E-02  8.63976881442436451E-02  8.74844372777888735E-02
  8.85848560326472079E-02  8.96991163514879314E-02  9.08273923397528438E-02
  9.19698602928606113E-02  9.31266987237532734E-02  9.42980883907892642E-02
  9.54842123259872638E-02  9.66852558636253356E-02  9.79014066691997753E-02
  9.91328547687482520E-02  1.00379792578541696E-01  1.01642414935149805E-01
  1.02920919125884650E-01  1.04215504919627139E-01  1.05526374598041400E-01
  1.06853732987181704E-01  1.08197787489496849E-01  1.09558748116237351E-01
  1.10936827520270009E-01  1.12332241029305446E-01  1.13745206679543423E-01
  1.15175945249741493E-01  1.16624680295712130E-01  1.18091638185253714E-01
  1.19577048133521061E-01  1.21081142238840658E-01  1.22604155518976576E-01
  1.24146325947852423E-01  1.25707894492735284E-01  1.27289105151887350E-01
  1.28890204992691076E-01  1.30511444190254039E-01  1.32153076066499370E-01
  1.33815357129747597E-01  1.35498547114796836E-01  1.37202909023506653E-01
  1.38928709165892894E-01  1.40676217201738979E-01  1.42445706182730808E-01
  1.44237452595121718E-01  1.46051736402934007E-01  1.47888841091703804E-01
  1.49749053712776414E-01  1.51632664928158412E-01  1.53539969055934505E-01
  1.55471264116255087E-01  1.57426851877902563E-01  1.59407037905443388E-01
  1.61412131606973069E-01  1.63442446282461878E-01  1.65498299172708557E-01
  1.67580011508909887E-01  1.69687908562853651E-01  1.71822319697743114E-01
  1.73983578419660556E-01  1.76172022429678415E-01  1.78387993676625695E-01
  1.80631838410518109E-01  1.82903907236660529E-01  1.85204555170429552E-01
  1.87534141692745515E-01  1.89893030806242202E-01  1.92281591092142712E-01
  1.94700195767851303E-01  1.97149222745269220E-01  1.99629054689844349E-01
  2.02140079080363189E-01  2.04682688269495539E-01  2.07257279545100176E-01
  2.09864255192301924E-01  2.12504022556349620E-01  2.15176994106264535E-01
  2.17883587499289544E-01  2.20624225646148947E-01  2.23399336777129004E-01
  2.26209354508989990E-01  2.29054717912719502E-01  2.31935871582138298E-01
  2.34853265703369035E-01  2.37807356125178587E-01  2.40798604430205537E-01
  2.43827478007083265E-01  2.46894450123470444E-01  2.50000000000000111E-01
  2.53144612885158715E-01  2.56328780131107326E-01  2.59552999270456386E-01
  2.62817774094006140E-01  2.66123614729464941E-01  2.69471037721157991E-01
  2.72860566110738056E-01  2.76292729518912039E-01  2.79768064228195223E-01
  2.83287113266706692E-01  2.86850426493018174E-01  2.90458560682070877E-01
  2.94112079612172728E-01  2.97811554153089630E-01  3.01557562355245279E-01
  3.05350689540042575E-01  3.09191528391321302E-01  3.13080679047966215E-01
  3.17018749197679972E-01  3.21006354171935515E-01  3.25044117042122882E-01
  3.29132668716905552E-01  3.33272648040800812E-01  3.37464701894000907E-01
  3.41709485293449244E-01  3.46007661495187968E-01  3.50359902097993448E-01
  3.54766887148314447E-01  3.59229305246531239E-01  3.63747853654550479E-01
  3.68323238404754005E-01  3.72956174410317753E-01  3.77647385576918293E-01
  3.82397604915844846E-01  3.87207574658533449E-01  3.92078046372542344E-01
  3.97009781078985990E-01  4.02003549371445890E-01  4.07060131536377656E-01
  4.12180317675032215E-01  4.17364907826910880E-01  4.22614712094773026E-01
  4.27930550771216278E-01  4.33313254466848985E-01  4.38763664240074847E-01
  4.44282631728509791E-01  4.49871019282052365E-01  4.55529700097627444E-01
  4.61259558355625154E-01  4.67061489358055804E-01  4.72936399668442586E-01
  4.78885207253474221E-01  4.84908841626438714E-01  4.91008243992461957E-01
  4.97184367395573201E-01  5.03438176867619380E-01  5.09770649579054047E-01
  5.16182774991621796E-01  5.22675555012964144E-01  5.29250004153168918E-01
  5.35907149683290007E-01  5.42648031795860852E-01  5.49473703767425659E-01
  5.56385232123117190E-01  5.63383696803302358E-01  5.70470191332326126E-01
  5.77645822989376279E-01  5.84911712981498022E-01  5.92268996618785182E-01
  5.99718823491774744E-01  6.07262357651072282E-01  6.14900777789237685E-01
  6.22635277424957945E-01  6.30467065089537315E-01  6.38397364515732035E-01
  6.46427414828961822E-01  6.54558470740925546E-01  6.62791802745651970E-01
  6.71128697318017831E-01  6.79570457114761606E-01  6.88118401178026362E-01
  6.96773865141462889E-01  7.05538201438925427E-01  7.14412779515791296E-01
  7.23398986042940506E-01  7.32498225133425662E-01  7.41711918561867134E-01
  7.51041505986608682E-01  7.60488445174666294E-01  7.70054212229508206E-01
  7.79740301821698401E-01  7.89548227422442239E-01  7.99479521540069293E-01
  8.09535735959490577E-01  8.19718441984668811E-01  8.30029230684137254E-01
  8.40469713139607610E-01  8.51041520697705223E-01  8.61746305224869058E-01
  8.72585739365460689E-01  8.83561516803117786E-01  8.94675352525395096E-01
  9.05928983091735973E-01  9.17324166904811555E-01  9.28862684485276424E-01
  9.40546338749977950E-01  9.52376955293665617E-01  9.64356382674244061E-01
  9.76486492701613473E-01  9.88769180730144748E-01  1.00120636595483159E+00
  1.01379999171116908E+00  1.02655202577880367E+00  1.03946446068900245E+00
  1.05253931403599066E+00  1.06577862879220486E+00  1.07918447362751158E+00
  1.09275894323244005E+00  1.10650415864548402E+00  1.12042226758451680E+00
  1.13451544478237620E+00  1.14878589232667272E+00  1.16323584000386826E+00
  1.17786754564768592E+00  1.19268329549190133E+00  1.20768540452757023E+00
  1.22287621686475179E+00  1.23825810609877940E+00  1.25383347568114045E+00
  1.26960475929502081E+00  1.28557442123557197E+00  1.30174495679496283E+00
  1.31811889265227355E+00  1.33469878726829472E+00  1.35148723128529236E+00
  1.36848684793180042E+00  1.38570029343250645E+00  1.40313025742329001E+00
  1.42077946337148653E+00  1.43865066900143335E+00  1.45674666672536901E+00
  1.47507028407975493E+00  1.49362438416708176E+00  1.51241186610323730E+00
  1.53143566547049725E+00  1.55069875477621699E+00  1.57020414391729179E+00
  1.58995488065045887E+00  1.60995405106851552E+00  1.63020478008252878E+00
  1.65071023191010746E+00  1.67147361056981825E+00  1.69249816038181988E+00
  1.71378716647479545E+00  1.73534395529925956E+00  1.75717189514732408E+00
  1.77927439667899967E+00  1.80165491345511786E+00  1.82431694247695875E+00
  1.84726402473266327E+00  1.87049974575052080E+00  1.89402773615921216E+00
  1.91785167225510844E+00  1.94197527657669444E+00  1.96640231848622382E+00
  1.99113661475869419E+00  2.01618203017821873E+00  2.04154247814191381E+00
  2.06722192127136850E+00  2.09322437203181710E+00  2.11955389335909450E+00
  2.14621459929447411E+00  2.17321065562750215E+00  2.20054628054690316E+00
  2.22822574529968520E+00  2.25625337485853183E+00  2.28463354859758194E+00
  2.31337070097672459E+00  2.34246932223448390E+00  2.37193395908963245E+00
  2.40176921545162703E+00  2.43197975313997183E+00  2.46257029261264737E+00
  2.49354561370368177E+00  2.52491055637001427E+00  2.55667002144775113E+00
  2.58882897141792379E+00  2.62139243118189480E+00  2.65436548884650270E+00
  2.68775329651909001E+00  2.72156107111253620E+00  2.75579409516040119E+00
  2.79045771764234329E+00  2.82555735481989734E+00  2.86109849108278169E+00
  2.89708667980584922E+00  2.93352754421680340E+00  2.97042677827485146E+00
  3.00779014756038476E+00  3.04562349017586964E+00  3.08393271765806531E+00
  3.12272381590170323E+00  3.16200284609480819E+00  3.20177594566576040E+00
  3.24204932924228517E+00  3.28282928962250597E+00  3.32412219875819703E+00
  3.36593450875042421E+00  3.40827275285769105E+00  3.45114354651677546E+00
  3.49455358837641006E+00  3.53850966134395195E+00  3.58301863364523410E+00
  3.62808745989773129E+00  3.67372318219723715E+00  3.71993293121821100E+00
  3.76672392732794803E+00  3.81410348171479141E+00  3.86207899753050654E+00
  3.91065797104704460E+00  3.95984799282785627E+00  4.00965674891391899E+00
  4.06009202202471098E+00  4.11116169277426557E+00  4.16287374090253781E+00
  4.21523624652226037E+00  4.26825739138146520E+00  4.32194546014191250E+00
  4.37630884167357248E+00  4.43135603036541248E+00  4.48709562745266233E+00
  4.54353634236076687E+00  4.60068699406626358E+00  4.65855651247475411E+00
  4.71715393981622277E+00  4.77648843205791440E+00  4.83656926033495438E+00
  4.89740581239900052E+00  4.95900759408508307E+00  5.02138423079691876E+00
  5.08454546901090509E+00  5.14850117779900884E+00  5.21326135037085425E+00
  5.27883610563515671E+00  5.34523568978083841E+00  5.41247047787801705E+00
  5.48055097549911796E+00  5.54948782036041166E+00  5.61929178398415630E+00
  5.68997377338168420E+00  5.76154483275764751E+00  5.83401614523568046E+00
  5.90739903460580695E+00  5.98170496709378785E+00  6.05694555315274741E+00
  6.13313254927734075E+00  6.21027785984071201E+00  6.28839353895459396E+00
  6.36749179235277385E+00  6.44758497929826824E+00  6.52868561451449470E+00
  6.61080637014070049E+00  6.69396007771203383E+00  6.77815973016447693E+00
  6.86341848386502829E+00  6.94974966066742006E+00  7.03716674999366365E+00
  7.12568341094182323E+00  7.21531347442025872E+00  7.30607094530873802E+00
  7.39797000464674248E+00  7.49102501184925629E+00  7.58525050695048364E+00
  7.68066121287573367E+00  7.77727203774191889E+00  7.87509807718698784E+00
  7.97415461672862858E+00  8.07445713415267363E+00  8.17602130193154331E+00
  8.27886298967308143E+00  8.38299826660023761E+00  8.48844340406189168E+00
  8.59521487807529994E+00  8.70332937190051226E+00  8.81280377864714026E+00
  8.92365520391397382E+00  9.03590096846173729E+00  9.14955861091950240E+00
  9.26464589052514853E+00  9.38118078990025417E+00  9.49918151785994525E+00
  9.61866651225803793E+00  9.73965444286799631E+00  9.86216421430013845E+00
  9.98621496895548866E+00  1.01118260900168533E+01  1.02390172044774559E+01
  1.03678081862076930E+01  1.04982191590605023E+01  1.06302705000157012E+01
  1.07639828423639852E+01  1.08993770789308826E+01  1.10364743653413129E+01
  1.11752961233252144E+01  1.13158640440646963E+01  1.14582000915833735E+01
  1.16023265061782492E+01  1.17482658078948266E+01  1.18960408000459257E+01
  1.20456745727747094E+01  1.21971905066626096E+01  1.23506122763825541E+01
  1.25059638543981926E+01  1.26632695147096666E+01  1.28225538366464313E+01
  1.29838417087078675E+01  1.31471583324521184E+01  1.33125292264339112E+01
  1.34799802301918916E+01  1.36495375082860715E+01  1.38212275543861089E+01
  1.39950771954110387E+01  1.41711135957209553E+01  1.43493642613615595E+01
  1.45298570443620090E+01  1.47126201470868523E+01  1.48976821266427475E+01
                               </PP_R> 
 <PP_RAB type="real" size="   888" columns="3">
  2.84963114235786326E-06  2.88547508959069484E-06  2.92176989817681939E-06
  2.95852123925391866E-06  2.99573485529381231E-06  3.03341656099971527E-06
  3.07157224421480846E-06  3.11020786684222290E-06  3.14932946577659550E-06
  3.18894315384735844E-06  3.22905512077386578E-06  3.26967163413255814E-06
  3.31079904033628186E-06  3.35244376562592783E-06  3.39461231707455602E-06
  3.43731128360411963E-06  3.48054733701501032E-06  3.52432723302853853E-06
  3.56865781234252370E-06  3.61354600170018084E-06  3.65899881497242026E-06
  3.70502335425379046E-06  3.75162681097219038E-06  3.79881646701254590E-06
  3.84659969585462829E-06  3.89498396372515458E-06  3.94397683076442084E-06
  3.99358595220757648E-06  4.04381907958077534E-06  4.09468406191237523E-06
  4.14618884695934845E-06  4.19834148244914644E-06  4.25115011733716851E-06
  4.30462300308005388E-06  4.35876849492499634E-06  4.41359505321525492E-06
  4.46911124471210805E-06  4.52532574393342396E-06  4.58224733450907264E-06
  4.63988491055339705E-06  4.69824747805491382E-06  4.75734415628353649E-06
  4.81718417921546963E-06  4.87777689697603877E-06  4.93913177730067831E-06
  5.00125840701426348E-06  5.06416649352908393E-06  5.12786586636164423E-06
  5.19236647866854382E-06  5.25767840880169138E-06  5.32381186188304402E-06
  5.39077717139919520E-06  5.45858480081599898E-06  5.52724534521350212E-06
  5.59676953294146817E-06  5.66716822729567270E-06  5.73845242821533526E-06
  5.81063327400187883E-06  5.88372204305930471E-06  5.95773015565648945E-06
  6.03266917571159191E-06  6.10855081259896000E-06  6.18538692297873968E-06
  6.26318951264949776E-06  6.34197073842416949E-06  6.42174291002955963E-06
  6.50251849202977972E-06  6.58431010577385727E-06  6.66713053136783844E-06
  6.75099270967173350E-06  6.83590974432151660E-06  6.92189490377661528E-06
  7.00896162339313547E-06  7.09712350752314706E-06  7.18639433164042573E-06
  7.27678804449285605E-06  7.36831877028197848E-06  7.46100081086991765E-06
  7.55484864801407381E-06  7.64987694562994764E-06  7.74610055208237028E-06
  7.84353450250562145E-06  7.94219402115268295E-06  8.04209452377406210E-06
  8.14325162002655689E-06  8.24568111591225522E-06  8.34939901624828302E-06
  8.45442152716758436E-06  8.56076505865115185E-06  8.66844622709215291E-06
  8.77748185789222805E-06  8.88788898809052361E-06  8.99968486902576045E-06
  9.11288696903177399E-06  9.22751297616702200E-06  9.34358080097831418E-06
  9.46110857929942427E-06  9.58011467508482353E-06  9.70061768327908953E-06
  9.82263643272243927E-06  9.94618998909271004E-06  1.00712976578844573E-05
  1.01979789874254644E-05  1.03262537719311940E-05  1.04561420545977258E-05
  1.05876641307334742E-05  1.07208405509304206E-05  1.08556921242751679E-05
  1.09922399216004014E-05  1.11305052787772809E-05  1.12705098000491591E-05
  1.14122753614073245E-05  1.15558241140091636E-05  1.17011784876393145E-05
  1.18483611942144005E-05  1.19973952313317615E-05  1.21483038858629078E-05
  1.23011107375921355E-05  1.24558396629009088E-05  1.26125148384986210E-05
  1.27711607452002081E-05  1.29318021717513656E-05  1.30944642187018110E-05
  1.32591723023273144E-05  1.34259521586010632E-05  1.35948298472149035E-05
  1.37658317556512697E-05  1.39389846033062566E-05  1.41143154456645818E-05
  1.42918516785271033E-05  1.44716210422913941E-05  1.46536516262862858E-05
  1.48379718731608676E-05  1.50246105833287200E-05  1.52135969194680101E-05
  1.54049604110782891E-05  1.55987309590944294E-05  1.57949388405587940E-05
  1.59936147133520497E-05  1.61947896209835158E-05  1.63984949974418269E-05
  1.66047626721064881E-05  1.68136248747213160E-05  1.70251142404304061E-05
  1.72392638148774131E-05  1.74561070593690606E-05  1.76756778561034618E-05
  1.78980105134643298E-05  1.81231397713817100E-05  1.83511008067601639E-05
  1.85819292389752944E-05  1.88156611354392470E-05  1.90523330172363691E-05
  1.92919818648297115E-05  1.95346451238392568E-05  1.97803607108929620E-05
  2.00291670195511986E-05  2.02811029263058970E-05  2.05362077966550604E-05
  2.07945214912536676E-05  2.10560843721420851E-05  2.13209373090525872E-05
  2.15891216857954151E-05  2.18606794067250532E-05  2.21356529032878722E-05
  2.24140851406521842E-05  2.26960196244215379E-05  2.29815004074326157E-05
  2.32705720966385756E-05  2.35632798600789667E-05  2.38596694339373809E-05
  2.41597871296877201E-05  2.44636798413305420E-05  2.47713950527203244E-05
  2.50829808449848577E-05  2.53984859040381594E-05  2.57179595281875956E-05
  2.60414516358369037E-05  2.63690127732860548E-05  2.67006941226291884E-05
  2.70365475097519828E-05  2.73766254124294627E-05  2.77209809685258099E-05
  2.80696679842972652E-05  2.84227409427994249E-05  2.87802550124004402E-05
  2.91422660554010208E-05  2.95088306367631640E-05  2.98800060329484788E-05
  3.02558502408677634E-05  3.06364219869432146E-05  3.10217807362844129E-05
  3.14119867019799562E-05  3.18071008545058674E-05  3.22071849312523169E-05
  3.26123014461703246E-05  3.30225136995395473E-05  3.34378857878591505E-05
  3.38584826138630104E-05  3.42843698966608670E-05  3.47156141820072092E-05
  3.51522828526989569E-05  3.55944441391043039E-05  3.60421671298238538E-05
  3.64955217824857576E-05  3.69545789346769303E-05  3.74194103150113196E-05
  3.78900885543378109E-05  3.83666871970889044E-05  3.88492807127721327E-05
  3.93379445076062474E-05  3.98327549363033386E-05  4.03337893139996061E-05
  4.08411259283359123E-05  4.13548440516904020E-05  4.18750239535650918E-05
  4.24017469131279210E-05  4.29350952319129534E-05  4.34751522466800996E-05
  4.40220023424366352E-05  4.45757309656226789E-05  4.51364246374621249E-05
  4.57041709674819470E-05  4.62790586672012937E-05  4.68611775639928238E-05
  4.74506186151185842E-05  4.80474739219419829E-05  4.86518367443190342E-05
  4.92638015151703143E-05  4.98834638552362816E-05  5.05109205880183620E-05
  5.11462697549075877E-05  5.17896106305039264E-05  5.24410437381280433E-05
  5.31006708655283344E-05  5.37685950807855761E-05  5.44449207484172371E-05
  5.51297535456848895E-05  5.58232004791064170E-05  5.65253699011759381E-05
  5.72363715272943138E-05  5.79563164529121454E-05  5.86853171708887804E-05
  5.94234875890695534E-05  6.01709430480841642E-05  6.09278003393687339E-05
  6.16941777234149464E-05  6.24701949482482215E-05  6.32559732681387199E-05
  6.40516354625476816E-05  6.48573058553116917E-05  6.56731103340688462E-05
  6.64991763699286729E-05  6.73356330373899145E-05  6.81826110345086679E-05
  6.90402427033201316E-05  6.99086620505175123E-05  7.07880047683905441E-05
  7.16784082560279157E-05  7.25800116407861808E-05  7.34929558000284593E-05
  7.44173833831371292E-05  7.53534388338027465E-05  7.63012684125938685E-05
  7.72610202198106258E-05  7.82328442186254729E-05  7.92168922585154535E-05
  8.02133180989888670E-05  8.12222774336104707E-05  8.22439279143291060E-05
  8.32784291761108939E-05  8.43259428618827698E-05  8.53866326477892843E-05
  8.64606642687674423E-05  8.75482055444431968E-05  8.86494264053534477E-05
  8.97644989194982341E-05  9.08935973192264958E-05  9.20368980284602808E-05
  9.31945796902616022E-05  9.43668231947453179E-05  9.55538117073440513E-05
  9.67557306974277940E-05  9.79727679672840341E-05  9.92051136814623520E-05
  1.00452960396487712E-04  1.01716503090948227E-04  1.02995939195960518E-04
  1.04291468626019007E-04  1.05603293810232991E-04  1.06931619723956353E-04
  1.08276653920815708E-04  1.09638606565140749E-04  1.11017690464803020E-04
  1.12414121104467720E-04  1.13828116679263238E-04  1.15259898128875052E-04
  1.16709689172067569E-04  1.18177716341640889E-04  1.19664209019827066E-04
  1.21169399474131283E-04  1.22693522893624422E-04  1.24236817425691623E-04
  1.25799524213243295E-04  1.27381887432394448E-04  1.28984154330617334E-04
  1.30606575265374740E-04  1.32249403743238495E-04  1.33912896459500601E-04
  1.35597313338282427E-04  1.37302917573148194E-04  1.39029975668229761E-04
  1.40778757479868204E-04  1.42549536258779387E-04  1.44342588692750385E-04
  1.46158194949871830E-04  1.47996638722315419E-04  1.49858207270660868E-04
  1.51743191468781179E-04  1.53651885849292449E-04  1.55584588649574837E-04
  1.57541601858373064E-04  1.59523231262982570E-04  1.61529786497029360E-04
  1.63561581088851301E-04  1.65618932510486986E-04  1.67702162227281672E-04
  1.69811595748117170E-04  1.71947562676272612E-04  1.74110396760926331E-04
  1.76300435949304301E-04  1.78518022439485289E-04  1.80763502733870284E-04
  1.83037227693323549E-04  1.85339552591996110E-04  1.87670837172837425E-04
  1.90031445703806175E-04  1.92421747034788243E-04  1.94842114655229486E-04
  1.97292926752495011E-04  1.99774566270961249E-04  2.02287420971851748E-04
  2.04831883493826131E-04  2.07408351414329999E-04  2.10017227311718092E-04
  2.12658918828156961E-04  2.15333838733320596E-04  2.18042404988886472E-04
  2.20785040813842494E-04  2.23562174750616442E-04  2.26374240732035947E-04
  2.29221678149131678E-04  2.32104931919793463E-04  2.35024452558288768E-04
  2.37980696245657368E-04  2.40974124900989833E-04  2.44005206253603652E-04
  2.47074413916127135E-04  2.50182227458501684E-04  2.53329132482916510E-04
  2.56515620699683837E-04  2.59742190004070509E-04  2.63009344554095028E-04
  2.66317594849302646E-04  2.69667457810532937E-04  2.73059456860688849E-04
  2.76494122006522844E-04  2.79971989921452217E-04  2.83493604029414110E-04
  2.87059514589777952E-04  2.90670278783323555E-04  2.94326460799302172E-04
  2.98028631923592704E-04  3.01777370627965094E-04  3.05573262660469068E-04
  3.09416901136957338E-04  3.13308886633761733E-04  3.17249827281534643E-04
  3.21240338860270011E-04  3.25281044895520913E-04  3.29372576755826234E-04
  3.33515573751363200E-04  3.37710683233841645E-04  3.41958560697652920E-04
  3.46259869882293496E-04  3.50615282876074374E-04  3.55025480221136806E-04
  3.59491151019788882E-04  3.64012993042178040E-04  3.68591712835320429E-04
  3.73228025833498994E-04  3.77922656470052192E-04  3.82676338290568606E-04
  3.87489814067503867E-04  3.92363835916241456E-04  3.97299165412611389E-04
  4.02296573711888230E-04  4.07356841669286561E-04  4.12480759961969447E-04
  4.17669129212595175E-04  4.22922760114414825E-04  4.28242473557945255E-04
  4.33629100759235311E-04  4.39083483389744245E-04  4.44606473707855065E-04
  4.50198934692041608E-04  4.55861740175710713E-04  4.61595774983740187E-04
  4.67401935070734702E-04  4.73281127661020627E-04  4.79234271390401566E-04
  4.85262296449696961E-04  4.91366144730086447E-04  4.97546769970282163E-04
  5.03805137905552502E-04  5.10142226418620177E-04  5.16559025692458020E-04
  5.23056538365007997E-04  5.29635779685844188E-04  5.36297777674808697E-04
  5.43043573282641192E-04  5.49874220553629939E-04  5.56790786790307859E-04
  5.63794352720221360E-04  5.70886012664795911E-04  5.78066874710326107E-04
  5.85338060881115930E-04  5.92700707314797919E-04  6.00155964439856755E-04
  6.07704997155386183E-04  6.15348985013106607E-04  6.23089122401672630E-04
  6.30926618733298398E-04  6.38862698632731551E-04  6.46898602128602104E-04
  6.55035584847180876E-04  6.63274918208572374E-04  6.71617889625377058E-04
  6.80065802703853028E-04  6.88619977447606051E-04  6.97281750463843420E-04
  7.06052475172221756E-04  7.14933522016320423E-04  7.23926278677777747E-04
  7.33032150293117901E-04  7.42252559673306934E-04  7.51588947526069515E-04
  7.61042772681002483E-04  7.70615512317520540E-04  7.80308662195667614E-04
  7.90123736889832896E-04  8.00062270025406804E-04  8.10125814518411350E-04
  8.20315942818148052E-04  8.30634247152895822E-04  8.41082339778699800E-04
  8.51661853231289743E-04  8.62374440581166338E-04  8.73221775691898172E-04
  8.84205553481665443E-04  8.95327490188094232E-04  9.06589323636423287E-04
  9.17992813511040503E-04  9.29539741630439629E-04  9.41231912225631894E-04
  9.53071152222060474E-04  9.65059311525062464E-04  9.77198263308918375E-04
  9.89489904309541609E-04  1.00193615512084600E-03  1.01453896049484311E-03
  1.02730028964551317E-03  1.04022213655649890E-03  1.05330652029267001E-03
  1.06655548531560548E-03  1.07997110180304569E-03  1.09355546597236092E-03
  1.10731070040809005E-03  1.12123895439359919E-03  1.13534240424691059E-03
  1.14962325366075777E-03  1.16408373404691592E-03  1.17872610488486593E-03
  1.19355265407484080E-03  1.20856569829531674E-03  1.22376758336499732E-03
  1.23916068460935315E-03  1.25474740723177138E-03  1.27053018668937269E-03
  1.28651148907355829E-03  1.30269381149533941E-03  1.31907968247551763E-03
  1.33567166233977143E-03  1.35247234361871070E-03  1.36948435145296701E-03
  1.38671034400337525E-03  1.40415301286631825E-03  1.42181508349429296E-03
  1.43969931562176875E-03  1.45780850369640175E-03  1.47614547731567147E-03
  1.49471310166901343E-03  1.51351427798550840E-03  1.53255194398720725E-03
  1.55182907434815547E-03  1.57134868115919109E-03  1.59111381439859187E-03
  1.61112756240863850E-03  1.63139305237817566E-03  1.65191345083124221E-03
  1.67269196412184510E-03  1.69373183893496053E-03  1.71503636279383325E-03
  1.73660886457366131E-03  1.75845271502173732E-03  1.78057132728413523E-03
  1.80296815743902152E-03  1.82564670503667509E-03  1.84861051364629768E-03
  1.87186317140970531E-03  1.89540831160198023E-03  1.91924961319918136E-03
  1.94339080145318867E-03  1.96783564847378229E-03  1.99258797381804235E-03
  2.01765164508716345E-03  2.04303057853077357E-03  2.06872873965885688E-03
  2.09475014386137359E-03  2.12109885703567081E-03  2.14777899622178902E-03
  2.17479473024575695E-03  2.20215028037098028E-03  2.22984992095782118E-03
  2.25789798013147644E-03  2.28629884045825679E-03  2.31505693963036940E-03
  2.34417677115931903E-03  2.37366288507802770E-03  2.40351988865178390E-03
  2.43375244709814146E-03  2.46436528431586560E-03  2.49536318362305470E-03
  2.52675098850453986E-03  2.55853360336869440E-03  2.59071599431375237E-03
  2.62330318990377414E-03  2.65630028195437034E-03  2.68971242632830678E-03
  2.72354484374111956E-03  2.75780282057686184E-03  2.79249170971411281E-03
  2.82761693136237505E-03  2.86318397390899386E-03  2.89919839477672907E-03
  2.93566582129211294E-03  2.97259195156473251E-03  3.00998255537756948E-03
  3.04784347508854116E-03  3.08618062654338055E-03  3.12500000000000147E-03
  3.16430766106448429E-03  3.20410975163884157E-03  3.24441249088070491E-03
  3.28522217617507710E-03  3.32654518411831194E-03  3.36838797151447523E-03
  3.41075707638422571E-03  3.45365911898640058E-03  3.49710080285244029E-03
  3.54108891583383364E-03  3.58563033116272726E-03  3.63073200852588596E-03
  3.67640099515215927E-03  3.72264442691362055E-03  3.76946952944056616E-03
  3.81688361925053244E-03  3.86489410489151627E-03  3.91350848809957769E-03
  3.96273436497099948E-03  4.01257942714919411E-03  4.06305146302653620E-03
  4.11415835896131957E-03  4.16590810051001032E-03  4.21830877367501168E-03
  4.27136856616811608E-03  4.32509576868984977E-03  4.37949877622491844E-03
  4.43458608935393041E-03  4.49036631558164066E-03  4.54684817068188099E-03
  4.60404048005942559E-03  4.66195218012897209E-03  4.72059231971147866E-03
  4.77997006144806075E-03  4.84009468323166880E-03  4.90097557965677930E-03
  4.96262226348732557E-03  5.02504436714307397E-03  5.08825164420472105E-03
  5.15225397093790286E-03  5.21706134783638670E-03  5.28268390118466317E-03
  5.34913188464020400E-03  5.41641568083561266E-03  5.48454580300093610E-03
  5.55353289660637239E-03  5.62338774102565456E-03  5.69412125122034304E-03
  5.76574447944531478E-03  5.83826861697569772E-03  5.91170499585553285E-03
  5.98606509066842811E-03  6.06136052033048444E-03  6.13760304990577498E-03
  6.21480459244466536E-03  6.29297721084524225E-03  6.37213311973817628E-03
  6.45228468739527262E-03  6.53344443766205180E-03  6.61562505191461148E-03
  6.69883937104112561E-03  6.78310039744826117E-03  6.86842129709282125E-03
  6.95481540153896488E-03  7.04229621004127948E-03  7.13087739165407710E-03
  7.22057278736720418E-03  7.31139641226872562E-03  7.40336245773481547E-03
  7.49648529364718447E-03  7.59077947063840387E-03  7.68625972236547123E-03
  7.78294096781197500E-03  7.88083831361921679E-03  7.97996705644665044E-03
  8.08034268536202312E-03  8.18198088426157037E-03  8.28489753432064963E-03
  8.38910871647522392E-03  8.49463071393452042E-03  8.60148001472533022E-03
  8.70967331426828612E-03  8.81922751798656750E-03  8.93015974394739155E-03
  9.04248732553675737E-03  9.15622781416782112E-03  9.27139898202333952E-03
  9.38801882483260991E-03  9.50610556468332868E-03  9.62567765286885361E-03
  9.74675377277123105E-03  9.86935284278052903E-03  9.99349401925086686E-03
  1.01191966994936336E-02  1.02464805248083605E-02  1.03753653835517157E-02
  1.05058714142450965E-02  1.06380190087213156E-02  1.07718288153108646E-02
  1.09073217420682586E-02  1.10445189600389734E-02  1.11834419065674397E-02
  1.13241122886467011E-02  1.14665520863101444E-02  1.16107835560659567E-02
  1.17568292343747244E-02  1.19047119411708202E-02  1.20544547834280508E-02
  1.22060811587701695E-02  1.23596147591268097E-02  1.25150795744353952E-02
  1.26724998963896138E-02  1.28319003222350462E-02  1.29933057586125306E-02
  1.31567414254498832E-02  1.33222328599025622E-02  1.34898059203438954E-02
  1.36594867904055017E-02  1.38313019830685509E-02  1.40052783448064606E-02
  1.41814430597797039E-02  1.43598236540834097E-02  1.45404480000483546E-02
  1.47233443205960750E-02  1.49085411936487680E-02  1.50960675565946292E-02
  1.52859527108093977E-02  1.54782263262347435E-02  1.56729184460142577E-02
  1.58700594911877595E-02  1.60696802654446518E-02  1.62718119599370367E-02
  1.64764861581534194E-02  1.66837348408536840E-02  1.68935903910661551E-02
  1.71060855991475060E-02  1.73212536679063327E-02  1.75391282177911265E-02
  1.77597432921435816E-02  1.79831333625179168E-02  1.82093333340671119E-02
  1.84383785509969374E-02  1.86703048020885227E-02  1.89051483262904670E-02
  1.91429458183812184E-02  1.93837344347027145E-02  1.96275517989661502E-02
  1.98744360081307379E-02  2.01244256383564454E-02  2.03775597510316119E-02
  2.06338778988763433E-02  2.08934201321227288E-02  2.11562270047727513E-02
  2.14223395809349446E-02  2.16917994412407465E-02  2.19646486893415524E-02
  2.22409299584874973E-02  2.25206864181889746E-02  2.28039617809619871E-02
  2.30908003091582908E-02  2.33812468218815121E-02  2.36753467019901534E-02
  2.39731459031888583E-02  2.42746909572086819E-02  2.45800289810777992E-02
  2.48892076844836781E-02  2.52022753772277348E-02  2.55192809767739240E-02
  2.58402740158921070E-02  2.61653046503977152E-02  2.64944236669886826E-02
  2.68276824911809278E-02  2.71651331953437769E-02  2.75068285068362922E-02
  2.78528218162460671E-02  2.82031671857316500E-02  2.85579193574697771E-02
  2.89171337622090574E-02  2.92808665279310487E-02  2.96491744886204084E-02
  3.00221151931453385E-02  3.03997469142496500E-02  3.07821286576580935E-02
  3.11693201712960229E-02  3.15613819546251770E-02  3.19583752680968891E-02
  3.23603621427240515E-02  3.27674053897736850E-02  3.31795686105812865E-02
  3.35969162064886293E-02  3.40195133889067067E-02  3.44474261895050191E-02
  3.48807214705292926E-02  3.53194669352487195E-02  3.57637311385347739E-02
  3.62135834975731152E-02  3.66690943027100438E-02  3.71303347284356461E-02
  3.75973768445048151E-02  3.80702936271983747E-02  3.85491589707258192E-02
  3.90340476987712931E-02  3.95250355761851066E-02  4.00221993208220092E-02
  4.05256166155285660E-02  4.10353661202813302E-02  4.15515274844774629E-02
  4.20741813593803055E-02  4.26034094107211395E-02  4.31392943314596947E-02
  4.36819198547051257E-02  4.42313707667994008E-02  4.47877329205654262E-02
  4.53510932487216425E-02  4.59215397774654643E-02  4.64991616402276389E-02
  4.70840490915993559E-02  4.76762935214348968E-02  4.82759874691313373E-02
  4.88832246380880575E-02  4.94980999103482033E-02  5.01207093614239874E-02
  5.07511502753088886E-02  5.13895211596783197E-02  5.20359217612817240E-02
  5.26904530815282546E-02  5.33532173922683164E-02  5.40243182517739090E-02
  5.47038605209196616E-02  5.53919503795676574E-02  5.60886953431582805E-02
  5.67942042795095900E-02  5.75085874258282961E-02  5.82319564059344263E-02
  5.89644242477027902E-02  5.97061054007239356E-02  6.04571157541869339E-02
  6.12175726549875066E-02  6.19875949260635384E-02  6.27673028849614900E-02
  6.35568183626363109E-02  6.43562647224876078E-02  6.51657668796356837E-02
  6.59854513204394671E-02  6.68154461222604801E-02  6.76558809734752187E-02
  6.85068871937389717E-02  6.93685977545051430E-02  7.02411472998019509E-02
  7.11246721672710580E-02  7.20193104094705994E-02  7.29252018154460113E-02
  7.38424879325725869E-02  7.47713120886723537E-02  7.57118194144093537E-02
  7.66641568659667677E-02  7.76284732480089085E-02  7.86049192369324273E-02
  7.95936474044096759E-02  8.05948122412283585E-02  8.16085701814311948E-02
  8.26350796267587562E-02  8.36745009714004312E-02  8.47269966270559616E-02
  8.57927310483128647E-02  8.68718707583427535E-02  8.79645843749208012E-02
  8.90710426367727903E-02  9.01914184302532451E-02  9.13258868163592252E-02
  9.24746250580842921E-02  9.36378126481157147E-02  9.48156313368810483E-02
  9.60082651609466819E-02  9.72159004717739889E-02  9.84387259648373536E-02
  9.96769327091078655E-02  1.00930714176908423E-01  1.02200266274144302E-01
  1.03485787370913518E-01  1.04787478332502973E-01  1.06105542550773646E-01
  1.07440185975941252E-01  1.08791617148756403E-01  1.10160047233089253E-01
  1.11545690048924673E-01  1.12948762105771719E-01  1.14369482636493783E-01
  1.15808073631564368E-01  1.17264759873753177E-01  1.18739768973249324E-01
  1.20233331403225480E-01  1.21745680535849957E-01  1.23277052678751733E-01
  1.24827687111943614E-01  1.26397826125210666E-01  1.27987715055968204E-01
  1.29597602327596179E-01  1.31227739488256279E-01  1.32878381250196270E-01
  1.34549785529549826E-01  1.36242213486636038E-01  1.37955929566766416E-01
  1.39691201541565196E-01  1.41448300550808703E-01  1.43227501144792185E-01
  1.45029081327228110E-01  1.46853322598685332E-01  1.48700510000574077E-01
  1.50570932159683868E-01  1.52464881333282620E-01  1.54382653454781943E-01
  1.56324548179977429E-01  1.58290868933870843E-01  1.60281922958080414E-01
  1.62298021358848354E-01  1.64339479155651502E-01  1.66406615330423890E-01
  1.68499752877398656E-01  1.70619218853575894E-01  1.72765344429826384E-01
  1.74938464942637983E-01  1.77138919946511958E-01  1.79367053267019516E-01
  1.81623213054525112E-01  1.83907751838585654E-01  1.86221026583034355E-01
                             </PP_RAB> 
                                  </PP_MESH>
 <PP_NLCC type="real" size="   888" columns="3">
  0.00000000000000000E+00  0.00000000000000000E+00  0.00000000000000000E+00
  0.00000000000000000E+00  0.00000000000000000E+00  0.00000000000000000E+00
  0.00000000000000000E+00  0.00000000000000000E+00  0.00000000000000000E+00
  0.00000000000000000E+00  0.00000000000000000E+00  0.00000000000000000E+00
  0.00000000000000000E+00  0.00000000000000000E+00  0.00000000000000000E+00
  0.00000000000000000E+00  0.00000000000000000E+00  0.00000000000000000E+00
  0.00000000000000000E+00  0.00000000000000000E+00  0.00000000000000000E+00
  0.00000000000000000E+00  0.00000000000000000E+00  0.00000000000000000E+00
  0.00000000000000000E+00  0.00000000000000000E+00  0.00000000000000000E+00
  0.00000000000000000E+00  0.00000000000000000E+00  0.00000000000000000E+00
  0.00000000000000000E+00  0.00000000000000000E+00  0.00000000000000000E+00
  0.00000000000000000E+00  0.00000000000000000E+00  0.00000000000000000E+00
  0.00000000000000000E+00  0.00000000000000000E+00  0.00000000000000000E+00
  0.00000000000000000E+00  0.00000000000000000E+00  0.00000000000000000E+00
  0.00000000000000000E+00  0.00000000000000000E+00  0.00000000000000000E+00
  0.00000000000000000E+00  0.00000000000000000E+00  0.00000000000000000E+00
  0.00000000000000000E+00  0.00000000000000000E+00  0.00000000000000000E+00
  0.00000000000000000E+00  0.00000000000000000E+00  0.00000000000000000E+00
  0.00000000000000000E+00  0.00000000000000000E+00  0.00000000000000000E+00
  0.00000000000000000E+00  0.00000000000000000E+00  0.00000000000000000E+00
  0.00000000000000000E+00  0.00000000000000000E+00  0.00000000000000000E+00
  0.00000000000000000E+00  0.00000000000000000E+00  0.00000000000000000E+00
  0.00000000000000000E+00  0.00000000000000000E+00  0.00000000000000000E+00
  0.00000000000000000E+00  0.00000000000000000E+00  0.00000000000000000E+00
  0.00000000000000000E+00  0.00000000000000000E+00  0.00000000000000000E+00
  0.00000000000000000E+00  0.00000000000000000E+00  0.00000000000000000E+00
  0.00000000000000000E+00  0.00000000000000000E+00  0.00000000000000000E+00
  0.00000000000000000E+00  0.00000000000000000E+00  0.00000000000000000E+00
  0.00000000000000000E+00  0.00000000000000000E+00  0.00000000000000000E+00
  0.00000000000000000E+00  0.00000000000000000E+00  0.00000000000000000E+00
  0.00000000000000000E+00  0.00000000000000000E+00  0.00000000000000000E+00
  0.00000000000000000E+00  0.00000000000000000E+00  0.00000000000000000E+00
  0.00000000000000000E+00  0.00000000000000000E+00  0.00000000000000000E+00
  0.00000000000000000E+00  0.00000000000000000E+00  0.00000000000000000E+00
  0.00000000000000000E+00  0.00000000000000000E+00  0.00000000000000000E+00
  0.00000000000000000E+00  0.00000000000000000E+00  0.00000000000000000E+00
  0.00000000000000000E+00  0.00000000000000000E+00  0.00000000000000000E+00
  0.00000000000000000E+00  0.00000000000000000E+00  0.00000000000000000E+00
  0.00000000000000000E+00  0.00000000000000000E+00  0.00000000000000000E+00
  0.00000000000000000E+00  0.00000000000000000E+00  0.00000000000000000E+00
  0.00000000000000000E+00  0.00000000000000000E+00  0.00000000000000000E+00
  0.00000000000000000E+00  0.00000000000000000E+00  0.00000000000000000E+00
  0.00000000000000000E+00  0.00000000000000000E+00  0.00000000000000000E+00
  0.00000000000000000E+00  0.00000000000000000E+00  0.00000000000000000E+00
  0.00000000000000000E+00  0.00000000000000000E+00  0.00000000000000000E+00
  0.00000000000000000E+00  0.00000000000000000E+00  0.00000000000000000E+00
  0.00000000000000000E+00  0.00000000000000000E+00  0.00000000000000000E+00
  0.00000000000000000E+00  0.00000000000000000E+00  0.00000000000000000E+00
  0.00000000000000000E+00  0.00000000000000000E+00  0.00000000000000000E+00
  0.00000000000000000E+00  0.00000000000000000E+00  0.00000000000000000E+00
  0.00000000000000000E+00  0.00000000000000000E+00  0.00000000000000000E+00
  0.00000000000000000E+00  0.00000000000000000E+00  0.00000000000000000E+00
  0.00000000000000000E+00  0.00000000000000000E+00  0.00000000000000000E+00
  0.00000000000000000E+00  0.00000000000000000E+00  0.00000000000000000E+00
  0.00000000000000000E+00  0.00000000000000000E+00  0.00000000000000000E+00
  0.00000000000000000E+00  0.00000000000000000E+00  0.00000000000000000E+00
  0.00000000000000000E+00  0.00000000000000000E+00  0.00000000000000000E+00
  0.00000000000000000E+00  0.00000000000000000E+00  0.00000000000000000E+00
  0.00000000000000000E+00  0.00000000000000000E+00  0.00000000000000000E+00
  0.00000000000000000E+00  0.00000000000000000E+00  0.00000000000000000E+00
  0.00000000000000000E+00  0.00000000000000000E+00  0.00000000000000000E+00
  0.00000000000000000E+00  0.00000000000000000E+00  0.00000000000000000E+00
  0.00000000000000000E+00  0.00000000000000000E+00  0.00000000000000000E+00
  0.00000000000000000E+00  0.00000000000000000E+00  0.00000000000000000E+00
  0.00000000000000000E+00  0.00000000000000000E+00  0.00000000000000000E+00
  0.00000000000000000E+00  0.00000000000000000E+00  0.00000000000000000E+00
  0.00000000000000000E+00  0.00000000000000000E+00  0.00000000000000000E+00
  0.00000000000000000E+00  0.00000000000000000E+00  0.00000000000000000E+00
  0.00000000000000000E+00  0.00000000000000000E+00  0.00000000000000000E+00
  0.00000000000000000E+00  0.00000000000000000E+00  0.00000000000000000E+00
  0.00000000000000000E+00  0.00000000000000000E+00  0.00000000000000000E+00
  0.00000000000000000E+00  0.00000000000000000E+00  0.00000000000000000E+00
  0.00000000000000000E+00  0.00000000000000000E+00  0.00000000000000000E+00
  0.00000000000000000E+00  0.00000000000000000E+00  0.00000000000000000E+00
  0.00000000000000000E+00  0.00000000000000000E+00  0.00000000000000000E+00
  0.00000000000000000E+00  0.00000000000000000E+00  0.00000000000000000E+00
  0.00000000000000000E+00  0.00000000000000000E+00  0.00000000000000000E+00
  0.00000000000000000E+00  0.00000000000000000E+00  0.00000000000000000E+00
  0.00000000000000000E+00  0.00000000000000000E+00  0.00000000000000000E+00
  0.00000000000000000E+00  0.00000000000000000E+00  0.00000000000000000E+00
  0.00000000000000000E+00  0.00000000000000000E+00  0.00000000000000000E+00
  0.00000000000000000E+00  0.00000000000000000E+00  0.00000000000000000E+00
  0.00000000000000000E+00  0.00000000000000000E+00  0.00000000000000000E+00
  0.00000000000000000E+00  0.00000000000000000E+00  0.00000000000000000E+00
  0.00000000000000000E+00  0.00000000000000000E+00  0.00000000000000000E+00
  0.00000000000000000E+00  0.00000000000000000E+00  0.00000000000000000E+00
  0.00000000000000000E+00  0.00000000000000000E+00  0.00000000000000000E+00
  0.00000000000000000E+00  0.00000000000000000E+00  0.00000000000000000E+00
  0.00000000000000000E+00  0.00000000000000000E+00  0.00000000000000000E+00
  0.00000000000000000E+00  0.00000000000000000E+00  0.00000000000000000E+00
  0.00000000000000000E+00  0.00000000000000000E+00  0.00000000000000000E+00
  0.00000000000000000E+00  0.00000000000000000E+00  0.00000000000000000E+00
  0.00000000000000000E+00  0.00000000000000000E+00  0.00000000000000000E+00
  0.00000000000000000E+00  0.00000000000000000E+00  0.00000000000000000E+00
  0.00000000000000000E+00  0.00000000000000000E+00  0.00000000000000000E+00
  0.00000000000000000E+00  0.00000000000000000E+00  0.00000000000000000E+00
  0.00000000000000000E+00  0.00000000000000000E+00  0.00000000000000000E+00
  0.00000000000000000E+00  0.00000000000000000E+00  0.00000000000000000E+00
  0.00000000000000000E+00  0.00000000000000000E+00  0.00000000000000000E+00
  0.00000000000000000E+00  0.00000000000000000E+00  0.00000000000000000E+00
  0.00000000000000000E+00  0.00000000000000000E+00  0.00000000000000000E+00
  0.00000000000000000E+00  0.00000000000000000E+00  0.00000000000000000E+00
  0.00000000000000000E+00  0.00000000000000000E+00  0.00000000000000000E+00
  0.00000000000000000E+00  0.00000000000000000E+00  0.00000000000000000E+00
  0.00000000000000000E+00  0.00000000000000000E+00  0.00000000000000000E+00
  0.00000000000000000E+00  0.00000000000000000E+00  0.00000000000000000E+00
  0.00000000000000000E+00  0.00000000000000000E+00  0.00000000000000000E+00
  0.00000000000000000E+00  0.00000000000000000E+00  0.00000000000000000E+00
  0.00000000000000000E+00  0.00000000000000000E+00  0.00000000000000000E+00
  0.00000000000000000E+00  0.00000000000000000E+00  0.00000000000000000E+00
  0.00000000000000000E+00  0.00000000000000000E+00  0.00000000000000000E+00
  0.00000000000000000E+00  0.00000000000000000E+00  0.00000000000000000E+00
  0.00000000000000000E+00  0.00000000000000000E+00  0.00000000000000000E+00
  0.00000000000000000E+00  0.00000000000000000E+00  0.00000000000000000E+00
  0.00000000000000000E+00  0.00000000000000000E+00  0.00000000000000000E+00
  0.00000000000000000E+00  0.00000000000000000E+00  0.00000000000000000E+00
  0.00000000000000000E+00  0.00000000000000000E+00  0.00000000000000000E+00
  0.00000000000000000E+00  0.00000000000000000E+00  0.00000000000000000E+00
  0.00000000000000000E+00  0.00000000000000000E+00  0.00000000000000000E+00
  0.00000000000000000E+00  0.00000000000000000E+00  0.00000000000000000E+00
  0.00000000000000000E+00  0.00000000000000000E+00  0.00000000000000000E+00
  0.00000000000000000E+00  0.00000000000000000E+00  0.00000000000000000E+00
  0.00000000000000000E+00  0.00000000000000000E+00  0.00000000000000000E+00
  0.00000000000000000E+00  0.00000000000000000E+00  0.00000000000000000E+00
  0.00000000000000000E+00  0.00000000000000000E+00  0.00000000000000000E+00
  0.00000000000000000E+00  0.00000000000000000E+00  0.00000000000000000E+00
  0.00000000000000000E+00  0.00000000000000000E+00  0.00000000000000000E+00
  0.00000000000000000E+00  0.00000000000000000E+00  0.00000000000000000E+00
  0.00000000000000000E+00  0.00000000000000000E+00  0.00000000000000000E+00
  0.00000000000000000E+00  0.00000000000000000E+00  0.00000000000000000E+00
  0.00000000000000000E+00  0.00000000000000000E+00  0.00000000000000000E+00
  0.00000000000000000E+00  0.00000000000000000E+00  0.00000000000000000E+00
  0.00000000000000000E+00  0.00000000000000000E+00  0.00000000000000000E+00
  0.00000000000000000E+00  0.00000000000000000E+00  0.00000000000000000E+00
  0.00000000000000000E+00  0.00000000000000000E+00  0.00000000000000000E+00
  0.00000000000000000E+00  0.00000000000000000E+00  0.00000000000000000E+00
  0.00000000000000000E+00  0.00000000000000000E+00  0.00000000000000000E+00
  0.00000000000000000E+00  0.00000000000000000E+00  0.00000000000000000E+00
  0.00000000000000000E+00  0.00000000000000000E+00  0.00000000000000000E+00
  0.00000000000000000E+00  0.00000000000000000E+00  0.00000000000000000E+00
  0.00000000000000000E+00  0.00000000000000000E+00  0.00000000000000000E+00
  0.00000000000000000E+00  0.00000000000000000E+00  0.00000000000000000E+00
  0.00000000000000000E+00  0.00000000000000000E+00  0.00000000000000000E+00
  0.00000000000000000E+00  0.00000000000000000E+00  0.00000000000000000E+00
  0.00000000000000000E+00  0.00000000000000000E+00  0.00000000000000000E+00
  0.00000000000000000E+00  0.00000000000000000E+00  0.00000000000000000E+00
  0.00000000000000000E+00  0.00000000000000000E+00  0.00000000000000000E+00
  0.00000000000000000E+00  0.00000000000000000E+00  0.00000000000000000E+00
  0.00000000000000000E+00  0.00000000000000000E+00  0.00000000000000000E+00
  0.00000000000000000E+00  0.00000000000000000E+00  0.00000000000000000E+00
  0.00000000000000000E+00  0.00000000000000000E+00  0.00000000000000000E+00
  0.00000000000000000E+00  0.00000000000000000E+00  0.00000000000000000E+00
  0.00000000000000000E+00  0.00000000000000000E+00  0.00000000000000000E+00
  0.00000000000000000E+00  0.00000000000000000E+00  0.00000000000000000E+00
  0.00000000000000000E+00  0.00000000000000000E+00  0.00000000000000000E+00
  0.00000000000000000E+00  0.00000000000000000E+00  0.00000000000000000E+00
  0.00000000000000000E+00  0.00000000000000000E+00  0.00000000000000000E+00
  0.00000000000000000E+00  0.00000000000000000E+00  0.00000000000000000E+00
  0.00000000000000000E+00  0.00000000000000000E+00  0.00000000000000000E+00
  0.00000000000000000E+00  0.00000000000000000E+00  0.00000000000000000E+00
  0.00000000000000000E+00  0.00000000000000000E+00  0.00000000000000000E+00
  0.00000000000000000E+00  0.00000000000000000E+00  0.00000000000000000E+00
  0.00000000000000000E+00  0.00000000000000000E+00  0.00000000000000000E+00
  0.00000000000000000E+00  0.00000000000000000E+00  0.00000000000000000E+00
  0.00000000000000000E+00  0.00000000000000000E+00  0.00000000000000000E+00
  0.00000000000000000E+00  0.00000000000000000E+00  0.00000000000000000E+00
  0.00000000000000000E+00  0.00000000000000000E+00  0.00000000000000000E+00
  0.00000000000000000E+00  0.00000000000000000E+00  0.00000000000000000E+00
  0.00000000000000000E+00  0.00000000000000000E+00  0.00000000000000000E+00
  0.00000000000000000E+00  0.00000000000000000E+00  0.00000000000000000E+00
  0.00000000000000000E+00  0.00000000000000000E+00  0.00000000000000000E+00
  0.00000000000000000E+00  0.00000000000000000E+00  0.00000000000000000E+00
  0.00000000000000000E+00  0.00000000000000000E+00  0.00000000000000000E+00
  0.00000000000000000E+00  0.00000000000000000E+00  0.00000000000000000E+00
  0.00000000000000000E+00  0.00000000000000000E+00  0.00000000000000000E+00
  0.00000000000000000E+00  0.00000000000000000E+00  0.00000000000000000E+00
  0.00000000000000000E+00  0.00000000000000000E+00  0.00000000000000000E+00
  0.00000000000000000E+00  0.00000000000000000E+00  0.00000000000000000E+00
  0.00000000000000000E+00  0.00000000000000000E+00  0.00000000000000000E+00
  0.00000000000000000E+00  0.00000000000000000E+00  0.00000000000000000E+00
  0.00000000000000000E+00  0.00000000000000000E+00  0.00000000000000000E+00
  0.00000000000000000E+00  0.00000000000000000E+00  0.00000000000000000E+00
  0.00000000000000000E+00  0.00000000000000000E+00  0.00000000000000000E+00
  0.00000000000000000E+00  0.00000000000000000E+00  0.00000000000000000E+00
  0.00000000000000000E+00  0.00000000000000000E+00  0.00000000000000000E+00
  0.00000000000000000E+00  0.00000000000000000E+00  0.00000000000000000E+00
  0.00000000000000000E+00  0.00000000000000000E+00  0.00000000000000000E+00
  0.00000000000000000E+00  0.00000000000000000E+00  0.00000000000000000E+00
  0.00000000000000000E+00  0.00000000000000000E+00  0.00000000000000000E+00
  0.00000000000000000E+00  0.00000000000000000E+00  0.00000000000000000E+00
  0.00000000000000000E+00  0.00000000000000000E+00  0.00000000000000000E+00
  0.00000000000000000E+00  0.00000000000000000E+00  0.00000000000000000E+00
  0.00000000000000000E+00  0.00000000000000000E+00  0.00000000000000000E+00
  0.00000000000000000E+00  0.00000000000000000E+00  0.00000000000000000E+00
  0.00000000000000000E+00  0.00000000000000000E+00  0.00000000000000000E+00
  0.00000000000000000E+00  0.00000000000000000E+00  0.00000000000000000E+00
  0.00000000000000000E+00  0.00000000000000000E+00  0.00000000000000000E+00
  0.00000000000000000E+00  0.00000000000000000E+00  0.00000000000000000E+00
  0.00000000000000000E+00  0.00000000000000000E+00  0.00000000000000000E+00
  0.00000000000000000E+00  0.00000000000000000E+00  0.00000000000000000E+00
  0.00000000000000000E+00  0.00000000000000000E+00  0.00000000000000000E+00
  0.00000000000000000E+00  0.00000000000000000E+00  0.00000000000000000E+00
  0.00000000000000000E+00  0.00000000000000000E+00  0.00000000000000000E+00
  0.00000000000000000E+00  0.00000000000000000E+00  0.00000000000000000E+00
  0.00000000000000000E+00  0.00000000000000000E+00  0.00000000000000000E+00
  0.00000000000000000E+00  0.00000000000000000E+00  0.00000000000000000E+00
  0.00000000000000000E+00  0.00000000000000000E+00  0.00000000000000000E+00
  0.00000000000000000E+00  0.00000000000000000E+00  0.00000000000000000E+00
  0.00000000000000000E+00  0.00000000000000000E+00  0.00000000000000000E+00
  0.00000000000000000E+00  0.00000000000000000E+00  0.00000000000000000E+00
  0.00000000000000000E+00  0.00000000000000000E+00  0.00000000000000000E+00
  0.00000000000000000E+00  0.00000000000000000E+00  0.00000000000000000E+00
  0.00000000000000000E+00  0.00000000000000000E+00  0.00000000000000000E+00
  0.00000000000000000E+00  0.00000000000000000E+00  0.00000000000000000E+00
  0.00000000000000000E+00  0.00000000000000000E+00  0.00000000000000000E+00
  0.00000000000000000E+00  0.00000000000000000E+00  0.00000000000000000E+00
  0.00000000000000000E+00  0.00000000000000000E+00  0.00000000000000000E+00
  0.00000000000000000E+00  0.00000000000000000E+00  0.00000000000000000E+00
  0.00000000000000000E+00  0.00000000000000000E+00  0.00000000000000000E+00
  0.00000000000000000E+00  0.00000000000000000E+00  0.00000000000000000E+00
  0.00000000000000000E+00  0.00000000000000000E+00  0.00000000000000000E+00
  0.00000000000000000E+00  0.00000000000000000E+00  0.00000000000000000E+00
  0.00000000000000000E+00  0.00000000000000000E+00  0.00000000000000000E+00
  0.00000000000000000E+00  0.00000000000000000E+00  0.00000000000000000E+00
  0.00000000000000000E+00  0.00000000000000000E+00  0.00000000000000000E+00
  0.00000000000000000E+00  0.00000000000000000E+00  0.00000000000000000E+00
  0.00000000000000000E+00  0.00000000000000000E+00  0.00000000000000000E+00
  0.00000000000000000E+00  0.00000000000000000E+00  0.00000000000000000E+00
  0.00000000000000000E+00  0.00000000000000000E+00  0.00000000000000000E+00
  0.00000000000000000E+00  0.00000000000000000E+00  0.00000000000000000E+00
  0.00000000000000000E+00  0.00000000000000000E+00  0.00000000000000000E+00
  0.00000000000000000E+00  0.00000000000000000E+00  0.00000000000000000E+00
  0.00000000000000000E+00  0.00000000000000000E+00  0.00000000000000000E+00
  0.00000000000000000E+00  0.00000000000000000E+00  0.00000000000000000E+00
  0.00000000000000000E+00  0.00000000000000000E+00  0.00000000000000000E+00
  0.00000000000000000E+00  0.00000000000000000E+00  0.00000000000000000E+00
  0.00000000000000000E+00  0.00000000000000000E+00  0.00000000000000000E+00
  0.00000000000000000E+00  0.00000000000000000E+00  0.00000000000000000E+00
  0.00000000000000000E+00  0.00000000000000000E+00  0.00000000000000000E+00
  0.00000000000000000E+00  0.00000000000000000E+00  0.00000000000000000E+00
  0.00000000000000000E+00  0.00000000000000000E+00  0.00000000000000000E+00
  0.00000000000000000E+00  0.00000000000000000E+00  0.00000000000000000E+00
  0.00000000000000000E+00  0.00000000000000000E+00  0.00000000000000000E+00
  0.00000000000000000E+00  0.00000000000000000E+00  0.00000000000000000E+00
  0.00000000000000000E+00  0.00000000000000000E+00  0.00000000000000000E+00
  0.00000000000000000E+00  0.00000000000000000E+00  0.00000000000000000E+00
  0.00000000000000000E+00  0.00000000000000000E+00  0.00000000000000000E+00
  0.00000000000000000E+00  0.00000000000000000E+00  0.00000000000000000E+00
  0.00000000000000000E+00  0.00000000000000000E+00  0.00000000000000000E+00
  0.00000000000000000E+00  0.00000000000000000E+00  0.00000000000000000E+00
  0.00000000000000000E+00  0.00000000000000000E+00  0.00000000000000000E+00
  0.00000000000000000E+00  0.00000000000000000E+00  0.00000000000000000E+00
  0.00000000000000000E+00  0.00000000000000000E+00  0.00000000000000000E+00
  0.00000000000000000E+00  0.00000000000000000E+00  0.00000000000000000E+00
  0.00000000000000000E+00  0.00000000000000000E+00  0.00000000000000000E+00
  0.00000000000000000E+00  0.00000000000000000E+00  0.00000000000000000E+00
  0.00000000000000000E+00  0.00000000000000000E+00  0.00000000000000000E+00
  0.00000000000000000E+00  0.00000000000000000E+00  0.00000000000000000E+00
  0.00000000000000000E+00  0.00000000000000000E+00  0.00000000000000000E+00
  0.00000000000000000E+00  0.00000000000000000E+00  0.00000000000000000E+00
  0.00000000000000000E+00  0.00000000000000000E+00  0.00000000000000000E+00
  0.00000000000000000E+00  0.00000000000000000E+00  0.00000000000000000E+00
  0.00000000000000000E+00  0.00000000000000000E+00  0.00000000000000000E+00
  0.00000000000000000E+00  0.00000000000000000E+00  0.00000000000000000E+00
  0.00000000000000000E+00  0.00000000000000000E+00  0.00000000000000000E+00
  0.00000000000000000E+00  0.00000000000000000E+00  0.00000000000000000E+00
  0.00000000000000000E+00  0.00000000000000000E+00  0.00000000000000000E+00
  0.00000000000000000E+00  0.00000000000000000E+00  0.00000000000000000E+00
  0.00000000000000000E+00  0.00000000000000000E+00  0.00000000000000000E+00
  0.00000000000000000E+00  0.00000000000000000E+00  0.00000000000000000E+00
  0.00000000000000000E+00  0.00000000000000000E+00  0.00000000000000000E+00
  0.00000000000000000E+00  0.00000000000000000E+00  0.00000000000000000E+00
  0.00000000000000000E+00  0.00000000000000000E+00  0.00000000000000000E+00
  0.00000000000000000E+00  0.00000000000000000E+00  0.00000000000000000E+00
  0.00000000000000000E+00  0.00000000000000000E+00  0.00000000000000000E+00
  0.00000000000000000E+00  0.00000000000000000E+00  0.00000000000000000E+00
  0.00000000000000000E+00  0.00000000000000000E+00  0.00000000000000000E+00
  0.00000000000000000E+00  0.00000000000000000E+00  0.00000000000000000E+00
  0.00000000000000000E+00  0.00000000000000000E+00  0.00000000000000000E+00
  0.00000000000000000E+00  0.00000000000000000E+00  0.00000000000000000E+00
  0.00000000000000000E+00  0.00000000000000000E+00  0.00000000000000000E+00
  0.00000000000000000E+00  0.00000000000000000E+00  0.00000000000000000E+00
  0.00000000000000000E+00  0.00000000000000000E+00  0.00000000000000000E+00
  0.00000000000000000E+00  0.00000000000000000E+00  0.00000000000000000E+00
  0.00000000000000000E+00  0.00000000000000000E+00  0.00000000000000000E+00
  0.00000000000000000E+00  0.00000000000000000E+00  0.00000000000000000E+00
  0.00000000000000000E+00  0.00000000000000000E+00  0.00000000000000000E+00
  0.00000000000000000E+00  0.00000000000000000E+00  0.00000000000000000E+00
  0.00000000000000000E+00  0.00000000000000000E+00  0.00000000000000000E+00
  0.00000000000000000E+00  0.00000000000000000E+00  0.00000000000000000E+00
  0.00000000000000000E+00  0.00000000000000000E+00  0.00000000000000000E+00
  0.00000000000000000E+00  0.00000000000000000E+00  0.00000000000000000E+00
  0.00000000000000000E+00  0.00000000000000000E+00  0.00000000000000000E+00
  0.00000000000000000E+00  0.00000000000000000E+00  0.00000000000000000E+00
  0.00000000000000000E+00  0.00000000000000000E+00  0.00000000000000000E+00
  0.00000000000000000E+00  0.00000000000000000E+00  0.00000000000000000E+00
                             </PP_NLCC> 
 <PP_LOCAL type="real" size="   888" columns="3">
 -1.24497241745518537E+01 -1.24497241682921267E+01 -1.24497241618739327E+01
 -1.24497241552932660E+01 -1.24497241485460197E+01 -1.24497241416279731E+01
 -1.24497241345347955E+01 -1.24497241272620496E+01 -1.24497241198051913E+01
 -1.24497241121595632E+01 -1.24497241043203850E+01 -1.24497240962827558E+01
 -1.24497240880416484E+01 -1.24497240795919115E+01 -1.24497240709282657E+01
 -1.24497240620452949E+01 -1.24497240529374515E+01 -1.24497240435990477E+01
 -1.24497240340242499E+01 -1.24497240242070699E+01 -1.24497240141413670E+01
 -1.24497240038208457E+01 -1.24497239932390595E+01 -1.24497239823893953E+01
 -1.24497239712650654E+01 -1.24497239598591154E+01 -1.24497239481644186E+01
 -1.24497239361736689E+01 -1.24497239238793753E+01 -1.24497239112738587E+01
 -1.24497238983492355E+01 -1.24497238850974270E+01 -1.24497238715101446E+01
 -1.24497238575788920E+01 -1.24497238432949633E+01 -1.24497238286494287E+01
 -1.24497238136331365E+01 -1.24497237982367075E+01 -1.24497237824505262E+01
 -1.24497237662647287E+01 -1.24497237496691948E+01 -1.24497237326535437E+01
 -1.24497237152071278E+01 -1.24497236973190404E+01 -1.24497236789780992E+01
 -1.24497236601728503E+01 -1.24497236408915608E+01 -1.24497236211221818E+01
 -1.24497236008523391E+01 -1.24497235800693495E+01 -1.24497235587602297E+01
 -1.24497235369116748E+01 -1.24497235145100440E+01 -1.24497234915413131E+01
 -1.24497234679910829E+01 -1.24497234438446505E+01 -1.24497234190869630E+01
 -1.24497233937025875E+01 -1.24497233676756451E+01 -1.24497233409897596E+01
 -1.24497233136282546E+01 -1.24497232855741213E+01 -1.24497232568098504E+01
 -1.24497232273174383E+01 -1.24497231970783719E+01 -1.24497231660737651E+01
 -1.24497231342843140E+01 -1.24497231016900969E+01 -1.24497230682707247E+01
 -1.24497230340053857E+01 -1.24497229988726357E+01 -1.24497229628504478E+01
 -1.24497229259162996E+01 -1.24497228880471713E+01 -1.24497228492194552E+01
 -1.24497228094088292E+01 -1.24497227685903962E+01 -1.24497227267386297E+01
 -1.24497226838272912E+01 -1.24497226398296092E+01 -1.24497225947181764E+01
 -1.24497225484648357E+01 -1.24497225010405845E+01 -1.24497224524157168E+01
 -1.24497224025598516E+01 -1.24497223514419044E+01 -1.24497222990299985E+01
 -1.24497222452913050E+01 -1.24497221901920625E+01 -1.24497221336979340E+01
 -1.24497220757737495E+01 -1.24497220163832623E+01 -1.24497219554892080E+01
 -1.24497218930536082E+01 -1.24497218290374771E+01 -1.24497217634007953E+01
 -1.24497216961025163E+01 -1.24497216271005318E+01 -1.24497215563516974E+01
 -1.24497214838119135E+01 -1.24497214094357886E+01 -1.24497213331767718E+01
 -1.24497212549872920E+01 -1.24497211748184817E+01 -1.24497210926200470E+01
 -1.24497210083408572E+01 -1.24497209219281455E+01 -1.24497208333277225E+01
 -1.24497207424844678E+01 -1.24497206493417085E+01 -1.24497205538407325E+01
 -1.24497204559219874E+01 -1.24497203555248923E+01 -1.24497202525861432E+01
 -1.24497201470411163E+01 -1.24497200388244451E+01 -1.24497199278682977E+01
 -1.24497198141031742E+01 -1.24497196974581250E+01 -1.24497195778601810E+01
 -1.24497194552345878E+01 -1.24497193295046866E+01 -1.24497192005920017E+01
 -1.24497190684158987E+01 -1.24497189328935605E+01 -1.24497187939405940E+01
 -1.24497186514699205E+01 -1.24497185053925126E+01 -1.24497183556173177E+01
 -1.24497182020504642E+01 -1.24497180445961089E+01 -1.24497178831556869E+01
 -1.24497177176284612E+01 -1.24497175479108790E+01 -1.24497173738965525E+01
 -1.24497171954774171E+01 -1.24497170125415231E+01 -1.24497168249743897E+01
 -1.24497166326592001E+01 -1.24497164354753291E+01 -1.24497162332998279E+01
 -1.24497160260060991E+01 -1.24497158134647350E+01 -1.24497155955430028E+01
 -1.24497153721044906E+01 -1.24497151430092661E+01 -1.24497149081146574E+01
 -1.24497146672741259E+01 -1.24497144203362851E+01 -1.24497141671468992E+01
 -1.24497139075480181E+01 -1.24497136413779366E+01 -1.24497133684693768E+01
 -1.24497130886517660E+01 -1.24497128017509766E+01 -1.24497125075870443E+01
 -1.24497122059762688E+01 -1.24497118967303226E+01 -1.24497115796555704E+01
 -1.24497112545541651E+01 -1.24497109212226587E+01 -1.24497105794527432E+01
 -1.24497102290311279E+01 -1.24497098697380828E+01 -1.24497095013497781E+01
 -1.24497091236357207E+01 -1.24497087363598489E+01 -1.24497083392792582E+01
 -1.24497079321471364E+01 -1.24497075147086651E+01 -1.24497070867020501E+01
 -1.24497066478603884E+01 -1.24497061979094390E+01 -1.24497057365684487E+01
 -1.24497052635478678E+01 -1.24497047785522827E+01 -1.24497042812802050E+01
 -1.24497037714186938E+01 -1.24497032486497599E+01 -1.24497027126470758E+01
 -1.24497021630755764E+01 -1.24497015995913198E+01 -1.24497010218423600E+01
 -1.24497004294675673E+01 -1.24496998220967168E+01 -1.24496991993496167E+01
 -1.24496985608381259E+01 -1.24496979061628252E+01 -1.24496972349132999E+01
 -1.24496965466712872E+01 -1.24496958410064682E+01 -1.24496951174778019E+01
 -1.24496943756322000E+01 -1.24496936150063995E+01 -1.24496928351261147E+01
 -1.24496920355020197E+01 -1.24496912156358430E+01 -1.24496903750138621E+01
 -1.24496895131115739E+01 -1.24496886293906446E+01 -1.24496877232966145E+01
 -1.24496867942660483E+01 -1.24496858417155458E+01 -1.24496848650516281E+01
 -1.24496838636629388E+01 -1.24496828369236283E+01 -1.24496817841921370E+01
 -1.24496807048106941E+01 -1.24496795981037813E+01 -1.24496784633807973E+01
 -1.24496772999312366E+01 -1.24496761070289992E+01 -1.24496748839276563E+01
 -1.24496736298632733E+01 -1.24496723440515051E+01 -1.24496710256895522E+01
 -1.24496696739515826E+01 -1.24496682879948395E+01 -1.24496668669515316E+01
 -1.24496654099342710E+01 -1.24496639160311169E+01 -1.24496623843104466E+01
 -1.24496608138123790E+01 -1.24496592035570472E+01 -1.24496575525371878E+01
 -1.24496558597209201E+01 -1.24496541240502658E+01 -1.24496523444399436E+01
 -1.24496505197788174E+01 -1.24496486489238514E+01 -1.24496467307088938E+01
 -1.24496447639318415E+01 -1.24496427473661040E+01 -1.24496406797487893E+01
 -1.24496385597887187E+01 -1.24496363861612256E+01 -1.24496341575069991E+01
 -1.24496318724316648E+01 -1.24496295295104140E+01 -1.24496271272747752E+01
 -1.24496246642262438E+01 -1.24496221388227912E+01 -1.24496195494883981E+01
 -1.24496168946025847E+01 -1.24496141725060845E+01 -1.24496113814982241E+01
 -1.24496085198343813E+01 -1.24496055857241874E+01 -1.24496025773358880E+01
 -1.24495994927874882E+01 -1.24495963301511186E+01 -1.24495930874501575E+01
 -1.24495897626582064E+01 -1.24495863536948619E+01 -1.24495828584317128E+01
 -1.24495792746833924E+01 -1.24495756002074955E+01 -1.24495718327107898E+01
 -1.24495679698348862E+01 -1.24495640091674336E+01 -1.24495599482310180E+01
 -1.24495557844889451E+01 -1.24495515153364718E+01 -1.24495471381061140E+01
 -1.24495426500622326E+01 -1.24495380483976579E+01 -1.24495333302367417E+01
 -1.24495284926311491E+01 -1.24495235325548723E+01 -1.24495184469083231E+01
 -1.24495132325132047E+01 -1.24495078861083712E+01 -1.24495024043525433E+01
 -1.24494967838192636E+01 -1.24494910209938823E+01 -1.24494851122750330E+01
 -1.24494790539686520E+01 -1.24494728422877650E+01 -1.24494664733478491E+01
 -1.24494599431703161E+01 -1.24494532476697533E+01 -1.24494463826622255E+01
 -1.24494393438573994E+01 -1.24494321268513986E+01 -1.24494247271360337E+01
 -1.24494171400831597E+01 -1.24494093609515506E+01 -1.24494013848760670E+01
 -1.24493932068721964E+01 -1.24493848218256797E+01 -1.24493762244964792E+01
 -1.24493674095075075E+01 -1.24493583713501099E+01 -1.24493491043719189E+01
 -1.24493396027808263E+01 -1.24493298606357712E+01 -1.24493198718468232E+01
 -1.24493096301684893E+01 -1.24492991291975699E+01 -1.24492883623698010E+01
 -1.24492773229525504E+01 -1.24492660040452066E+01 -1.24492543985693427E+01
 -1.24492424992714543E+01 -1.24492302987089136E+01 -1.24492177892566573E+01
 -1.24492049630907697E+01 -1.24491918121932468E+01 -1.24491783283420006E+01
 -1.24491645031047469E+01 -1.24491503278391296E+01 -1.24491357936807070E+01
 -1.24491208915417833E+01 -1.24491056121057131E+01 -1.24490899458163859E+01
 -1.24490738828815122E+01 -1.24490574132536711E+01 -1.24490405266362281E+01
 -1.24490232124709035E+01 -1.24490054599276885E+01 -1.24489872579092058E+01
 -1.24489685950327065E+01 -1.24489494596263430E+01 -1.24489298397247783E+01
 -1.24489097230589731E+01 -1.24488890970496975E+01 -1.24488679487968739E+01
 -1.24488462650760621E+01 -1.24488240323263515E+01 -1.24488012366446608E+01
 -1.24487778637731896E+01 -1.24487538990960118E+01 -1.24487293276242834E+01
 -1.24487041339912423E+01 -1.24486783024396637E+01 -1.24486518168138289E+01
 -1.24486246605481803E+01 -1.24485968166562273E+01 -1.24485682677248057E+01
 -1.24485389958952073E+01 -1.24485089828590763E+01 -1.24484782098423921E+01
 -1.24484466575960191E+01 -1.24484143063844073E+01 -1.24483811359690026E+01
 -1.24483471256003249E+01 -1.24483122540023903E+01 -1.24482764993613255E+01
 -1.24482398393073890E+01 -1.24482022509059078E+01 -1.24481637106427065E+01
 -1.24481241944037695E+01 -1.24480836774645063E+01 -1.24480421344771894E+01
 -1.24479995394470340E+01 -1.24479558657233831E+01 -1.24479110859768607E+01
 -1.24478651721895659E+01 -1.24478180956277491E+01 -1.24477698268365771E+01
 -1.24477203356041102E+01 -1.24476695909625441E+01 -1.24476175611523043E+01
 -1.24475642136109634E+01 -1.24475095149493420E+01 -1.24474534309323825E+01
 -1.24473959264568848E+01 -1.24473369655264090E+01 -1.24472765112358434E+01
 -1.24472145257417282E+01 -1.24471509702390435E+01 -1.24470858049398405E+01
 -1.24470189890503597E+01 -1.24469504807337952E+01 -1.24468802370992275E+01
 -1.24468082141643652E+01 -1.24467343668282187E+01 -1.24466586488519333E+01
 -1.24465810128158676E+01 -1.24465014101025631E+01 -1.24464197908570533E+01
 -1.24463361039585632E+01 -1.24462502969941724E+01 -1.24461623162106694E+01
 -1.24460721064988835E+01 -1.24459796113468268E+01 -1.24458847728069077E+01
 -1.24457875314599136E+01 -1.24456878263792881E+01 -1.24455855950912717E+01
 -1.24454807735304840E+01 -1.24453732960116259E+01 -1.24452630951726686E+01
 -1.24451501019461528E+01 -1.24450342455075909E+01 -1.24449154532301147E+01
 -1.24447936506454422E+01 -1.24446687613902185E+01 -1.24445407071580334E+01
 -1.24444094076561456E+01 -1.24442747805474365E+01 -1.24441367413991752E+01
 -1.24439952036360637E+01 -1.24438500784787571E+01 -1.24437012748898361E+01
 -1.24435486995124798E+01 -1.24433922566207400E+01 -1.24432318480480983E+01
 -1.24430673731325658E+01 -1.24428987286473056E+01 -1.24427258087410930E+01
 -1.24425485048625468E+01 -1.24423667057043499E+01 -1.24421802971143993E+01
 -1.24419891620428231E+01 -1.24417931804501762E+01 -1.24415922292434669E+01
 -1.24413861821901666E+01 -1.24411749098433599E+01 -1.24409582794526656E+01
 -1.24407361548861317E+01 -1.24405083965388616E+01 -1.24402748612473264E+01
 -1.24400354021919846E+01 -1.24397898688130937E+01 -1.24395381067033135E+01
 -1.24392799575179485E+01 -1.24390152588664744E+01 -1.24387438442171447E+01
 -1.24384655427796069E+01 -1.24381801794030888E+01 -1.24378875744606407E+01
 -1.24375875437372905E+01 -1.24372798983039132E+01 -1.24369644444071277E+01
 -1.24366409833330902E+01 -1.24363093112851946E+01 -1.24359692192559681E+01
 -1.24356204928856933E+01 -1.24352629123244931E+01 -1.24348962520970527E+01
 -1.24345202809504567E+01 -1.24341347617057068E+01 -1.24337394511055113E+01
 -1.24333340996565518E+01 -1.24329184514645288E+01 -1.24324922440768599E+01
 -1.24320552082967239E+01 -1.24316070680242206E+01 -1.24311475400670837E+01
 -1.24306763339582176E+01 -1.24301931517652129E+01 -1.24296976879013830E+01
 -1.24291896289178467E+01 -1.24286686533025215E+01 -1.24281344312716975E+01
 -1.24275866245500843E+01 -1.24270248861489865E+01 -1.24264488601416438E+01
 -1.24258581814274720E+01 -1.24252524754871363E+01 -1.24246313581406351E+01
 -1.24239944352974501E+01 -1.24233413026834203E+01 -1.24226715455866188E+01
 -1.24219847385722044E+01 -1.24212804452079961E+01 -1.24205582177699974E+01
 -1.24198175969423588E+01 -1.24190581115205845E+01 -1.24182792780838440E+01
 -1.24174806006831968E+01 -1.24166615705046564E+01 -1.24158216655287408E+01
 -1.24149603501796459E+01 -1.24140770749666309E+01 -1.24131712761118411E+01
 -1.24122423751745625E+01 -1.24112897786511063E+01 -1.24103128775847704E+01
 -1.24093110471470123E+01 -1.24082836462109771E+01 -1.24072300169195522E+01
 -1.24061494842375986E+01 -1.24050413554867962E+01 -1.24039049198763109E+01
 -1.24027394480120510E+01 -1.24015441914020812E+01 -1.24003183819311857E+01
 -1.23990612313444881E+01 -1.23977719306948391E+01 -1.23964496497827152E+01
 -1.23950935365871899E+01 -1.23937027166694911E+01 -1.23922762925617871E+01
 -1.23908133431509171E+01 -1.23893129230207482E+01 -1.23877740618044712E+01
 -1.23861957634899760E+01 -1.23845770057329911E+01 -1.23829167391204269E+01
 -1.23812138864449679E+01 -1.23794673419281676E+01 -1.23776759704474451E+01
 -1.23758386067194781E+01 -1.23739540544696229E+01 -1.23720210855890134E+01
 -1.23700384392336620E+01 -1.23680048209429607E+01 -1.23659189016845552E+01
 -1.23637793169133285E+01 -1.23615846655784036E+01 -1.23593335090992724E+01
 -1.23570243703370508E+01 -1.23546557325028257E+01 -1.23522260380597295E+01
 -1.23497336875759576E+01 -1.23471770385579180E+01 -1.23445544042367956E+01
 -1.23418640523296279E+01 -1.23391042037545997E+01 -1.23362730313146383E+01
 -1.23333686583453996E+01 -1.23303891573084918E+01 -1.23273325483677816E+01
 -1.23241967978939346E+01 -1.23209798169542477E+01 -1.23176794597362615E+01
 -1.23142935219334344E+01 -1.23108197390881653E+01 -1.23072557848750428E+01
 -1.23035992693412659E+01 -1.22998477370987445E+01 -1.22959986654468718E+01
 -1.22920494624659771E+01 -1.22879974650263897E+01 -1.22838399367674995E+01
 -1.22795740659969415E+01 -1.22751969635335492E+01 -1.22707056605025908E+01
 -1.22660971060420820E+01 -1.22613681649694772E+01 -1.22565156153588468E+01
 -1.22515361460693004E+01 -1.22464263541858216E+01 -1.22411827423971946E+01
 -1.22358017163086696E+01 -1.22302795816532797E+01 -1.22246125414582796E+01
 -1.22187966931123864E+01 -1.22128280253622687E+01 -1.22067024152216295E+01
 -1.22004156248020923E+01 -1.21939632980677821E+01 -1.21873409574859792E+01
 -1.21805440006106362E+01 -1.21735676965674262E+01 -1.21664071824565614E+01
 -1.21590574596618808E+01 -1.21515133900770316E+01 -1.21437696922355247E+01
 -1.21358209373535590E+01 -1.21276615452829528E+01 -1.21192857803791707E+01
 -1.21106877472665833E+01 -1.21018613865314997E+01 -1.20928004703177461E+01
 -1.20834985978459670E+01 -1.20739491908338223E+01 -1.20641454888593191E+01
 -1.20540805446195467E+01 -1.20437472191428725E+01 -1.20331381769097554E+01
 -1.20222458809148982E+01 -1.20110625876830870E+01 -1.19995803422163334E+01
 -1.19877909729008856E+01 -1.19756860863858634E+01 -1.19632570624218992E+01
 -1.19504950487038570E+01 -1.19373909556805682E+01 -1.19239354514026239E+01
 -1.19101189563770120E+01 -1.18959316384757372E+01 -1.18813634078825707E+01
 -1.18664039121405143E+01 -1.18510425312990666E+01 -1.18352683731689510E+01
 -1.18190702687422444E+01 -1.18024367678047941E+01 -1.17853561347445819E+01
 -1.17678163446142037E+01 -1.17498050794825399E+01 -1.17313097251274403E+01
 -1.17123173680883355E+01 -1.16928147931282567E+01 -1.16727884812193441E+01
 -1.16522246080255290E+01 -1.16311090429976751E+01 -1.16094273491188957E+01
 -1.15871647834242104E+01 -1.15643062983295266E+01 -1.15408365438368588E+01
 -1.15167398707440363E+01 -1.14920003350331754E+01 -1.14666017033508219E+01
 -1.14405274598588242E+01 -1.14137608145320364E+01 -1.13862847130849829E+01
 -1.13580818485032857E+01 -1.13291346745126784E+01 -1.12994254211198566E+01
 -1.12689361123484417E+01 -1.12376485862822211E+01 -1.12055445177889013E+01
 -1.11726054441194353E+01 -1.11388127934232575E+01 -1.11041479165210681E+01
 -1.10685921223163497E+01 -1.10321267170671327E+01 -1.09947330475248926E+01
 -1.09563925485751366E+01 -1.09170867957268918E+01 -1.08767975625843167E+01
 -1.08355068835507424E+01 -1.07931971224918755E+01 -1.07498510477505356E+01
 -1.07054519134331052E+01 -1.06599835477299489E+01 -1.06134304488538440E+01
 -1.05657778889587455E+01 -1.05170120259771611E+01 -1.04671200243599714E+01
 -1.04160901853430712E+01 -1.03639120865705099E+01 -1.03105767313907357E+01
 -1.02560767087078357E+01 -1.02004063636257012E+01 -1.01435619780932065E+01
 -1.00855419620378388E+01 -1.00263470550808051E+01 -9.96598053800052064E+00
 -9.90444845203628610E+00 -9.84175982567155749E+00 -9.77792690693592448E+00
 -9.71296539734022879E+00 -9.64689468355366131E+00 -9.57973806244688575E+00
 -9.51152295266620662E+00 -9.44228108274968037E+00 -9.37204864597902620E+00
 -9.30086640850952229E+00 -9.22877975338873746E+00 -9.15583864018423554E+00
 -9.08209745715298666E+00 -9.00761473715396122E+00 -8.93245270582333539E+00
 -8.85667662845005843E+00 -8.78035391781469698E+00 -8.70355296412459190E+00
 -8.62634165895297755E+00 -8.54878558579318160E+00 -8.47094586131217397E+00
 -8.39287663842388376E+00 -8.31462232064591333E+00 -8.23621455735355745E+00
 -8.15766914385908848E+00 -8.07898303014495767E+00 -8.00013168345540038E+00
 -7.92106709851292301E+00 -7.84171681229040995E+00 -7.76198431915632980E+00
 -7.68175121802327077E+00 -7.60088137929631102E+00 -7.51922728972145915E+00
 -7.43663848959329510E+00 -7.35297173452955377E+00 -7.26810218386699169E+00
 -7.18193445685497611E+00 -7.09441202258995229E+00 -7.00552305407182541E+00
 -6.91530056684852390E+00 -6.82381455473001441E+00 -6.73115418589749837E+00
 -6.63739884398227264E+00 -6.54257894610296376E+00 -6.44663289892945723E+00
 -6.34937985900021129E+00 -6.25056266344871680E+00 -6.15010452582296452E+00
 -6.04894569506757485E+00 -5.95136042125604359E+00 -5.87075743526819949E+00
 -5.84215581807158735E+00 -5.93960277475448262E+00 -6.25679187261523317E+00
 -6.71038912614399141E+00 -6.76593991663483152E+00 -5.83088088123132220E+00
 -5.58960640789572061E+00 -5.53015750778480353E+00 -5.46710419721021434E+00
 -5.40463922750008319E+00 -5.34263619234986464E+00 -5.28078813278440151E+00
 -5.21884589583855796E+00 -5.15664690780383861E+00 -5.09415423720492111E+00
 -5.03150734574235781E+00 -4.96908593701629009E+00 -4.90735893748606777E+00
 -4.84639874444003471E+00 -4.78619581232295133E+00 -4.72674073287261276E+00
 -4.66802421652284316E+00 -4.61003708859461181E+00 -4.55277028802050232E+00
 -4.49621486707377471E+00 -4.44036198911147828E+00 -4.38520292669824308E+00
 -4.33072906088271115E+00 -4.27693188046068773E+00 -4.22380297954673711E+00
 -4.17133405621677777E+00 -4.11951691221005234E+00 -4.06834345133558717E+00
 -4.01780567746926121E+00 -3.96789569362157701E+00 -3.91860570162162780E+00
 -3.86992799995576275E+00 -3.82185498230258602E+00 -3.77437913706890438E+00
 -3.72749304643638490E+00 -3.68118938431298304E+00 -3.63546091527943993E+00
 -3.59030049438254784E+00 -3.54570106545387942E+00 -3.50165565952592761E+00
 -3.45815739417842627E+00 -3.41519947307352645E+00 -3.37277518400696907E+00
 -3.33087789776830645E+00 -3.28950106786250673E+00 -3.24863822937191360E+00
 -3.20828299728883470E+00 -3.16842906571874305E+00 -3.12907020767217681E+00
 -3.09020027339212344E+00 -3.05181318912601718E+00 -3.01390295670474506E+00
 -2.97646365288667392E+00 -2.93948942769178956E+00 -2.90297450351926489E+00
 -2.86691317497609122E+00 -2.83129980761678590E+00 -2.79612883662685752E+00
 -2.76139476625778890E+00 -2.72709216951732625E+00 -2.69321568662055721E+00
 -2.65976002404364076E+00 -2.62671995427492844E+00 -2.59409031498321729E+00
 -2.56186600765250594E+00 -2.53004199691574794E+00 -2.49861331040404711E+00
 -2.46757503745212547E+00 -2.43692232808145892E+00 -2.40665039262953195E+00
 -2.37675450128716337E+00 -2.34722998275025052E+00 -2.31807222366915111E+00
 -2.28927666796257467E+00 -2.26083881652143814E+00 -2.23275422576604443E+00
 -2.20501850724003257E+00 -2.17762732739677300E+00 -2.15057640637193792E+00
 -2.12386151720613947E+00 -2.09747848562964734E+00 -2.07142318944272841E+00
 -2.04569155740643271E+00 -2.02027956869487557E+00 -1.99518325278082775E+00
 -1.97039868842663290E+00 -1.94592200285244621E+00 -1.92174937142724889E+00
 -1.89787701732805947E+00 -1.87430121046066112E+00 -1.85101826686592230E+00
 -1.82802454859879782E+00 -1.80531646299208925E+00 -1.78289046177788024E+00
 -1.76074304069625409E+00 -1.73887073933671488E+00 -1.71727014016383572E+00
 -1.69593786788513268E+00 -1.67487058926972954E+00 -1.65406501267695050E+00
 -1.63351788716096880E+00 -1.61322600202562150E+00 -1.59318618673507362E+00
 -1.57339531012175615E+00 -1.55385027971135670E+00 -1.53454804146840340E+00
 -1.51548557953844409E+00 -1.49665991538435406E+00 -1.47806810730570337E+00
 -1.45970725033920257E+00 -1.44157447568411334E+00 -1.42366694999411858E+00
 -1.40598187505787964E+00 -1.38851648767982616E+00 -1.37126805890517400E+00
 -1.35423389350959233E+00 -1.33741132985018818E+00 -1.32079773949948742E+00
 -1.30439052652679144E+00 -1.28818712713840866E+00 -1.27218500960761127E+00
 -1.25638167364803066E+00 -1.24077464987044617E+00 -1.22536149957541340E+00
 -1.21013981455431940E+00 -1.19510721639845663E+00 -1.18026135611255079E+00
 -1.16559991403416063E+00 -1.15112059938050071E+00 -1.13682114967952730E+00
 -1.12269933051316873E+00 -1.10875293542429820E+00 -1.09497978529922246E+00
 -1.08137772795809961E+00 -1.06794463803456829E+00 -1.05467841668703799E+00
 -1.04157699102342916E+00 -1.02863831381264847E+00 -1.01586036342918562E+00
 -1.00324114335435177E+00 -9.90778681741154243E-01 -9.78471031247936107E-01
 -9.66316268881118212E-01 -9.54312495443073061E-01 -9.42457835223006302E-01
 -9.30750435932500619E-01 -9.19188468344526499E-01 -9.07770125838561204E-01
 -8.96493624195436989E-01 -8.85357201523346404E-01 -8.74359117764704763E-01
 -8.63497654368934442E-01 -8.52771114196626767E-01 -8.42177821288736195E-01
 -8.31716120407182347E-01 -8.21384376804731198E-01 -8.11180976180890023E-01
 -8.01104324282929325E-01 -7.91152846558790590E-01 -7.81324988024949429E-01
 -7.71619213139898341E-01 -7.62034005363213196E-01 -7.52567866909269689E-01
 -7.43219318696325404E-01 -7.33986900056670888E-01 -7.24869168374092432E-01
 -7.15864698921008236E-01 -7.06972084798566325E-01 -6.98189936542111700E-01
 -6.89516881860789743E-01 -6.80951565562085470E-01 -6.72492649365332484E-01
 -6.64138811535545770E-01 -6.55888746700651892E-01 -6.47741165816260733E-01
 -6.39694795845188402E-01 -6.31748379481538391E-01 -6.23900675046589193E-01
 -6.16150456385594847E-01 -6.08496512515823151E-01 -6.00937647430968003E-01
 -5.93472680061303270E-01 -5.86100444039503787E-01 -5.78819787412470199E-01
 -5.71629572512712292E-01 -5.64528675909137911E-01 -5.57515988091021764E-01
 -5.50590413261402234E-01 -5.43750869278222915E-01 -5.36996287502383485E-01
                             </PP_LOCAL> 
<PP_NONLOCAL> 
 <PP_BETA.1 type="real" size="   888" angular_momentum="0" columns="3" cutoff_radius_index="   711" norm_conserving_radius="    1.607276" label= "1S">
  4.43773876925636877E-03  4.49355863212322522E-03  4.55008062169678582E-03
  4.60731356961577646E-03  4.66526641860620563E-03  4.72394822387860527E-03
  4.78336815454288248E-03  4.84353549504095132E-03  4.90445964659737797E-03
  4.96615012868830037E-03  5.02861658052877140E-03  5.09186876257885449E-03
  5.15591655806864335E-03  5.22076997454245465E-03  5.28643914542247396E-03
  5.35293433159201356E-03  5.42026592299873437E-03  5.48844444027800707E-03
  5.55748053639669014E-03  5.62738499831760570E-03  5.69816874868489965E-03
  5.76984284753064534E-03  5.84241849400288834E-03  5.91590702811543075E-03
  5.99031993251963445E-03  6.06566883429846687E-03  6.14196550678315807E-03
  6.21922187139267637E-03  6.29744999949633996E-03  6.37666211429988635E-03
  6.45687059275519386E-03  6.53808796749409411E-03  6.62032692878645416E-03
  6.70360032652290994E-03  6.78792117222254063E-03  6.87330264106574516E-03
  6.95975807395273621E-03  7.04730097958790758E-03  7.13594503659039682E-03
  7.22570409563123503E-03  7.31659218159729126E-03  7.40862349578251447E-03
  7.50181241810668736E-03  7.59617350936208583E-03  7.69172151348843439E-03
  7.78847135987638210E-03  7.88643816570002397E-03  7.98563723827873037E-03
  8.08608407746866202E-03  8.18779437808440751E-03  8.29078403235098370E-03
  8.39506913238676281E-03  8.50066597271756201E-03  8.60759105282236925E-03
  8.71586107971110934E-03  8.82549297053474881E-03  8.93650385522830326E-03
  9.04891107918704037E-03  9.16273220597630875E-03  9.27798502007550971E-03
  9.39468752965649107E-03  9.51285796939695290E-03  9.63251480332917923E-03
  9.75367672772459345E-03  9.87636267401462500E-03  1.00005918117482273E-02
  1.01263835515866506E-02  1.02537575483358390E-02  1.03827337040169436E-02
  1.05133321709754979E-02  1.06455733550295910E-02  1.07794779186577028E-02
  1.09150667842265875E-02  1.10523611372597193E-02  1.11913824297469044E-02
  1.13321523834953846E-02  1.14746929935231751E-02  1.16190265314950227E-02
  1.17651755492015550E-02  1.19131628820821813E-02  1.20630116527922424E-02
  1.22147452748150760E-02  1.23683874561194337E-02  1.25239622028628719E-02
  1.26814938231417512E-02  1.28410069307882870E-02  1.30025264492154412E-02
  1.31660776153100217E-02  1.33316859833747803E-02  1.34993774291201490E-02
  1.36691781537059600E-02  1.38411146878340951E-02  1.40152138958925410E-02
  1.41915029801515710E-02  1.43700094850126008E-02  1.45507613013104581E-02
  1.47337866706697684E-02  1.49191141899160124E-02  1.51067728155421070E-02
  1.52967918682311091E-02  1.54892010374356355E-02  1.56840303860149577E-02
  1.58813103549303204E-02  1.60810717679992707E-02  1.62833458367097166E-02
  1.64881641650945245E-02  1.66955587546671995E-02  1.69055620094198146E-02
  1.71182067408836153E-02  1.73335261732531498E-02  1.75515539485748412E-02
  1.77723241320008225E-02  1.79958712171085985E-02  1.82222301312875978E-02
  1.84514362411935910E-02  1.86835253582712663E-02  1.89185337443464018E-02
  1.91564981172883016E-02  1.93974556567431886E-02  1.96414440099398312E-02
  1.98885012975678239E-02  2.01386661197298297E-02  2.03919775619686751E-02
  2.06484752013699167E-02  2.09081991127411902E-02  2.11711898748690626E-02
  2.14374885768544785E-02  2.17071368245278402E-02  2.19801767469444062E-02
  2.22566510029615222E-02  2.25366027878981245E-02  2.28200758402780542E-02
  2.31071144486579977E-02  2.33977634585409433E-02  2.36920682793766157E-02
  2.39900748916498097E-02  2.42918298540572737E-02  2.45973803107752513E-02
  2.49067739988177335E-02  2.52200592554871934E-02  2.55372850259190237E-02
  2.58585008707201275E-02  2.61837569737038769E-02  2.65131041497217342E-02
  2.68465938525932167E-02  2.71842781831354331E-02  2.75262098972930760E-02
  2.78724424143705664E-02  2.82230298253673823E-02  2.85780269014179050E-02
  2.89374891023370558E-02  2.93014725852729016E-02  2.96700342134681404E-02
  3.00432315651309699E-02  3.04211229424174202E-02  3.08037673805261272E-02
  3.11912246569070600E-02  3.15835553005856529E-02  3.19808206016037946E-02
  3.23830826205791511E-02  3.27904041983839503E-02  3.32028489659453169E-02
  3.36204813541680914E-02  3.40433666039820018E-02  3.44715707765146928E-02
  3.49051607633920555E-02  3.53442042971673573E-02  3.57887699618810937E-02
  3.62389272037528035E-02  3.66947463420069370E-02  3.71562985798339976E-02
  3.76236560154885186E-02  3.80968916535263796E-02  3.85760794161824003E-02
  3.90612941548899584E-02  3.95526116619451390E-02  4.00501086823162183E-02
  4.05538629256009392E-02  4.10639530781330836E-02  4.15804588152407714E-02
  4.21034608136570468E-02  4.26330407640861594E-02  4.31692813839265679E-02
  4.37122664301524688E-02  4.42620807123568286E-02  4.48188101059564040E-02
  4.53825415655619499E-02  4.59533631385153074E-02  4.65313639785948363E-02
  4.71166343598924259E-02  4.77092656908629648E-02  4.83093505285492261E-02
  4.89169825929836530E-02  4.95322567817699858E-02  5.01552691848465015E-02
  5.07861170994324401E-02  5.14248990451613222E-02  5.20717147794020063E-02
  5.27266653127707319E-02  5.33898529248358414E-02  5.40613811800180824E-02
  5.47413549436882377E-02  5.54298803984648730E-02  5.61270650607149091E-02
  5.68330177972586753E-02  5.75478488422826867E-02  5.82716698144619405E-02
  5.90045937342953269E-02  5.97467350416550844E-02  6.04982096135547529E-02
  6.12591347821371257E-02  6.20296293528842385E-02  6.28098136230542253E-02
  6.35998094003451253E-02  6.43997400217907467E-02  6.52097303728893518E-02
  6.60299069069692907E-02  6.68603976647938053E-02  6.77013322944082924E-02
  6.85528420712322312E-02  6.94150599183991496E-02  7.02881204273477639E-02
  7.11721598786663884E-02  7.20673162631948055E-02  7.29737293033858314E-02
  7.38915404749296983E-02  7.48208930286442392E-02  7.57619320126347445E-02
  7.67148042947256303E-02  7.76796585851681348E-02  7.86566454596258763E-02
  7.96459173824430738E-02  8.06476287301974987E-02  8.16619358155420416E-02
  8.26889969113381307E-02  8.37289722750846344E-02  8.47820241736444852E-02
  8.58483169082740472E-02  8.69280168399577668E-02  8.80212924150517301E-02
  8.91283141912393023E-02  9.02492548638037656E-02  9.13842892922189093E-02
  9.25335945270641946E-02  9.36973498372667413E-02  9.48757367376721200E-02
  9.60689390169515850E-02  9.72771427658450233E-02  9.85005364057475463E-02
  9.97393107176396121E-02  1.00993658871367534E-01  1.02263776455276914E-01
  1.03549861506202129E-01  1.04852114539817950E-01  1.06170738581354410E-01
  1.07505939196681263E-01  1.08857924523764721E-01  1.10226905304500494E-01
  1.11613094916927946E-01  1.13016709407828417E-01  1.14437967525712073E-01
  1.15877090754197928E-01  1.17334303345790328E-01  1.18809832356056452E-01
  1.20303907678208810E-01  1.21816762078097302E-01  1.23348631229613662E-01
  1.24899753750514528E-01  1.26470371238665752E-01  1.28060728308712485E-01
  1.29671072629179568E-01  1.31301654960006398E-01  1.32952729190519897E-01
  1.34624552377851286E-01  1.36317384785798135E-01  1.38031489924140466E-01
  1.39767134588409087E-01  1.41524588900116904E-01  1.43304126347451238E-01
  1.45106023826437947E-01  1.46930561682573874E-01  1.48778023752939526E-01
  1.50648697408790722E-01  1.52542873598636552E-01  1.54460846891804865E-01
  1.56402915522503183E-01  1.58369381434375733E-01  1.60360550325562984E-01
  1.62376731694265336E-01  1.64418238884819434E-01  1.66485389134285067E-01
  1.68578503619551456E-01  1.70697907504964663E-01  1.72843929990480705E-01
  1.75016904360347586E-01  1.77217168032319961E-01  1.79445062607411693E-01
  1.81700933920186797E-01  1.83985132089595438E-01  1.86298011570357830E-01
  1.88639931204896055E-01  1.91011254275822717E-01  1.93412348558984926E-01
  1.95843586377068446E-01  1.98305344653766091E-01  2.00798004968510163E-01
  2.03321953611775824E-01  2.05877581640952934E-01  2.08465284936794781E-01
  2.11085464260438949E-01  2.13738525311010369E-01  2.16424878783800567E-01
  2.19144940429032375E-01  2.21899131111203796E-01  2.24687876869021780E-01
  2.27511608975917601E-01  2.30370764001151668E-01  2.33265783871505344E-01
  2.36197115933561019E-01  2.39165213016571260E-01  2.42170533495915302E-01
  2.45213541357144543E-01  2.48294706260616616E-01  2.51414503606711748E-01
  2.54573414601642456E-01  2.57771926323838052E-01  2.61010531790917488E-01
  2.64289730027239766E-01  2.67610026132029555E-01  2.70971931348080064E-01
  2.74375963131022194E-01  2.77822645219162112E-01  2.81312507703881443E-01
  2.84846087100590617E-01  2.88423926420237065E-01  2.92046575241355577E-01
  2.95714589782659465E-01  2.99428532976161454E-01  3.03188974540818834E-01
  3.06996491056692411E-01  3.10851666039612451E-01  3.14755090016340278E-01
  3.18707360600213985E-01  3.22709082567268879E-01  3.26760867932821719E-01
  3.30863336028498489E-01  3.35017113579700654E-01  3.39222834783492633E-01
  3.43481141386888622E-01  3.47792682765531047E-01  3.52158116002736610E-01
  3.56578105968893111E-01  3.61053325401187231E-01  3.65584454983641782E-01
  3.70172183427441015E-01  3.74817207551515097E-01  3.79520232363368903E-01
  3.84281971140118472E-01  3.89103145509712200E-01  3.93984485532307804E-01
  3.98926729781772793E-01  4.03930625427275203E-01  4.08996928314931951E-01
  4.14126403049478842E-01  4.19319823075922471E-01  4.24577970761136236E-01
  4.29901637475358478E-01  4.35291623673547956E-01  4.40748738976549925E-01
  4.46273802252030061E-01  4.51867641695116118E-01  4.57531094908704639E-01
  4.63265008983370641E-01  4.69070240576822950E-01  4.74947655992847551E-01
  4.80898131259672346E-01  4.86922552207688930E-01  4.93021814546457826E-01
  4.99196823940931789E-01  5.05448496086810528E-01  5.11777756784959736E-01
  5.18185542014799272E-01  5.24672798006583729E-01  5.31240481312478585E-01
  5.37889558876338714E-01  5.44621008102090021E-01  5.51435816920615607E-01
  5.58334983855030775E-01  5.65319518084245187E-01  5.72390439504681381E-01
  5.79548778790042851E-01  5.86795577448989802E-01  5.94131887880605447E-01
  6.01558773427496640E-01  6.09077308426404285E-01  6.16688578256155306E-01
  6.24393679382810540E-01  6.32193719401847098E-01  6.40089817077192924E-01
  6.48083102376954545E-01  6.56174716505637190E-01  6.64365811932683070E-01
  6.72657552417105120E-01  6.81051113028035449E-01  6.89547680160953136E-01
  6.98148451549377436E-01  7.06854636271788350E-01  7.15667454753525667E-01
  7.24588138763429868E-01  7.33617931404944024E-01  7.42758087101423881E-01
  7.52009871575348821E-01  7.61374561821151707E-01  7.70853446071360193E-01
  7.80447823755732184E-01  7.90159005453051511E-01  7.99988312835232751E-01
  8.09937078603386484E-01  8.20006646415466500E-01  8.30198370805127928E-01
  8.40513617091375176E-01  8.50953761278597454E-01  8.61520189946543002E-01
  8.72214300129805942E-01  8.83037499186345443E-01  8.93991204654568050E-01
  9.05076844098440136E-01  9.16295854940128884E-01  9.27649684279649667E-01
  9.39139788700938949E-01  9.50767634063763745E-01  9.62534695280875985E-01
  9.74442456079774533E-01  9.86492408748452232E-01  9.98686053864448198E-01
  1.01102490000646617E+00  1.02351046344787555E+00  1.03614426783133839E+00
  1.04892784382380100E+00  1.06186272875102672E+00  1.07495046621079848E+00
  1.08819260566398568E+00  1.10159070200256259E+00  1.11514631509368090E+00
  1.12886100929874544E+00  1.14273635296655973E+00  1.15677391789951578E+00
  1.17097527879179220E+00  1.18534201263839667E+00  1.19987569811388095E+00
  1.21457791491962319E+00  1.22945024309846151E+00  1.24449426231541138E+00
  1.25971155110302879E+00  1.27510368607019431E+00  1.29067224107291278E+00
  1.30641878634574393E+00  1.32234488759216262E+00  1.33845210503243406E+00
  1.35474199240741600E+00  1.37121609593673166E+00  1.38787595322944557E+00
  1.40472309214542546E+00  1.42175902960576339E+00  1.43898527035039803E+00
  1.45640330564095688E+00  1.47401461190654426E+00  1.49182064933075620E+00
  1.50982286037778368E+00  1.52802266825545874E+00  1.54642147531254959E+00
  1.56502066136834750E+00  1.58382158197220679E+00  1.60282556659069031E+00
  1.62203391671915353E+00  1.64144790391555251E+00  1.66106876775393508E+00
  1.68089771369499497E+00  1.70093591087014895E+00  1.72118448977646321E+00
  1.74164453987979062E+00  1.76231710712319156E+00  1.78320319133669369E+00
  1.80430374354518941E+00  1.82561966317179536E+00  1.84715179513339822E+00
  1.86890092682400732E+00  1.89086778498217556E+00  1.91305303243974567E+00
  1.93545726474838098E+00  1.95808100667895979E+00  1.98092470858954339E+00
  2.00398874265920357E+00  2.02727339898383718E+00  2.05077888152856191E+00
  2.07450530393172405E+00  2.09845268515799077E+00  2.12262094499640064E+00
  2.14700989939725106E+00  2.17161925564236524E+00  2.19644860734645908E+00
  2.22149742928526139E+00  2.24676507204347775E+00  2.27225075647672226E+00
  2.29795356798557471E+00  2.32387245059734493E+00  2.35000620084747514E+00
  2.37635346145477033E+00  2.40291271478906676E+00  2.42968227612714571E+00
  2.45666028668712277E+00  2.48384470643633293E+00  2.51123330667183753E+00
  2.53882366236974111E+00  2.56661314429144483E+00  2.59459891084360850E+00
  2.62277789969149611E+00  2.65114681912263217E+00  2.67970213914601185E+00
  2.70844008232701094E+00  2.73735661435812272E+00  2.76644743436327722E+00
  2.79570796491775786E+00  2.82513334178899012E+00  2.85471840339882021E+00
  2.88445768000560410E+00  2.91434538258504716E+00  2.94437539142223681E+00
  2.97454124441618362E+00  3.00483612509446862E+00  3.03525285031591441E+00
  3.06578385768193007E+00  3.09642119265980531E+00  3.12715649541177454E+00
  3.15798098731160115E+00  3.18888545717728134E+00  3.21986024722688136E+00
  3.25089523874359276E+00  3.28197983744301780E+00  3.31310295857758952E+00
  3.34425301179120948E+00  3.37541788569762025E+00  3.40658493219716441E+00
  3.43774095057039553E+00  3.46887217136850312E+00  3.49996424005931095E+00
  3.53100220047580393E+00  3.56197047810707801E+00  3.59285286325507425E+00
  3.62363249400629828E+00  3.65429183910466593E+00  3.68481268076791446E+00
  3.71517609746223831E+00  3.74536244659574624E+00  3.77535134725095700E+00
  3.80512166300867483E+00  3.83465148485058460E+00  3.86391811414611164E+00
  3.89289804586422550E+00  3.92156695207997119E+00  3.94989966571935014E+00
  3.97787016463171472E+00  4.00545155613447967E+00  4.03261606211553048E+00
  4.05933500459459040E+00  4.08557879194552154E+00  4.11131690591987198E+00
  4.13651788954530542E+00  4.16114933580531599E+00  4.18517787740600244E+00
  4.20856917777830919E+00  4.23128792332272141E+00  4.25329781690544539E+00
  4.27456157296370343E+00  4.29504091439881375E+00  4.31469657114975202E+00
  4.33348828066205893E+00  4.35137479060491206E+00  4.36831386403632926E+00
  4.38426228680662167E+00  4.39917587767964857E+00  4.41300950149223059E+00
  4.42571708549045706E+00  4.43725163867477423E+00  4.44756527483458619E+00
  4.45660923959099442E+00  4.46433394139120043E+00  4.47068898656919878E+00
  4.47562321919615158E+00  4.47908476607022443E+00  4.48102108652290099E+00
  4.48137902763216189E+00  4.48010488547412944E+00  4.47714447271595883E+00
  4.47244319209641006E+00  4.46594611685448584E+00  4.45759807862368707E+00
  4.44734376280328192E+00  4.43512781125319311E+00  4.42089493353245455E+00
  4.40459002716201997E+00  4.38615830642208593E+00  4.36554544024361402E+00
  4.34269770022776402E+00  4.31756211918374877E+00  4.29008665929219202E+00
  4.26022039125158081E+00  4.22791368509571797E+00  4.19311841263129104E+00
  4.15578816082641467E+00  4.11587845780393291E+00  4.07334701186255721E+00
  4.02815396265414893E+00  3.98026214476462625E+00  3.92963736494802784E+00
  3.87624869315184784E+00  3.82006876571991949E+00  3.76107410204500825E+00
  3.69924543513542137E+00  3.63456805551319340E+00  3.56703216690754532E+00
  3.49663325521759560E+00  3.42337247045684112E+00  3.34725701991619173E+00
  3.26830057192078716E+00  3.18652367070004816E+00  3.10195416132199231E+00
  3.01462762195218259E+00  2.92458780350825931E+00  2.83188707567804610E+00
  2.73658687708813186E+00  2.63875816680628050E+00  2.53848187653883084E+00
  2.43584936089850457E+00  2.33096284225062700E+00  2.22393584749379691E+00
  2.11489363399313479E+00  2.00397360040466754E+00  1.89132567831745702E+00
  1.77711270077494943E+00  1.66151074225158646E+00  1.54470942433750835E+00
  1.42691218275983500E+00  1.30833648840988048E+00  1.18921401421780581E+00
  1.06979074209471037E+00  9.50327002888029959E-01  8.31097438057908700E-01
  7.12390872257210428E-01  5.94510092701086235E-01  4.77771521336253835E-01
  3.62504765217609715E-01  2.49052034225683200E-01  1.37767420868635027E-01
  2.90160199831022772E-02 -7.68271293972602048E-02 -1.79378285076240124E-01
 -2.78246440920943028E-01 -3.73034990580934367E-01 -4.63343634720093100E-01
 -5.48770528318685225E-01 -6.28914700532594129E-01 -7.03378772836972699E-01
 -7.71771984954668810E-01 -8.33713528361589518E-01 -8.88836229771710506E-01
 -9.36790607413188758E-01 -9.77249285103201193E-01 -1.00991178579187468E+00
 -1.03450973929450041E+00 -1.05081251411277488E+00 -1.05863323424062217E+00
 -1.05783522666450147E+00 -1.04833891375045307E+00 -1.03012912052303074E+00
 -1.00326276586351470E+00 -9.67876976340106498E-01 -9.24197612663955614E-01
 -8.72548123796165864E-01 -8.13358736737378241E-01 -7.47175986068233211E-01
 -6.74672539602282351E-01 -5.96657222941674892E-01 -5.14085289602842832E-01
 -4.28068924042857124E-01 -3.39887911464923143E-01 -2.51000472226464211E-01
 -1.63054350008171506E-01 -7.78982102044414315E-02  2.40662550952018247E-03
  7.55738935562848130E-02  1.39079678898503367E-01  1.90155206727279452E-01
  2.26003560055159952E-01  2.47248698927218374E-01  2.55678233644108688E-01
  2.53049260725615677E-01  2.41114178434957971E-01  2.21640355143946671E-01
  1.96430811693842883E-01  1.67335398178245970E-01  1.36244440378821025E-01
  1.05058746564462027E-01  7.56304632785206321E-02  4.96692006066105432E-02
  2.86067310789884788E-02  1.34121105068755221E-02  4.34819910500866807E-03
  6.61181258289975722E-04 -1.94444767419937578E-05 -1.21436409022596842E-06
  0.00000000000000000E+00  0.00000000000000000E+00  0.00000000000000000E+00
  0.00000000000000000E+00  0.00000000000000000E+00  0.00000000000000000E+00
  0.00000000000000000E+00  0.00000000000000000E+00  0.00000000000000000E+00
  0.00000000000000000E+00  0.00000000000000000E+00  0.00000000000000000E+00
  0.00000000000000000E+00  0.00000000000000000E+00  0.00000000000000000E+00
  0.00000000000000000E+00  0.00000000000000000E+00  0.00000000000000000E+00
  0.00000000000000000E+00  0.00000000000000000E+00  0.00000000000000000E+00
  0.00000000000000000E+00  0.00000000000000000E+00  0.00000000000000000E+00
  0.00000000000000000E+00  0.00000000000000000E+00  0.00000000000000000E+00
  0.00000000000000000E+00  0.00000000000000000E+00  0.00000000000000000E+00
  0.00000000000000000E+00  0.00000000000000000E+00  0.00000000000000000E+00
  0.00000000000000000E+00  0.00000000000000000E+00  0.00000000000000000E+00
  0.00000000000000000E+00  0.00000000000000000E+00  0.00000000000000000E+00
  0.00000000000000000E+00  0.00000000000000000E+00  0.00000000000000000E+00
  0.00000000000000000E+00  0.00000000000000000E+00  0.00000000000000000E+00
  0.00000000000000000E+00  0.00000000000000000E+00  0.00000000000000000E+00
  0.00000000000000000E+00  0.00000000000000000E+00  0.00000000000000000E+00
  0.00000000000000000E+00  0.00000000000000000E+00  0.00000000000000000E+00
  0.00000000000000000E+00  0.00000000000000000E+00  0.00000000000000000E+00
  0.00000000000000000E+00  0.00000000000000000E+00  0.00000000000000000E+00
  0.00000000000000000E+00  0.00000000000000000E+00  0.00000000000000000E+00
  0.00000000000000000E+00  0.00000000000000000E+00  0.00000000000000000E+00
  0.00000000000000000E+00  0.00000000000000000E+00  0.00000000000000000E+00
  0.00000000000000000E+00  0.00000000000000000E+00  0.00000000000000000E+00
  0.00000000000000000E+00  0.00000000000000000E+00  0.00000000000000000E+00
  0.00000000000000000E+00  0.00000000000000000E+00  0.00000000000000000E+00
  0.00000000000000000E+00  0.00000000000000000E+00  0.00000000000000000E+00
  0.00000000000000000E+00  0.00000000000000000E+00  0.00000000000000000E+00
  0.00000000000000000E+00  0.00000000000000000E+00  0.00000000000000000E+00
  0.00000000000000000E+00  0.00000000000000000E+00  0.00000000000000000E+00
  0.00000000000000000E+00  0.00000000000000000E+00  0.00000000000000000E+00
  0.00000000000000000E+00  0.00000000000000000E+00  0.00000000000000000E+00
  0.00000000000000000E+00  0.00000000000000000E+00  0.00000000000000000E+00
  0.00000000000000000E+00  0.00000000000000000E+00  0.00000000000000000E+00
  0.00000000000000000E+00  0.00000000000000000E+00  0.00000000000000000E+00
  0.00000000000000000E+00  0.00000000000000000E+00  0.00000000000000000E+00
  0.00000000000000000E+00  0.00000000000000000E+00  0.00000000000000000E+00
  0.00000000000000000E+00  0.00000000000000000E+00  0.00000000000000000E+00
  0.00000000000000000E+00  0.00000000000000000E+00  0.00000000000000000E+00
  0.00000000000000000E+00  0.00000000000000000E+00  0.00000000000000000E+00
  0.00000000000000000E+00  0.00000000000000000E+00  0.00000000000000000E+00
  0.00000000000000000E+00  0.00000000000000000E+00  0.00000000000000000E+00
  0.00000000000000000E+00  0.00000000000000000E+00  0.00000000000000000E+00
  0.00000000000000000E+00  0.00000000000000000E+00  0.00000000000000000E+00
  0.00000000000000000E+00  0.00000000000000000E+00  0.00000000000000000E+00
  0.00000000000000000E+00  0.00000000000000000E+00  0.00000000000000000E+00
  0.00000000000000000E+00  0.00000000000000000E+00  0.00000000000000000E+00
  0.00000000000000000E+00  0.00000000000000000E+00  0.00000000000000000E+00
  0.00000000000000000E+00  0.00000000000000000E+00  0.00000000000000000E+00
  0.00000000000000000E+00  0.00000000000000000E+00  0.00000000000000000E+00
  0.00000000000000000E+00  0.00000000000000000E+00  0.00000000000000000E+00
  0.00000000000000000E+00  0.00000000000000000E+00  0.00000000000000000E+00
  0.00000000000000000E+00  0.00000000000000000E+00  0.00000000000000000E+00
  0.00000000000000000E+00  0.00000000000000000E+00  0.00000000000000000E+00
  0.00000000000000000E+00  0.00000000000000000E+00  0.00000000000000000E+00
  0.00000000000000000E+00  0.00000000000000000E+00  0.00000000000000000E+00
  0.00000000000000000E+00  0.00000000000000000E+00  0.00000000000000000E+00
  0.00000000000000000E+00  0.00000000000000000E+00  0.00000000000000000E+00
  0.00000000000000000E+00  0.00000000000000000E+00  0.00000000000000000E+00
                              </PP_BETA.1>
 <PP_BETA.2 type="real" size="   888" angular_momentum="0" columns="3" cutoff_radius_index="   711" norm_conserving_radius="    1.607276" label= "2S">
 -1.29130958939913318E-02 -1.30755225688128467E-02 -1.32399923167837909E-02
 -1.34065308364896118E-02 -1.35751641497599516E-02 -1.37459186057343336E-02
 -1.39188208849790815E-02 -1.40938980036559875E-02 -1.42711773177433675E-02
 -1.44506865273103108E-02 -1.46324536808445319E-02 -1.48165071796347667E-02
 -1.50028757822082588E-02 -1.51915886088240248E-02 -1.53826751460227115E-02
 -1.55761652512335230E-02 -1.57720891574392452E-02 -1.59704774778998623E-02
 -1.61713612109355663E-02 -1.63747717447700163E-02 -1.65807408624343358E-02
 -1.67893007467329464E-02 -1.70004839852717672E-02 -1.72143235755496671E-02
 -1.74308529301140103E-02 -1.76501058817808837E-02 -1.78721166889211462E-02
 -1.80969200408128417E-02 -1.83245510630609607E-02 -1.85550453230854118E-02
 -1.87884388356778752E-02 -1.90247680686286558E-02 -1.92640699484242402E-02
 -1.95063818660165499E-02 -1.97517416826647439E-02 -2.00001877358503624E-02
 -2.02517588452669969E-02 -2.05064943188852378E-02 -2.07644339590938760E-02
 -2.10256180689183947E-02 -2.12900874583174839E-02 -2.15578834505589373E-02
 -2.18290478886755991E-02 -2.21036231420025306E-02 -2.23816521127964407E-02
 -2.26631782429381756E-02 -2.29482455207196713E-02 -2.32368984877161754E-02
 -2.35291822457448299E-02 -2.38251424639109137E-02 -2.41248253857424370E-02
 -2.44282778364146545E-02 -2.47355472300653176E-02 -2.50466815772019055E-02
 -2.53617294922021189E-02 -2.56807402009084258E-02 -2.60037635483183413E-02
 -2.63308500063713195E-02 -2.66620506818334296E-02 -2.69974173242813337E-02
 -2.73370023341865144E-02 -2.76808587711013035E-02 -2.80290403619476054E-02
 -2.83816015094099892E-02 -2.87385973004343521E-02 -2.91000835148331333E-02
 -2.94661166339990066E-02 -2.98367538497280732E-02 -3.02120530731537981E-02
 -3.05920729437934406E-02 -3.09768728387081541E-02 -3.13665128817782052E-02
 -3.17610539530946909E-02 -3.21605576984695107E-02 -3.25650865390649316E-02
 -3.29747036811437882E-02 -3.33894731259426758E-02 -3.38094596796690156E-02
 -3.42347289636238325E-02 -3.46653474244518756E-02 -3.51013823445202669E-02
 -3.55429018524279008E-02 -3.59899749336468761E-02 -3.64426714412974875E-02
 -3.69010621070588393E-02 -3.73652185522164240E-02 -3.78352132988487716E-02
 -3.83111197811542917E-02 -3.87930123569206614E-02 -3.92809663191387576E-02
 -3.97750579077617850E-02 -4.02753643216124946E-02 -4.07819637304401295E-02
 -4.12949352871289019E-02 -4.18143591400595913E-02 -4.23403164456265732E-02
 -4.28728893809122991E-02 -4.34121611565206206E-02 -4.39582160295717700E-02
 -4.45111393168605568E-02 -4.50710174081793910E-02 -4.56379377798091027E-02
 -4.62119890081790982E-02 -4.67932607836992545E-02 -4.73818439247652087E-02
 -4.79778303919401461E-02 -4.85813133023137583E-02 -4.91923869440425640E-02
 -4.98111467910724443E-02 -5.04376895180456628E-02 -5.10721130153955483E-02
 -5.17145164046309072E-02 -5.23650000538117624E-02 -5.30236655932197001E-02
 -5.36906159312253856E-02 -5.43659552703545240E-02 -5.50497891235558479E-02
 -5.57422243306738008E-02 -5.64433690751271339E-02 -5.71533329007977431E-02
 -5.78722267291308379E-02 -5.86001628764497157E-02 -5.93372550714887578E-02
 -6.00836184731454725E-02 -6.08393696884554427E-02 -6.16046267907934333E-02
 -6.23795093383022192E-02 -6.31641383925531930E-02 -6.39586365374406052E-02
 -6.47631278983131914E-02 -6.55777381613453225E-02 -6.64025945931520090E-02
 -6.72378260606492223E-02 -6.80835630511630319E-02 -6.89399376927920249E-02
 -6.98070837750242590E-02 -7.06851367696124250E-02 -7.15742338517119242E-02
 -7.24745139212828876E-02 -7.33861176247604385E-02 -7.43091873769984035E-02
 -7.52438673834846111E-02 -7.61903036628385072E-02 -7.71486440695878101E-02
 -7.81190383172317565E-02 -7.91016380015938242E-02 -8.00965966244653466E-02
 -8.11040696175468478E-02 -8.21242143666885971E-02 -8.31571902364351551E-02
 -8.42031585948768563E-02 -8.52622828388115567E-02 -8.63347284192242104E-02
 -8.74206628670822355E-02 -8.85202558194558564E-02 -8.96336790459644345E-02
 -9.07611064755536323E-02 -9.19027142236080730E-02 -9.30586806194030197E-02
 -9.42291862338998920E-02 -9.54144139078879905E-02 -9.66145487804798142E-02
 -9.78297783179615521E-02 -9.90602923430046051E-02 -1.00306283064242135E-01
 -1.01567945106215946E-01 -1.02845475539696002E-01 -1.04139073912380226E-01
 -1.05448942279976296E-01 -1.06775285237673906E-01 -1.08118309952007677E-01
 -1.09478226193118117E-01 -1.10855246367417018E-01 -1.12249585550658795E-01
 -1.13661461521424409E-01 -1.15091094795024496E-01 -1.16538708657823634E-01
 -1.18004529201993266E-01 -1.19488785360697333E-01 -1.20991708943718870E-01
 -1.22513534673525923E-01 -1.24054500221790875E-01 -1.25614846246362932E-01
 -1.27194816428699953E-01 -1.28794657511769051E-01 -1.30414619338415472E-01
 -1.32054954890211129E-01 -1.33715920326785503E-01 -1.35397775025644984E-01
 -1.37100781622488649E-01 -1.38825206052023781E-01 -1.40571317589288314E-01
 -1.42339388891487312E-01 -1.44129696040347810E-01 -1.45942518585000708E-01
 -1.47778139585392626E-01 -1.49636845656237999E-01 -1.51518927011514259E-01
 -1.53424677509510554E-01 -1.55354394698432097E-01 -1.57308379862571318E-01
 -1.59286938069049172E-01 -1.61290378215134561E-01 -1.63319013076150016E-01
 -1.65373159353969401E-01 -1.67453137726113810E-01 -1.69559272895454111E-01
 -1.71691893640529364E-01 -1.73851332866480912E-01 -1.76037927656620130E-01
 -1.78252019324630140E-01 -1.80493953467406626E-01 -1.82764080018556124E-01
 -1.85062753302546290E-01 -1.87390332089527906E-01 -1.89747179650825160E-01
 -1.92133663815111377E-01 -1.94550157025273229E-01 -1.96997036395973130E-01
 -1.99474683771916766E-01 -2.01983485786834005E-01 -2.04523833923184878E-01
 -2.07096124572591328E-01 -2.09700759097012718E-01 -2.12338143890667269E-01
 -2.15008690442706790E-01 -2.17712815400660981E-01 -2.20450940634649678E-01
 -2.23223493302381309E-01 -2.26030905914942903E-01 -2.28873616403384689E-01
 -2.31752068186119486E-01 -2.34666710237137727E-01 -2.37617997155048194E-01
 -2.40606389232958073E-01 -2.43632352529198210E-01 -2.46696358938900323E-01
 -2.49798886266443088E-01 -2.52940418298768344E-01 -2.56121444879585047E-01
 -2.59342461984462036E-01 -2.62603971796828539E-01 -2.65906482784880827E-01
 -2.69250509779418556E-01 -2.72636574052609992E-01 -2.76065203397698411E-01
 -2.79536932209664135E-01 -2.83052301566845244E-01 -2.86611859313536110E-01
 -2.90216160143562107E-01 -2.93865765684852120E-01 -2.97561244585013762E-01
 -3.01303172597918112E-01 -3.05092132671315908E-01 -3.08928715035479029E-01
 -3.12813517292893306E-01 -3.16747144509003209E-01 -3.20730209304024128E-01
 -3.24763331945828959E-01 -3.28847140443922381E-01 -3.32982270644511524E-01
 -3.37169366326685871E-01 -3.41409079299713980E-01 -3.45702069501468812E-01
 -3.50049005097995081E-01 -3.54450562584224527E-01 -3.58907426885850367E-01
 -3.63420291462376310E-01 -3.67989858411346238E-01 -3.72616838573763764E-01
 -3.77301951640717004E-01 -3.82045926261214697E-01 -3.86849500151247361E-01
 -3.91713420204081286E-01 -3.96638442601793428E-01 -4.01625332928069456E-01
 -4.06674866282252467E-01 -4.11787827394680284E-01 -4.16965010743293452E-01
 -4.22207220671551142E-01 -4.27515271507635408E-01 -4.32889987684981103E-01
 -4.38332203864121972E-01 -4.43842765055872002E-01 -4.49422526745841711E-01
 -4.55072355020311681E-01 -4.60793126693460620E-01 -4.66585729435960384E-01
 -4.72451061904945291E-01 -4.78390033875369769E-01 -4.84403566372751726E-01
 -4.90492591807316192E-01 -4.96658054109546165E-01 -5.02900908867146001E-01
 -5.09222123463422993E-01 -5.15622677217096315E-01 -5.22103561523536319E-01
 -5.28665779997443575E-01 -5.35310348616965248E-01 -5.42038295869267106E-01
 -5.48850662897546249E-01 -5.55748503649509673E-01 -5.62732885027301455E-01
 -5.69804887038899754E-01 -5.76965602950971546E-01 -5.84216139443193061E-01
 -5.91557616764039396E-01 -5.98991168888037606E-01 -6.06517943674485305E-01
 -6.14139103027634969E-01 -6.21855823058343637E-01 -6.29669294247176103E-01
 -6.37580721608977607E-01 -6.45591324858880600E-01 -6.53702338579777220E-01
 -6.61915012391222746E-01 -6.70230611119773112E-01 -6.78650414970752180E-01
 -6.87175719701432652E-01 -6.95807836795621415E-01 -7.04548093639642659E-01
 -7.13397833699694783E-01 -7.22358416700588979E-01 -7.31431218805811301E-01
 -7.40617632798954317E-01 -7.49919068266430178E-01 -7.59336951781499070E-01
 -7.68872727089565444E-01 -7.78527855294716686E-01 -7.88303815047498135E-01
 -7.98202102733870156E-01 -8.08224232665341935E-01 -8.18371737270241706E-01
 -8.28646167286078872E-01 -8.39049091952985826E-01 -8.49582099208176067E-01
 -8.60246795881401072E-01 -8.71044807891340089E-01 -8.81977780442907311E-01
 -8.93047378225384159E-01 -9.04255285611375581E-01 -9.15603206856498653E-01
 -9.27092866299758289E-01 -9.38726008564557346E-01 -9.50504398760269376E-01
 -9.62429822684295777E-01 -9.74504087024557042E-01 -9.86729019562338272E-01
 -9.99106469375390605E-01 -1.01163830704123203E+00 -1.02432642484054104E+00
 -1.03717273696055989E+00 -1.05017917969840946E+00 -1.06334771166420916E+00
 -1.07668031398391628E+00 -1.09017899050172273E+00 -1.10384576798196332E+00
 -1.11768269631034767E+00 -1.13169184869442718E+00 -1.14587532186313656E+00
 -1.16023523626529768E+00 -1.17477373626689996E+00 -1.18949299034703637E+00
 -1.20439519129230832E+00 -1.21948255638954772E+00 -1.23475732761666079E+00
 -1.25022177183142902E+00 -1.26587818095804594E+00 -1.28172887217120679E+00
 -1.29777618807754846E+00 -1.31402249689417605E+00 -1.33047019262409405E+00
 -1.34712169522826808E+00 -1.36397945079407124E+00 -1.38104593169986334E+00
 -1.39832363677541971E+00 -1.41581509145791617E+00 -1.43352284794317941E+00
 -1.45144948533189733E+00 -1.46959760977044152E+00 -1.48796985458599362E+00
 -1.50656888041558967E+00 -1.52539737532874020E+00 -1.54445805494323629E+00
 -1.56375366253371673E+00 -1.58328696913261369E+00 -1.60306077362303334E+00
 -1.62307790282309683E+00 -1.64334121156131552E+00 -1.66385358274244610E+00
 -1.68461792740338834E+00 -1.70563718475852877E+00 -1.72691432223403085E+00
 -1.74845233549044821E+00 -1.77025424843311097E+00 -1.79232311320961024E+00
 -1.81466201019378492E+00 -1.83727404795548588E+00 -1.86016236321546735E+00
 -1.88333012078462669E+00 -1.90678051348687894E+00 -1.93051676206485334E+00
 -1.95454211506757636E+00 -1.97885984871933629E+00 -2.00347326676879556E+00
 -2.02838570031749166E+00 -2.05360050762667923E+00 -2.07912107390159884E+00
 -2.10495081105212334E+00 -2.13109315742867045E+00 -2.15755157753234306E+00
 -2.18432956169805648E+00 -2.21143062574949667E+00 -2.23885831062465002E+00
 -2.26661618197063985E+00 -2.29470782970649179E+00 -2.32313686755242310E+00
 -2.35190693252423344E+00 -2.38102168439124817E+00 -2.41048480509637253E+00
 -2.44029999813648457E+00 -2.47047098790156960E+00 -2.50100151897082856E+00
 -2.53189535536395649E+00 -2.56315627974573568E+00 -2.59478809258201792E+00
 -2.62679461124495672E+00 -2.65917966906547365E+00 -2.69194711433085976E+00
 -2.72510080922520315E+00 -2.75864462871024729E+00 -2.79258245934432869E+00
 -2.82691819803683853E+00 -2.86165575073572676E+00 -2.89679903104530778E+00
 -2.93235195877143884E+00 -2.96831845839131336E+00 -3.00470245744489439E+00
 -3.04150788484488643E+00 -3.07873866910205995E+00 -3.11639873646233312E+00
 -3.15449200895252435E+00 -3.19302240233106316E+00 -3.23199382394015977E+00
 -3.27141017045519567E+00 -3.31127532552765524E+00 -3.35159315731755836E+00
 -3.39236751591126495E+00 -3.43360223062003778E+00 -3.47530110715471885E+00
 -3.51746792467216585E+00 -3.56010643268866511E+00 -3.60322034785527778E+00
 -3.64681335058944045E+00 -3.69088908155800999E+00 -3.73545113800624229E+00
 -3.78050306992720220E+00 -3.82604837606496995E+00 -3.87209049974598729E+00
 -3.91863282453240691E+00 -3.96567866969133886E+00 -4.01323128547262087E+00
 -4.06129384818793948E+00 -4.10986945508506363E+00 -4.15896111900990739E+00
 -4.20857176284863854E+00 -4.25870421374087371E+00 -4.30936119705744769E+00
 -4.36054533013427026E+00 -4.41225911575415886E+00 -4.46450493536578907E+00
 -4.51728504203245240E+00 -4.57060155310157779E+00 -4.62445644258585098E+00
 -4.67885153324359049E+00 -4.73378848834989618E+00 -4.78926880314882375E+00
 -4.84529379597666399E+00 -4.90186459904226268E+00 -4.95898214885435795E+00
 -5.01664717628591461E+00 -5.07486019626435603E+00 -5.13362149707225335E+00
 -5.19293112924629430E+00 -5.25278889406463723E+00 -5.31319433161039711E+00
 -5.37414670839404796E+00 -5.43564500452070920E+00 -5.49768790039230915E+00
 -5.56027376293154330E+00 -5.62340063130850787E+00 -5.68706620215376191E+00
 -5.75126781424843436E+00 -5.81600243267713868E+00 -5.88126663242290526E+00
 -5.94705658138528470E+00 -6.01336802281356686E+00 -6.08019625714010559E+00
 -6.14753612319035270E+00 -6.21538197874917220E+00 -6.28372768047681962E+00
 -6.35256656315925117E+00 -6.42189141826642196E+00 -6.49169447179692760E+00
 -6.56196736140481196E+00 -6.63270111279350605E+00 -6.70388611534624168E+00
 -6.77551209697212276E+00 -6.84756809816640022E+00 -6.92004244527166268E+00
 -6.99292272290251127E+00 -7.06619574551746599E+00 -7.13984752813963475E+00
 -7.21386325621529867E+00 -7.28822725456490073E+00 -7.36292295541863151E+00
 -7.43793286554151400E+00 -7.51323853244139794E+00 -7.58882050960297239E+00
 -7.66465832075561337E+00 -7.74073042318321836E+00 -7.81701417007438693E+00
 -7.89348577184299494E+00 -7.97012025645100142E+00 -8.04689142874486585E+00
 -8.12377182880814352E+00 -8.20073268924840271E+00 -8.27774389148292222E+00
 -8.35477392103959637E+00 -8.43178982187420978E+00 -8.50875714961936858E+00
 -8.58563992386762109E+00 -8.66240057951567621E+00 -8.73899991715647850E+00
 -8.81539705245366356E+00 -8.89154936463757473E+00 -8.96741244416908501E+00
 -9.04294003952653291E+00 -9.11808400310212619E+00 -9.19279423637768822E+00
 -9.26701863445543772E+00 -9.34070302984744494E+00 -9.41379113560777725E+00
 -9.48622448799659246E+00 -9.55794238878580060E+00 -9.62888184704879535E+00
 -9.69897752066384378E+00 -9.76816165773111500E+00 -9.83636403803257586E+00
 -9.90351191433928335E+00 -9.96952995397281505E+00 -1.00343401808373276E+01
 -1.00978619180188574E+01 -1.01600117308110534E+01 -1.02207033707304085E+01
 -1.02798477207876822E+01 -1.03373527419978313E+01 -1.03931234211916070E+01
 -1.04470617207897671E+01 -1.04990665308914775E+01 -1.05490336234727593E+01
 -1.05968556091348738E+01 -1.06424218970911291E+01 -1.06856186588213795E+01
 -1.07263287950102413E+01 -1.07644319067170215E+01 -1.07998042714571891E+01
 -1.08323188245821296E+01 -1.08618451456037715E+01 -1.08882494508842402E+01
 -1.09113945934178975E+01 -1.09311400698069381E+01 -1.09473420345412062E+01
 -1.09598533232469215E+01 -1.09685234857787250E+01 -1.09731988287560061E+01
 -1.09737224685813199E+01 -1.09699343965984966E+01 -1.09616715573710160E+01
 -1.09487679392311144E+01 -1.09310546793299022E+01 -1.09083601847142795E+01
 -1.08805102701455549E+01 -1.08473283120005810E+01 -1.08086354213963975E+01
 -1.07642506380639134E+01 -1.07139911448127076E+01 -1.06576725031934885E+01
 -1.05951089136952206E+01 -1.05261135021389602E+01 -1.04504986309053507E+01
 -1.03680762377279478E+01 -1.02786582049663977E+01 -1.01820567607903794E+01
 -1.00780849102988217E+01 -9.96655690138903338E+00 -9.84728872773978026E+00
 -9.72009866898279284E+00 -9.58480786738464374E+00 -9.44124094650460322E+00
 -9.28922667394426682E+00 -9.12859866593180413E+00 -8.95919613616499255E+00
 -8.78086469341258535E+00 -8.59345718943764503E+00 -8.39683461305496515E+00
 -8.19086703612876299E+00 -7.97543461423504674E+00 -7.75042864135651044E+00
 -7.51575265521789770E+00 -7.27132360004564759E+00 -7.01707304792864939E+00
 -6.75294847421361855E+00 -6.47891458722512947E+00 -6.19495471675859299E+00
 -5.90107226071198365E+00 -5.59729218168318088E+00 -5.28366255758734749E+00
 -4.96025618650054323E+00 -4.62717224126110782E+00 -4.28453796546187871E+00
 -3.93251041453912675E+00 -3.57127823777140341E+00 -3.20106349103318744E+00
 -2.82212347465537894E+00 -2.43475259436426139E+00 -2.03928423636909306E+00
 -1.63609264194922477E+00 -1.22559477639139591E+00 -8.08252181745391929E-01
 -3.84572798285726491E-01  4.48872611325646445E-02  4.79521995495635345E-01
  9.18673878336536132E-01  1.36163231895495995E+00  1.80763224054911764E+00
  2.25585279912558656E+00  2.70541627183751210E+00  3.15538713537702398E+00
  3.60477136490075400E+00  4.05251599038196986E+00  4.49750894473921559E+00
  4.93857922538170335E+00  5.37449742062222668E+00  5.80397665025008802E+00
  6.22567394760013748E+00  6.63819212267444225E+00  7.04008217543628412E+00
  7.42984631785620131E+00  7.80594161270130815E+00  8.16678430928867449E+00
  8.51075495271927984E+00  8.83620431214357893E+00  9.14146013457277462E+00
  9.42483484151041750E+00  9.68463424528600036E+00  9.91916727577373436E+00
  1.01267567723008245E+01  1.03057514557581928E+01  1.04545391382452948E+01
  1.05715610871966454E+01  1.06553276734798459E+01  1.07044353746212249E+01
  1.07175850983167500E+01  1.06936017332365800E+01  1.06314550627073654E+01
  1.05302820411144591E+01  1.03894102204506424E+01  1.02083823055682039E+01
  9.98698185647649872E+00  9.72525999863227675E+00  9.42356275801202514E+00
  9.08255903522605657E+00  8.70326903083370595E+00  8.28709271129949343E+00
  7.83583790358134902E+00  7.35174786259574375E+00  6.83752788198270611E+00
  6.29637023347654434E+00  5.73197705832957727E+00  5.14858073227718460E+00
  4.55096101003699527E+00  3.94445814964340746E+00  3.33498157391001815E+00
  2.72901335637995501E+00  2.13360576913997457E+00  1.55637235809132091E+00
  1.00547208664242427E+00  4.89586045486506138E-01  1.78866189010922598E-02
 -4.00000827744506182E-01 -7.54045016533675505E-01 -1.03388856241477844E+00
 -1.22983578159714235E+00 -1.34656401859634967E+00 -1.39357572793075035E+00
 -1.38028760973999343E+00 -1.31613258092204344E+00 -1.21066273204348973E+00
 -1.07365937843549930E+00 -9.15191645503581119E-01 -7.45579442627592792E-01
 -5.75226946938857342E-01 -4.14295895633703781E-01 -2.72187588312367335E-01
 -1.56796376066171750E-01 -7.34893592201071033E-02 -2.37622928872365385E-02
 -3.52343060068934823E-03  9.56865402862939264E-05  5.97590256520944131E-06
  0.00000000000000000E+00  0.00000000000000000E+00  0.00000000000000000E+00
  0.00000000000000000E+00  0.00000000000000000E+00  0.00000000000000000E+00
  0.00000000000000000E+00  0.00000000000000000E+00  0.00000000000000000E+00
  0.00000000000000000E+00  0.00000000000000000E+00  0.00000000000000000E+00
  0.00000000000000000E+00  0.00000000000000000E+00  0.00000000000000000E+00
  0.00000000000000000E+00  0.00000000000000000E+00  0.00000000000000000E+00
  0.00000000000000000E+00  0.00000000000000000E+00  0.00000000000000000E+00
  0.00000000000000000E+00  0.00000000000000000E+00  0.00000000000000000E+00
  0.00000000000000000E+00  0.00000000000000000E+00  0.00000000000000000E+00
  0.00000000000000000E+00  0.00000000000000000E+00  0.00000000000000000E+00
  0.00000000000000000E+00  0.00000000000000000E+00  0.00000000000000000E+00
  0.00000000000000000E+00  0.00000000000000000E+00  0.00000000000000000E+00
  0.00000000000000000E+00  0.00000000000000000E+00  0.00000000000000000E+00
  0.00000000000000000E+00  0.00000000000000000E+00  0.00000000000000000E+00
  0.00000000000000000E+00  0.00000000000000000E+00  0.00000000000000000E+00
  0.00000000000000000E+00  0.00000000000000000E+00  0.00000000000000000E+00
  0.00000000000000000E+00  0.00000000000000000E+00  0.00000000000000000E+00
  0.00000000000000000E+00  0.00000000000000000E+00  0.00000000000000000E+00
  0.00000000000000000E+00  0.00000000000000000E+00  0.00000000000000000E+00
  0.00000000000000000E+00  0.00000000000000000E+00  0.00000000000000000E+00
  0.00000000000000000E+00  0.00000000000000000E+00  0.00000000000000000E+00
  0.00000000000000000E+00  0.00000000000000000E+00  0.00000000000000000E+00
  0.00000000000000000E+00  0.00000000000000000E+00  0.00000000000000000E+00
  0.00000000000000000E+00  0.00000000000000000E+00  0.00000000000000000E+00
  0.00000000000000000E+00  0.00000000000000000E+00  0.00000000000000000E+00
  0.00000000000000000E+00  0.00000000000000000E+00  0.00000000000000000E+00
  0.00000000000000000E+00  0.00000000000000000E+00  0.00000000000000000E+00
  0.00000000000000000E+00  0.00000000000000000E+00  0.00000000000000000E+00
  0.00000000000000000E+00  0.00000000000000000E+00  0.00000000000000000E+00
  0.00000000000000000E+00  0.00000000000000000E+00  0.00000000000000000E+00
  0.00000000000000000E+00  0.00000000000000000E+00  0.00000000000000000E+00
  0.00000000000000000E+00  0.00000000000000000E+00  0.00000000000000000E+00
  0.00000000000000000E+00  0.00000000000000000E+00  0.00000000000000000E+00
  0.00000000000000000E+00  0.00000000000000000E+00  0.00000000000000000E+00
  0.00000000000000000E+00  0.00000000000000000E+00  0.00000000000000000E+00
  0.00000000000000000E+00  0.00000000000000000E+00  0.00000000000000000E+00
  0.00000000000000000E+00  0.00000000000000000E+00  0.00000000000000000E+00
  0.00000000000000000E+00  0.00000000000000000E+00  0.00000000000000000E+00
  0.00000000000000000E+00  0.00000000000000000E+00  0.00000000000000000E+00
  0.00000000000000000E+00  0.00000000000000000E+00  0.00000000000000000E+00
  0.00000000000000000E+00  0.00000000000000000E+00  0.00000000000000000E+00
  0.00000000000000000E+00  0.00000000000000000E+00  0.00000000000000000E+00
  0.00000000000000000E+00  0.00000000000000000E+00  0.00000000000000000E+00
  0.00000000000000000E+00  0.00000000000000000E+00  0.00000000000000000E+00
  0.00000000000000000E+00  0.00000000000000000E+00  0.00000000000000000E+00
  0.00000000000000000E+00  0.00000000000000000E+00  0.00000000000000000E+00
  0.00000000000000000E+00  0.00000000000000000E+00  0.00000000000000000E+00
  0.00000000000000000E+00  0.00000000000000000E+00  0.00000000000000000E+00
  0.00000000000000000E+00  0.00000000000000000E+00  0.00000000000000000E+00
  0.00000000000000000E+00  0.00000000000000000E+00  0.00000000000000000E+00
  0.00000000000000000E+00  0.00000000000000000E+00  0.00000000000000000E+00
  0.00000000000000000E+00  0.00000000000000000E+00  0.00000000000000000E+00
  0.00000000000000000E+00  0.00000000000000000E+00  0.00000000000000000E+00
  0.00000000000000000E+00  0.00000000000000000E+00  0.00000000000000000E+00
  0.00000000000000000E+00  0.00000000000000000E+00  0.00000000000000000E+00
  0.00000000000000000E+00  0.00000000000000000E+00  0.00000000000000000E+00
  0.00000000000000000E+00  0.00000000000000000E+00  0.00000000000000000E+00
  0.00000000000000000E+00  0.00000000000000000E+00  0.00000000000000000E+00
  0.00000000000000000E+00  0.00000000000000000E+00  0.00000000000000000E+00
                              </PP_BETA.2>
 <PP_BETA.3 type="real" size="   888" angular_momentum="1" columns="3" cutoff_radius_index="   711" norm_conserving_radius="    1.607276" label= "2P">
  2.99244355866664464E-07  3.06819743665542226E-07  3.14586902338344397E-07
  3.22550686537572200E-07  3.30716073809480359E-07  3.39088167704291242E-07
  3.47672200966659598E-07  3.56473538806012609E-07  3.65497682249023391E-07
  3.74750271578605898E-07  3.84237089858705147E-07  3.93964066548069487E-07
  4.03937281207103406E-07  4.14162967296761501E-07  4.24647516074308212E-07
  4.35397480588580972E-07  4.46419579774339949E-07  4.57720702652270748E-07
  4.69307912634542882E-07  4.81188451938354192E-07  4.93369746113469654E-07
  5.05859408681835186E-07  5.18665245896297582E-07  5.31795261619710902E-07
  5.45257662325935462E-07  5.59060862230158527E-07  5.73213488546020820E-07
  5.87724386878288833E-07  6.02602626750804240E-07  6.17857507274029834E-07
  6.33498562957836212E-07  6.49535569668467230E-07  6.65978550739907175E-07
  6.82837783236186452E-07  7.00123804375583971E-07  7.17847418114709533E-07
  7.36019701901080131E-07  7.54652013595718425E-07  7.73755998570943037E-07
  7.93343596988619643E-07  8.13427051261095995E-07  8.34018913703111859E-07
  8.55132054374814509E-07  8.76779669126120305E-07  8.98975287841622230E-07
  9.21732782897325650E-07  9.45066377828279285E-07  9.68990656218587169E-07
  9.93520570813664265E-07  1.01867145286546679E-06  1.04445902171247119E-06
  1.07089939460308165E-06  1.09800909676763597E-06  1.12580507174417642E-06
  1.15430469196790738E-06  1.18352576962514818E-06  1.21348656778640739E-06
  1.24420581181636241E-06  1.27570270107709935E-06  1.30799692092408252E-06
  1.34110865500726809E-06  1.37505859788429120E-06  1.40986796795010330E-06
  1.44555852069778962E-06  1.48215256231076246E-06  1.51967296360160865E-06
  1.55814317430379289E-06  1.59758723772248134E-06  1.63802980575959696E-06
  1.67949615431615398E-06  1.72201219908496194E-06  1.76560451174534287E-06
  1.81030033656420971E-06  1.85612760741852680E-06  1.90311496525020253E-06
  1.95129177595987021E-06  2.00068814875462796E-06  2.05133495496140453E-06
  2.10326384731404136E-06  2.15650727972860192E-06  2.21109852758134851E-06
  2.26707170849787764E-06  2.32446180366726669E-06  2.38330467969812015E-06
  2.44363711102619178E-06  2.50549680288765752E-06  2.56892241487586370E-06
  2.63395358509325386E-06  2.70063095491356006E-06  2.76899619437043804E-06
  2.83909202818964257E-06  2.91096226247885553E-06  2.98465181209262484E-06
  3.06020672868972728E-06  3.13767422949927261E-06  3.21710272681678203E-06
  3.29854185824441417E-06  3.38204251769604207E-06  3.46765688718822920E-06
  3.55543846943260808E-06  3.64544212125541778E-06  3.73772408786062321E-06
  3.83234203795968627E-06  3.92935509979099567E-06  4.02882389804861921E-06
  4.13081059174466594E-06  4.23537891303156319E-06  4.34259420700462352E-06
  4.45252347251029304E-06  4.56523540398716748E-06  4.68080043436538696E-06
  4.79929077905014060E-06  4.92078048101746602E-06  5.04534545704920567E-06
  5.17306354513929443E-06  5.30401455309610787E-06  5.43828030837431595E-06
  5.57594470916853979E-06  5.71709377679432224E-06  5.86181570939765365E-06
  6.01020093701906838E-06  6.16234217804995775E-06  6.31833449711975036E-06
  6.47827536443877268E-06  6.64226471664714443E-06  6.81040501920071858E-06
  6.98280133032878752E-06  7.15956136661504403E-06  7.34079557022984060E-06
  7.52661717786461229E-06  7.71714229140733092E-06  7.91248995040156923E-06
  8.11278220634069751E-06  8.31814419883206975E-06  8.52870423369457694E-06
  8.74459386302008269E-06  8.96594796726057193E-06  9.19290483939068122E-06
  9.42560627119384900E-06  9.66419764172510167E-06  9.90882800801438416E-06
  1.01596501980521106E-05  1.04168209061285451E-05  1.06805007905810648E-05
  1.09508545740004686E-05  1.12280511459783504E-05  1.15122636684415293E-05
  1.18036696836437954E-05  1.21024512248915071E-05  1.24087949300493428E-05
  1.27228921579292282E-05  1.30449391075978154E-05  1.33751369407085352E-05
  1.37136919069079640E-05  1.40608154724141681E-05  1.44167244518373110E-05
  1.47816411433230905E-05  1.51557934671029991E-05  1.55394151075383001E-05
  1.59327456587558500E-05  1.63360307739380082E-05  1.67495223183938366E-05
  1.71734785264753314E-05  1.76081641624487662E-05  1.80538506854437468E-05
  1.85108164185205948E-05  1.89793467220267023E-05  1.94597341713073711E-05
  1.99522787389028034E-05  2.04572879813174774E-05  2.09750772305100476E-05
  2.15059697901984889E-05  2.20502971371043542E-05  2.26083991272571890E-05
  2.31806242075210446E-05  2.37673296323998819E-05  2.43688816863336476E-05
  2.49856559115739785E-05  2.56180373417794668E-05  2.62664207415152488E-05
  2.69312108517524637E-05  2.76128226415271158E-05  2.83116815659782268E-05
  2.90282238307981452E-05  2.97628966633878847E-05  3.05161585908031525E-05
  3.12884797246509432E-05  3.20803420532217838E-05  3.28922397408424832E-05
  3.37246794348618651E-05  3.45781805802453031E-05  3.54532757421233900E-05
  3.63505109363975094E-05  3.72704459686559937E-05  3.82136547815864152E-05
  3.91807258110731232E-05  4.01722623512664107E-05  4.11888829287342746E-05
  4.22312216860508126E-05  4.32999287749451700E-05  4.43956707593103634E-05
  4.55191310282941199E-05  4.66710102197259182E-05  4.78520266541372462E-05
  4.90629167796235966E-05  5.03044356278499463E-05  5.15773572814057590E-05
  5.28824753529088360E-05  5.42206034759663076E-05  5.55925758085117576E-05
  5.69992475486044391E-05  5.84414954631378618E-05  5.99202184297464063E-05
  6.14363379921526977E-05  6.29907989294584294E-05  6.45845698394861481E-05
  6.62186437367508034E-05  6.78940386652468507E-05  6.96117983264885694E-05
  7.13729927231880303E-05  7.31787188189104916E-05  7.50301012140578918E-05
  7.69282928387883807E-05  7.88744756629239835E-05  8.08698614235998518E-05
  8.29156923709726629E-05  8.50132420322429285E-05  8.71638159947097686E-05
  8.93687527082837659E-05  9.16294243076075360E-05  9.39472374546692496E-05
  9.63236342022580442E-05  9.87600928785543853E-05  1.01258128993649067E-04
  1.03819296168478783E-04  1.06445187086504696E-04  1.09137434468838709E-04
  1.11897712073403486E-04  1.14727735718660908E-04  1.17629264332462611E-04
  1.20604101026450795E-04  1.23654094197175131E-04  1.26781138653860330E-04
  1.29987176773933030E-04  1.33274199686656220E-04  1.36644248485886328E-04
  1.40099415472309742E-04  1.43641845425959724E-04  1.47273736909667060E-04
  1.50997343604464669E-04  1.54814975677132672E-04  1.58729001181257624E-04
  1.62741847492041489E-04  1.66856002775966553E-04  1.71074017495936919E-04
  1.75398505952982341E-04  1.79832147864983111E-04  1.84377689983604079E-04
  1.89037947749912973E-04  1.93815806990038067E-04  1.98714225651497957E-04
  2.03736235581028225E-04  2.08884944345098756E-04  2.14163537093887610E-04
  2.19575278469631588E-04  2.25123514560598211E-04  2.30811674901464016E-04
  2.36643274521106101E-04  2.42621916039149340E-04  2.48751291811757447E-04
  2.55035186128450299E-04  2.61477477460445940E-04  2.68082140762001609E-04
  2.74853249825593676E-04  2.81794979692493613E-04  2.88911609119584022E-04
  2.96207523103523000E-04  3.03687215463823888E-04  3.11355291485891986E-04
  3.19216470624941132E-04  3.27275589272766894E-04  3.35537603587716222E-04
  3.44007592390262618E-04  3.52690760124114652E-04  3.61592439885744681E-04
  3.70718096522221229E-04  3.80073329799528756E-04  3.89663877642884419E-04
  3.99495619449361308E-04  4.09574579475846003E-04  4.19906930301978194E-04
  4.30498996370770419E-04  4.41357257607990626E-04  4.52488353121064204E-04
  4.63899084980190079E-04  4.75596422081891741E-04  4.87587504097306153E-04
  4.99879645506031605E-04  5.12480339717554054E-04  5.25397263281505034E-04
  5.38638280187484029E-04  5.52211446257618141E-04  5.66125013631162393E-04
  5.80387435344284085E-04  5.95007370005621239E-04  6.09993686569312334E-04
  6.25355469206235136E-04  6.41102022276166970E-04  6.57242875401005855E-04
  6.73787788640548067E-04  6.90746757772849030E-04  7.08130019679413330E-04
  7.25948057837482114E-04  7.44211607919489210E-04  7.62931663501660519E-04
  7.82119481882558444E-04  8.01786590012540314E-04  8.21944790534812650E-04
  8.42606167939717555E-04  8.63783094832509162E-04  8.85488238314524612E-04
  9.07734566481007278E-04  9.30535355032443786E-04  9.53904194003006578E-04
  9.77854994604772246E-04  1.00240199618822738E-03  1.02755977331882406E-03
  1.05334324297059263E-03  1.07976767183450744E-03  1.10684868374367920E-03
  1.13460226721227029E-03  1.16304478308929503E-03  1.19219297232501620E-03
  1.22206396384898306E-03  1.25267528255934568E-03  1.28404485741889069E-03
  1.31619102965888925E-03  1.34913256108654535E-03  1.38288864249447654E-03
  1.41747890216804969E-03  1.45292341448761248E-03  1.48924270862335530E-03
  1.52645777731656696E-03  1.56459008574314222E-03  1.60366158045620625E-03
  1.64369469839941080E-03  1.68471237598740624E-03  1.72673805824449388E-03
  1.76979570799749896E-03  1.81390981511194349E-03  1.85910540576529311E-03
  1.90540805174633479E-03  1.95284387977156973E-03  2.00143958080896151E-03
  2.05122241939522916E-03  2.10222024293528573E-03  2.15446149097123620E-03
  2.20797520440755906E-03  2.26279103467454286E-03  2.31893925281354690E-03
  2.37645075846959443E-03  2.43535708876758484E-03  2.49569042705645406E-03
  2.55748361149343763E-03  2.62077014345547289E-03  2.68558419574427276E-03
  2.75196062056312554E-03  2.81993495723368431E-03  2.88954343962611812E-03
  2.96082300327073613E-03  3.03381129210842596E-03  3.10854666486424418E-03
  3.18506820098501866E-03  3.26341570611500846E-03  3.34362971705240170E-03
  3.42575150615514155E-03  3.50982308513121634E-03  3.59588720817308541E-03
  3.68398737439157254E-03  3.77416782946688118E-03  3.86647356647292243E-03
  3.96095032579975217E-03  4.05764459410516004E-03  4.15660360222450034E-03
  4.25787532197502514E-03  4.36150846175523913E-03  4.46755246085556341E-03
  4.57605748238772755E-03  4.68707440473058613E-03  4.80065481139820265E-03
  4.91685097923832623E-03  5.03571586481734931E-03  5.15730308888024975E-03
  5.28166691875570776E-03  5.40886224855227984E-03  5.53894457705380455E-03
  5.67196998313651730E-03  5.80799509852751149E-03  5.94707707776285632E-03
  6.08927356513106789E-03  6.23464265844845753E-03  6.38324286949626049E-03
  6.53513308086136648E-03  6.69037249896850452E-03  6.84902060306968614E-03
  7.01113708992059156E-03  7.17678181400567290E-03  7.34601472292191904E-03
  7.51889578766699613E-03  7.69548492752069203E-03  7.87584192916020685E-03
  8.06002635982977327E-03  8.24809747409289626E-03  8.44011411379391729E-03
  8.63613460084046609E-03  8.83621662235560719E-03  9.04041710794406192E-03
  9.24879209848655792E-03  9.46139660595813128E-03  9.67828446377478474E-03
  9.89950816709306639E-03  1.01251187027559964E-02  1.03551653680677772E-02
  1.05896955777964701E-02  1.08287546587247426E-02  1.10723856310990226E-02
  1.13206289765062449E-02  1.15735223911033209E-02  1.18311005234936033E-02
  1.20933946962791944E-02  1.23604326107048749E-02  1.26322380334800560E-02
  1.29088304645537701E-02  1.31902247848823609E-02  1.34764308829822925E-02
  1.37674532597477309E-02  1.40632906098927517E-02  1.43639353787636728E-02
  1.46693732930926260E-02  1.49795828646498101E-02  1.52945348656122748E-02
  1.56141917736183078E-02  1.59385071850088357E-02  1.62674251944060037E-02
  1.66008797398291275E-02  1.69387939108490565E-02  1.72810792178132618E-02
  1.76276348198904122E-02  1.79783467104987840E-02  1.83330868581730762E-02
  1.86917122997352220E-02  1.90540641834467048E-02  1.94199667595295992E-02
  1.97892263167909650E-02  2.01616300612533252E-02  2.05369449339436946E-02
  2.09149163643759795E-02  2.12952669582873767E-02  2.16776951154005297E-02
  2.20618735731858348E-02  2.24474478726790320E-02  2.28340347437378487E-02
  2.32212204063201484E-02  2.36085587819113499E-02  2.39955696107826688E-02
  2.43817364709454053E-02  2.47665046961736864E-02  2.51492791854451593E-02
  2.55294220988482208E-02  2.59062504341569522E-02  2.62790334819133602E-02
  2.66469901499568167E-02  2.70092861512317532E-02  2.73650310476147920E-02
  2.77132751473773385E-02  2.80530062463587061E-02  2.83831462048816478E-02
  2.87025473517359131E-02  2.90099887121135352E-02  2.93041720491149481E-02
  2.95837177084143435E-02  2.98471602561511014E-02  3.00929439057352234E-02
  3.03194177228583474E-02  3.05248305954962801E-02  3.07073259577035663E-02
  3.08649362612416801E-02  3.09955771842486717E-02  3.10970415604708977E-02
  3.11669930163683169E-02  3.12029593087376073E-02  3.12023253513841539E-02
  3.11623259111648114E-02  3.10800379589704634E-02  3.09523726670106122E-02
  3.07760670398217265E-02  3.05476751561777719E-02  3.02635590054309810E-02
  2.99198789087337935E-02  2.95125835109311882E-02  2.90373993171657574E-02
  2.84898197556812741E-02  2.78650937568528656E-02  2.71582138317619792E-02
  2.63639036218037519E-02  2.54766048985932136E-02  2.44904640045128692E-02
  2.33993177141289602E-02  2.21966784857396716E-02  2.08757190807211182E-02
  1.94292565419538869E-02  1.78497355076653701E-02  1.61292108290411428E-02
  1.42593294680788008E-02  1.22313116689841388E-02  1.00359313748044441E-02
  7.66349585853028353E-03  5.10382454552589949E-03  2.34622702226758512E-03
 -6.20519800111013074E-04 -3.80819539590277097E-03 -7.22916022906797042E-03
 -1.08963812545072210E-02 -1.48234583501210687E-02 -1.90246517016868372E-02
 -2.35149101563440592E-02 -2.83099005463541310E-02 -3.34260380134642210E-02
 -3.88805173472037344E-02 -4.46913453442075864E-02 -5.08773741896566892E-02
 -5.74583358802225677E-02 -6.44548776884487779E-02 -7.18885986644878655E-02
 -7.97820871740894527E-02 -8.81589594701710222E-02 -9.70438992789661309E-02
 -1.06462698385347068E-01 -1.16442298205513453E-01 -1.27010832310804095E-01
 -1.38197669855668337E-01 -1.50033459888356868E-01 -1.62550176500404070E-01
 -1.75781164735778678E-01 -1.89761187173370455E-01 -2.04526471162845030E-01
 -2.20114756603110251E-01 -2.36565344132060373E-01 -2.53919143595552232E-01
 -2.72218722775731059E-01 -2.91508356157463344E-01 -3.11834073535908085E-01
 -3.33243708300018537E-01 -3.55786945335513471E-01 -3.79515368182959723E-01
 -4.04482505161896988E-01 -4.30743874302046803E-01 -4.58357026898927489E-01
 -4.87381589175909846E-01 -5.17879301636490319E-01 -5.49914056010832986E-01
 -5.83551929341731945E-01 -6.18861214550813998E-01 -6.55912446924559855E-01
 -6.94778426511757918E-01 -7.35534235541962622E-01 -7.78257250067845185E-01
 -8.23027145200731614E-01 -8.69925893888546908E-01 -9.19037757837008695E-01
 -9.70449269584198415E-01 -1.02424920523522323E+00 -1.08052854739822290E+00
 -1.13938043650403054E+00 -1.20090010923823209E+00 -1.26518482397089649E+00
 -1.33233377181665658E+00 -1.40244797126881604E+00 -1.47563014487617039E+00
 -1.55198457828123892E+00 -1.63161695891816749E+00 -1.71463419219901514E+00
 -1.80114419379817381E+00 -1.89125565820052666E+00 -1.98507779958488584E+00
 -2.08272006265179055E+00 -2.18429180292206437E+00 -2.28990193528782582E+00
 -2.39965854635130649E+00 -2.51366846784093623E+00 -2.63203681214834706E+00
 -2.75486646618026976E+00 -2.88225753929547768E+00 -3.01430676284662180E+00
 -3.15110684339810110E+00 -3.29274576302024391E+00 -3.43930602299242461E+00
 -3.59086383035012702E+00 -3.74748822799348336E+00 -3.90924016072039171E+00
 -4.07617147392114898E+00 -4.24832384802554319E+00 -4.42572766548345697E+00
 -4.60840080400196861E+00 -4.79634735393555989E+00 -4.98955626649686135E+00
 -5.18799992504948726E+00 -5.39163263618332689E+00 -5.60038904252058156E+00
 -5.81418246382477744E+00 -6.03290315778960196E+00 -6.25641650047667763E+00
 -6.48456109567386108E+00 -6.71714681542911585E+00 -6.95395276785029193E+00
 -7.19472519654140985E+00 -7.43917532837478035E+00 -7.68697716770843975E+00
 -7.93776524173523246E+00 -8.19113230964700278E+00 -8.44662705481151121E+00
 -8.70375176121325111E+00 -8.96195998873612432E+00 -9.22065427154217865E+00
 -9.47918385740562641E+00 -9.73684250203227464E+00 -9.99286634428089293E+00
 -1.02464318957975067E+01 -1.04966541668932880E+01 -1.07425849606668216E+01
 -1.09832113745544326E+01 -1.12174545468311191E+01 -1.14441686868111461E+01
 -1.16621404397763087E+01 -1.18700886340007941E+01 -1.20666644567035988E+01
 -1.22504521226856422E+01 -1.24199701047375495E+01 -1.25736729686355808E+01
 -1.27099538885939296E+01 -1.28271479292619528E+01 -1.29235361682653149E+01
 -1.29973506986414833E+01 -1.30467806281946022E+01 -1.30699791774899623E+01
 -1.30650719185988855E+01 -1.30301662261693547E+01 -1.29633620783344021E+01
 -1.28627643084971375E+01 -1.27264962832640194E+01 -1.25527151492061986E+01
 -1.23396287676327994E+01 -1.20855143729465020E+01 -1.17887388954610248E+01
 -1.14477811284548867E+01 -1.10612558047839951E+01 -1.06279394469428556E+01
 -1.01467979845428857E+01 -9.61701623546116480E+00 -9.03802919208569655E+00
 -8.40955475385067963E+00 -7.73162795856293350E+00 -7.00463659619176493E+00
 -6.22935784703558681E+00 -5.40699546387866103E+00 -4.53921739253943990E+00
 -3.62819339332014001E+00 -2.67663183219689582E+00 -1.68781510130893930E+00
 -6.65633083917970825E-01  3.85386277120357279E-01  1.46005060484523708E+00
  2.55248175174357828E+00  3.65610081236703621E+00  4.76362113537192844E+00
  5.86705098750830523E+00  6.95770751505304830E+00  8.02624416285480002E+00
  9.06269377484539085E+00  1.00565295828201329E+01  1.09967467192265804E+01
  1.18719670495875018E+01  1.26705695379486212E+01  1.33808490860121339E+01
  1.39912068386921558E+01  1.44903738370975255E+01  1.48676694602637554E+01
  1.51132968194990553E+01  1.52186759629444381E+01  1.51768119689469128E+01
  1.49826962007105227E+01  1.46337367428044853E+01  1.41302093720164521E+01
  1.34757146625802360E+01  1.26776271008334511E+01  1.17475136822305046E+01
  1.07014880558895822E+01  9.56046054475869944E+00  8.35023452674377964E+00
  7.10138200539431530E+00  5.84881266359852958E+00  4.63093697316737440E+00
  3.48829422966158331E+00  2.46148652118942302E+00  1.58823262114839170E+00
  8.99309369919771839E-01  4.13091246299308323E-01  1.28363879410537979E-01
  1.50399548023168357E-02 -1.42146344112450480E-04 -8.87745235510842042E-06
  0.00000000000000000E+00  0.00000000000000000E+00  0.00000000000000000E+00
  0.00000000000000000E+00  0.00000000000000000E+00  0.00000000000000000E+00
  0.00000000000000000E+00  0.00000000000000000E+00  0.00000000000000000E+00
  0.00000000000000000E+00  0.00000000000000000E+00  0.00000000000000000E+00
  0.00000000000000000E+00  0.00000000000000000E+00  0.00000000000000000E+00
  0.00000000000000000E+00  0.00000000000000000E+00  0.00000000000000000E+00
  0.00000000000000000E+00  0.00000000000000000E+00  0.00000000000000000E+00
  0.00000000000000000E+00  0.00000000000000000E+00  0.00000000000000000E+00
  0.00000000000000000E+00  0.00000000000000000E+00  0.00000000000000000E+00
  0.00000000000000000E+00  0.00000000000000000E+00  0.00000000000000000E+00
  0.00000000000000000E+00  0.00000000000000000E+00  0.00000000000000000E+00
  0.00000000000000000E+00  0.00000000000000000E+00  0.00000000000000000E+00
  0.00000000000000000E+00  0.00000000000000000E+00  0.00000000000000000E+00
  0.00000000000000000E+00  0.00000000000000000E+00  0.00000000000000000E+00
  0.00000000000000000E+00  0.00000000000000000E+00  0.00000000000000000E+00
  0.00000000000000000E+00  0.00000000000000000E+00  0.00000000000000000E+00
  0.00000000000000000E+00  0.00000000000000000E+00  0.00000000000000000E+00
  0.00000000000000000E+00  0.00000000000000000E+00  0.00000000000000000E+00
  0.00000000000000000E+00  0.00000000000000000E+00  0.00000000000000000E+00
  0.00000000000000000E+00  0.00000000000000000E+00  0.00000000000000000E+00
  0.00000000000000000E+00  0.00000000000000000E+00  0.00000000000000000E+00
  0.00000000000000000E+00  0.00000000000000000E+00  0.00000000000000000E+00
  0.00000000000000000E+00  0.00000000000000000E+00  0.00000000000000000E+00
  0.00000000000000000E+00  0.00000000000000000E+00  0.00000000000000000E+00
  0.00000000000000000E+00  0.00000000000000000E+00  0.00000000000000000E+00
  0.00000000000000000E+00  0.00000000000000000E+00  0.00000000000000000E+00
  0.00000000000000000E+00  0.00000000000000000E+00  0.00000000000000000E+00
  0.00000000000000000E+00  0.00000000000000000E+00  0.00000000000000000E+00
  0.00000000000000000E+00  0.00000000000000000E+00  0.00000000000000000E+00
  0.00000000000000000E+00  0.00000000000000000E+00  0.00000000000000000E+00
  0.00000000000000000E+00  0.00000000000000000E+00  0.00000000000000000E+00
  0.00000000000000000E+00  0.00000000000000000E+00  0.00000000000000000E+00
  0.00000000000000000E+00  0.00000000000000000E+00  0.00000000000000000E+00
  0.00000000000000000E+00  0.00000000000000000E+00  0.00000000000000000E+00
  0.00000000000000000E+00  0.00000000000000000E+00  0.00000000000000000E+00
  0.00000000000000000E+00  0.00000000000000000E+00  0.00000000000000000E+00
  0.00000000000000000E+00  0.00000000000000000E+00  0.00000000000000000E+00
  0.00000000000000000E+00  0.00000000000000000E+00  0.00000000000000000E+00
  0.00000000000000000E+00  0.00000000000000000E+00  0.00000000000000000E+00
  0.00000000000000000E+00  0.00000000000000000E+00  0.00000000000000000E+00
  0.00000000000000000E+00  0.00000000000000000E+00  0.00000000000000000E+00
  0.00000000000000000E+00  0.00000000000000000E+00  0.00000000000000000E+00
  0.00000000000000000E+00  0.00000000000000000E+00  0.00000000000000000E+00
  0.00000000000000000E+00  0.00000000000000000E+00  0.00000000000000000E+00
  0.00000000000000000E+00  0.00000000000000000E+00  0.00000000000000000E+00
  0.00000000000000000E+00  0.00000000000000000E+00  0.00000000000000000E+00
  0.00000000000000000E+00  0.00000000000000000E+00  0.00000000000000000E+00
  0.00000000000000000E+00  0.00000000000000000E+00  0.00000000000000000E+00
  0.00000000000000000E+00  0.00000000000000000E+00  0.00000000000000000E+00
  0.00000000000000000E+00  0.00000000000000000E+00  0.00000000000000000E+00
  0.00000000000000000E+00  0.00000000000000000E+00  0.00000000000000000E+00
  0.00000000000000000E+00  0.00000000000000000E+00  0.00000000000000000E+00
  0.00000000000000000E+00  0.00000000000000000E+00  0.00000000000000000E+00
  0.00000000000000000E+00  0.00000000000000000E+00  0.00000000000000000E+00
  0.00000000000000000E+00  0.00000000000000000E+00  0.00000000000000000E+00
  0.00000000000000000E+00  0.00000000000000000E+00  0.00000000000000000E+00
  0.00000000000000000E+00  0.00000000000000000E+00  0.00000000000000000E+00
  0.00000000000000000E+00  0.00000000000000000E+00  0.00000000000000000E+00
  0.00000000000000000E+00  0.00000000000000000E+00  0.00000000000000000E+00
                              </PP_BETA.3>
 <PP_BETA.4 type="real" size="   888" angular_momentum="1" columns="3" cutoff_radius_index="   711" norm_conserving_radius="    1.607276" label= "0P">
 -3.67704870477641126E-08 -3.77013348777214226E-08 -3.86557471567239197E-08
 -3.96343204177464642E-08 -4.06376662948854902E-08 -4.16664119055792882E-08
 -4.27212002426217882E-08 -4.38026905760311009E-08 -4.49115588650405734E-08
 -4.60484981806476925E-08 -4.72142191387616079E-08 -4.84094503442970006E-08
 -4.96349388466337574E-08 -5.08914506064675633E-08 -5.21797709745328273E-08
 -5.35007051825123455E-08 -5.48550788462158340E-08 -5.62437384816515077E-08
 -5.76675520341025656E-08 -5.91274094205194249E-08 -6.06242230858175292E-08
 -6.21589285730616735E-08 -6.37324851082124728E-08 -6.53458761996694836E-08
 -6.70001102528664329E-08 -6.86962212006351088E-08 -7.04352691492898793E-08
 -7.22183410412581921E-08 -7.40465513343899071E-08 -7.59210426984368875E-08
 -7.78429867293002444E-08 -7.98135846811293707E-08 -8.18340682172324108E-08
 -8.39057001797042807E-08 -8.60297753787986276E-08 -8.82076214020697117E-08
 -9.04405994441387185E-08 -9.27301051573944522E-08 -9.50775695242252477E-08
 -9.74844597513919280E-08 -9.99522801869202303E-08 -1.02482573260368298E-07
 -1.05076920446694997E-07 -1.07736943254744655E-07 -1.10464304240516203E-07
 -1.13260708046324163E-07 -1.16127902466019668E-07 -1.19067679537405048E-07
 -1.22081876662086368E-07 -1.25172377753854236E-07 -1.28341114415993565E-07
 -1.31590067148467916E-07 -1.34921266585657141E-07 -1.38336794765333837E-07
 -1.41838786429942987E-07 -1.45429430360545870E-07 -1.49110970744870650E-07
 -1.52885708579613564E-07 -1.56756003108579554E-07 -1.60724273296956584E-07
 -1.64792999343026197E-07 -1.68964724228194232E-07 -1.73242055306038693E-07
 -1.77627665931884271E-07 -1.82124297133296240E-07 -1.86734759323059303E-07
 -1.91461934055522768E-07 -1.96308775827201648E-07 -2.01278313923213775E-07
 -2.06373654310223892E-07 -2.11597981577346442E-07 -2.16954560926350825E-07
 -2.22446740211968873E-07 -2.28077952033941878E-07 -2.33851715882145315E-07
 -2.39771640335784509E-07 -2.45841425318339192E-07 -2.52064864409682318E-07
 -2.58445847216533290E-07 -2.64988361802916801E-07 -2.71696497182305819E-07
 -2.78574445872687898E-07 -2.85626506516218276E-07 -2.92857086565361412E-07
 -3.00270705036903734E-07 -3.07871995335561738E-07 -3.15665708149222974E-07
 -3.23656714417379051E-07 -3.31850008374619511E-07 -3.40250710671148436E-07
 -3.48864071572349545E-07 -3.57695474239252635E-07 -3.66750438092001039E-07
 -3.76034622258435943E-07 -3.85553829109861789E-07 -3.95314007886472324E-07
 -4.05321258414341508E-07 -4.15581834916455770E-07 -4.26102149920320776E-07
 -4.36888778264194927E-07 -4.47948461204933600E-07 -4.59288110629621670E-07
 -4.70914813373758862E-07 -4.82835835648804507E-07 -4.95058627581617062E-07
 -5.07590827868664253E-07 -5.20440268548234332E-07 -5.33614979893221423E-07
 -5.47123195427624783E-07 -5.60973357070029747E-07 -5.75174120407225010E-07
 -5.89734360101190752E-07 -6.04663175432846057E-07 -6.19969895985975522E-07
 -6.35664087475102757E-07 -6.51755557720580971E-07 -6.68254362774880417E-07
 -6.85170813203996263E-07 -7.02515480527381436E-07 -7.20299203821107683E-07
 -7.38533096487792077E-07 -7.57228553197779073E-07 -7.76397257006167452E-07
 -7.96051186649218619E-07 -8.16202624025816299E-07 -8.36864161868046455E-07
 -8.58048711605327086E-07 -8.79769511428013870E-07 -9.02040134554409645E-07
 -9.24874497707058797E-07 -9.48286869803336107E-07 -9.72291880865582092E-07
 -9.96904531156880413E-07 -1.02214020054725703E-06 -1.04801465811742437E-06
 -1.07454407200460684E-06 -1.10174501949749539E-06 -1.12963449738663099E-06
 -1.15822993257620828E-06 -1.18754919296394001E-06 -1.21761059859644599E-06
 -1.24843293310592710E-06 -1.28003545543638311E-06 -1.31243791186624504E-06
 -1.34566054833412900E-06 -1.37972412307700593E-06 -1.41464991958719342E-06
 -1.45045975989663113E-06 -1.48717601819747934E-06 -1.52482163480571713E-06
 -1.56342013047905018E-06 -1.60299562109503291E-06 -1.64357283270117911E-06
 -1.68517711694428649E-06 -1.72783446689014320E-06 -1.77157153324275507E-06
 -1.81641564097304590E-06 -1.86239480636739202E-06 -1.90953775450668245E-06
 -1.95787393718763869E-06 -2.00743355129512183E-06 -2.05824755763979498E-06
 -2.11034770027041798E-06 -2.16376652627346274E-06 -2.21853740607464052E-06
 -2.27469455424972940E-06 -2.33227305086301769E-06 -2.39130886334321473E-06
 -2.45183886891231456E-06 -2.51390087757899772E-06 -2.57753365571367788E-06
 -2.64277695021770648E-06 -2.70967151330217982E-06 -2.77825912789130250E-06
 -2.84858263366883260E-06 -2.92068595377805230E-06 -2.99461412219768804E-06
 -3.07041331180731004E-06 -3.14813086315931654E-06 -3.22781531397859305E-06
 -3.30951642940412833E-06 -3.39328523299177646E-06 -3.47917403850265363E-06
 -3.56723648248694178E-06 -3.65752755769323764E-06 -3.75010364731814991E-06
 -3.84502256011609531E-06 -3.94234356640003439E-06 -4.04212743493953573E-06
 -4.14443647079767297E-06 -4.24933455411294581E-06 -4.35688717986208295E-06
 -4.46716149862134702E-06 -4.58022635835491517E-06 -4.69615234725484094E-06
 -4.81501183765685384E-06 -4.93687903106483780E-06 -5.06183000430237845E-06
 -5.18994275683039272E-06 -5.32129725925065451E-06 -5.45597550303013544E-06
 -5.59406155147486394E-06 -5.73564159198463978E-06 -5.88080398962114499E-06
 -6.02963934202040294E-06 -6.18224053568677775E-06 -6.33870280369648817E-06
 -6.49912378485581164E-06 -6.66360358433587684E-06 -6.83224483583819384E-06
 -7.00515276531243058E-06 -7.18243525627558136E-06 -7.36420291677036771E-06
 -7.55056914799721799E-06 -7.74165021467455836E-06 -7.93756531715288215E-06
 -8.13843666534291472E-06 -8.34438955449105815E-06 -8.55555244285284523E-06
 -8.77205703131199181E-06 -8.99403834499143508E-06 -9.22163481690029355E-06
 -9.45498837368607992E-06 -9.69424452351396616E-06 -9.93955244615307597E-06
 -1.01910650853160322E-05 -1.04489392432912262E-05 -1.07133356779478512E-05
 -1.09844192021681583E-05 -1.12623587857415323E-05 -1.15473276598138352E-05
 -1.18395034239430807E-05 -1.21390681558085795E-05 -1.24462085236620003E-05
 -1.27611159015842660E-05 -1.30839864875990058E-05 -1.34150214247279190E-05
 -1.37544269250585284E-05 -1.41024143968979320E-05 -1.44592005750836094E-05
 -1.48250076545143950E-05 -1.52000634270268382E-05 -1.55846014216392208E-05
 -1.59788610482864553E-05 -1.63830877451045465E-05 -1.67975331293778757E-05
 -1.72224551522141382E-05 -1.76581182570440491E-05 -1.81047935420332227E-05
 -1.85627589265280630E-05 -1.90322993215821177E-05 -1.95137068047167421E-05
 -2.00072807989720735E-05 -2.05133282563764381E-05 -2.10321638459271496E-05
 -2.15641101462106767E-05 -2.21094978427440171E-05 -2.26686659301750785E-05
 -2.32419619194274120E-05 -2.38297420499456550E-05 -2.44323715071371729E-05
 -2.50502246451298356E-05 -2.56836852149881548E-05 -2.63331465985044066E-05
 -2.69990120476897266E-05 -2.76816949301196490E-05 -2.83816189802557956E-05
 -2.90992185568762039E-05 -2.98349389067879591E-05 -3.05892364349158907E-05
 -3.13625789809746433E-05 -3.21554461028293319E-05 -3.29683293667249475E-05
 -3.38017326445186854E-05 -3.46561724181154989E-05 -3.55321780912336798E-05
 -3.64302923086713156E-05 -3.73510712832683526E-05 -3.82950851307258585E-05
 -3.92629182124320099E-05 -4.02551694865373535E-05 -4.12724528673837714E-05
 -4.23153975935682344E-05 -4.33846486047196800E-05 -4.44808669273109047E-05
 -4.56047300695851010E-05 -4.67569324258654861E-05 -4.79381856904682584E-05
 -4.91492192813343826E-05 -5.03907807737321228E-05 -5.16636363440996636E-05
 -5.29685712243508321E-05 -5.43063901668429172E-05 -5.56779179201737247E-05
 -5.70839997161414760E-05 -5.85255017680027099E-05 -6.00033117803324149E-05
 -6.15183394706745012E-05 -6.30715171032745131E-05 -6.46638000351230571E-05
 -6.62961672745017352E-05 -6.79696220524249502E-05 -6.96851924070606289E-05
 -7.14439317815277765E-05 -7.32469196352629031E-05 -7.50952620692497226E-05
 -7.69900924653175138E-05 -7.89325721398977781E-05 -8.09238910124033693E-05
 -8.29652682885246456E-05 -8.50579531587783276E-05 -8.72032255125016560E-05
 -8.94023966676623624E-05 -9.16568101166737541E-05 -9.39678422885605844E-05
 -9.63369033277490896E-05 -9.87654378897504138E-05 -1.01254925953999216E-04
 -1.03806883654204837E-04 -1.06422864126439219E-04 -1.09104458375184357E-04
 -1.11853296157837716E-04 -1.14671046887646354E-04 -1.17559420555616811E-04
 -1.20520168671531228E-04 -1.23555085224374126E-04 -1.26666007662408492E-04
 -1.29854817893261331E-04 -1.33123443304097931E-04 -1.36473857802346535E-04
 -1.39908082877017372E-04 -1.43428188680997553E-04 -1.47036295134463248E-04
 -1.50734573049638338E-04 -1.54525245277198890E-04 -1.58410587874293349E-04
 -1.62392931294604584E-04 -1.66474661600481057E-04 -1.70658221697356482E-04
 -1.74946112590508438E-04 -1.79340894664291328E-04 -1.83845188984066703E-04
 -1.88461678620724214E-04 -1.93193109997873743E-04 -1.98042294261896505E-04
 -2.03012108674603415E-04 -2.08105498028673166E-04 -2.13325476085611385E-04
 -2.18675127036395715E-04 -2.24157606984397805E-04 -2.29776145450612468E-04
 -2.35534046900812225E-04 -2.41434692294427899E-04 -2.47481540654942607E-04
 -2.53678130661225782E-04 -2.60028082259490707E-04 -2.66535098295443001E-04
 -2.73202966166166661E-04 -2.80035559490926771E-04 -2.87036839800217114E-04
 -2.94210858242557795E-04 -3.01561757307810532E-04 -3.09093772566470355E-04
 -3.16811234423407457E-04 -3.24718569885757119E-04 -3.32820304343034012E-04
 -3.41121063358510769E-04 -3.49625574470106522E-04 -3.58338668999471038E-04
 -3.67265283867587884E-04 -3.76410463414333745E-04 -3.85779361221616414E-04
 -3.95377241936309236E-04 -4.05209483091863187E-04 -4.15281576924942969E-04
 -4.25599132185636273E-04 -4.36167875937021267E-04 -4.46993655341976616E-04
 -4.58082439434687324E-04 -4.69440320871423187E-04 -4.81073517658279462E-04
 -4.92988374850962204E-04 -5.05191366222436161E-04 -5.17689095893932331E-04
 -5.30488299925530233E-04 -5.43595847859732416E-04 -5.57018744212670492E-04
 -5.70764129906983796E-04 -5.84839283639628361E-04 -5.99251623178617514E-04
 -6.14008706582756152E-04 -6.29118233334628003E-04 -6.44588045379443668E-04
 -6.60426128061082662E-04 -6.76640610944801856E-04 -6.93239768520906318E-04
 -7.10232020777108427E-04 -7.27625933627050101E-04 -7.45430219185606781E-04
 -7.63653735875880618E-04 -7.82305488357628058E-04 -8.01394627265542654E-04
 -8.20930448739110312E-04 -8.40922393729297345E-04 -8.61380047065655216E-04
 -8.82313136264634579E-04 -9.03731530070428480E-04 -9.25645236699747373E-04
 -9.48064401772882740E-04 -9.70999305908857766E-04 -9.94460361958764355E-04
 -1.01845811186551780E-03 -1.04300322311549226E-03 -1.06810648475513413E-03
 -1.09377880294484874E-03 -1.12003119601706983E-03 -1.14687478902129707E-03
 -1.17432080771279180E-03 -1.20238057194820870E-03 -1.23106548845214867E-03
 -1.26038704291241382E-03 -1.29035679138283003E-03 -1.32098635093266955E-03
 -1.35228738949856857E-03 -1.38427161488904752E-03 -1.41695076289356076E-03
 -1.45033658446287479E-03 -1.48444083187951326E-03 -1.51927524386676733E-03
 -1.55485152956343097E-03 -1.59118135132210151E-03 -1.62827630626304109E-03
 -1.66614790649145545E-03 -1.70480755790654672E-03 -1.74426653751171977E-03
 -1.78453596918880675E-03 -1.82562679781210859E-03 -1.86754976160765176E-03
 -1.91031536265000236E-03 -1.95393383541898197E-03 -1.99841511332787391E-03
 -2.04376879306830206E-03 -2.09000409665853438E-03 -2.13712983105461378E-03
 -2.18515434526613504E-03 -2.23408548478525211E-03 -2.28393054317904947E-03
 -2.33469621067327032E-03 -2.38638851961954111E-03 -2.43901278669820263E-03
 -2.49257355161541837E-03 -2.54707451211682494E-03 -2.60251845511755156E-03
 -2.65890718385409760E-03 -2.71624144074123072E-03 -2.77452082571445074E-03
 -2.83374370979068858E-03 -2.89390714373916448E-03 -2.95500676153487209E-03
 -3.01703667828218417E-03 -3.07998938230294970E-03 -3.14385562118777448E-03
 -3.20862428154700466E-03 -3.27428226200226309E-03 -3.34081433908222205E-03
 -3.40820302570129900E-03 -3.47642842201940526E-03 -3.54546805808170435E-03
 -3.61529672785126238E-03 -3.68588631417909049E-03 -3.75720560454729157E-03
 -3.82922009687006269E-03 -3.90189179486673862E-03 -3.97517899243353488E-03
 -4.04903604683107352E-03 -4.12341313990065295E-03 -4.19825602667770782E-03
 -4.27350577071273444E-03 -4.34909846585675944E-03 -4.42496494368476746E-03
 -4.50103046572563129E-03 -4.57721439970310787E-03 -4.65342987944712249E-03
 -4.72958344761778560E-03 -4.80557468017907621E-03 -4.88129579171816402E-03
 -4.95663122113326575E-03 -5.03145719682018995E-03 -5.10564128002061971E-03
 -5.17904188529867433E-03 -5.25150777754976577E-03 -5.32287754460944972E-03
 -5.39297904385055513E-03 -5.46162882158157410E-03 -5.52863150453621402E-03
 -5.59377916242145921E-03 -5.65685063963491420E-03 -5.71761085477793911E-03
 -5.77581006716911937E-03 -5.83118310917521334E-03 -5.88344858218289076E-03
 -5.93230801464316414E-03 -5.97744498134129051E-03 -6.01852418248377541E-03
 -6.05519048016974881E-03 -6.08706789045700570E-03 -6.11375853018183979E-03
 -6.13484151683008419E-03 -6.14987181878151427E-03 -6.15837905394792367E-03
 -6.15986623601990756E-03 -6.15380846623500566E-03 -6.13965156782755091E-03
 -6.11681066100089495E-03 -6.08466867778490340E-03 -6.04257481419784998E-03
 -5.98984291683554541E-03 -5.92574980164735973E-03 -5.84953350438455200E-03
 -5.76039145970159115E-03 -5.65747860608326048E-03 -5.53990541442419757E-03
 -5.40673583991398143E-03 -5.25698519374572393E-03 -5.08961793217484020E-03
 -4.90354536096687318E-03 -4.69762325495791735E-03 -4.47064938913528838E-03
 -4.22136097925234280E-03 -3.94843203055566389E-03 -3.65047059429229751E-03
 -3.32601592878625568E-03 -2.97353556388873586E-03 -2.59142226818813350E-03
 -2.17799091852353185E-03 -1.73147526980333560E-03 -1.25002462504875513E-03
 -7.31700405995934088E-04 -1.74472624037313502E-04  4.23783748386510266E-04
  1.06529250432127465E-03  1.75238002572688091E-03  2.48747920254712785E-03
  3.27313344442273267E-03  4.11200078089976953E-03  5.00685804889424227E-03
  5.96060516247436112E-03  6.97626945828688783E-03  8.05701010936846554E-03
  9.20612260596117768E-03  1.04270432916653954E-02  1.17233539435893427E-02
  1.30987863866249572E-02  1.45572271382842736E-02  1.61027220630275934E-02
  1.77394810182971187E-02  1.94718824820195487E-02  2.13044781502313499E-02
  2.32419974729694903E-02  2.52893521017219479E-02  2.74516402414657461E-02
  2.97341508783846194E-02  3.21423678408106622E-02  3.46819736562268485E-02
  3.73588532024188361E-02  4.01790970947072043E-02  4.31490047558758805E-02
  4.62750871255225571E-02  4.95640690036294601E-02  5.30228909347664409E-02
  5.66587105644465253E-02  6.04789034317522040E-02  6.44910631649721205E-02
  6.87030009553933063E-02  7.31227442190472282E-02  7.77585344342002494E-02
  8.26188240578550476E-02  8.77122723757888384E-02  9.30477401744921745E-02
  9.86342832506979517E-02  1.04481144565960124E-01  1.10597744887272448E-01
  1.16993671807319816E-01  1.23678667147068308E-01  1.30662612455624688E-01
  1.37955512425788823E-01  1.45567476178238203E-01  1.53508696315012488E-01
  1.61789425408974036E-01  1.70419949715586799E-01  1.79410560162868188E-01
  1.88771520326035530E-01  1.98513031056405831E-01  2.08645191555551335E-01
  2.19177957018939634E-01  2.30121092336279920E-01  2.41484121540775531E-01
  2.53276272924915724E-01  2.65506419837402918E-01  2.78183016546263262E-01
  2.91314028866108132E-01  3.04906859726013280E-01  3.18968269377138736E-01
  3.33504289691684830E-01  3.48520132307721220E-01  3.64020091054720329E-01
  3.80007437973612416E-01  3.96484312564121089E-01  4.13451604292023878E-01
  4.30908828762814278E-01  4.48853996740302852E-01  4.67283475837469264E-01
  4.86191845461780903E-01  5.05571745028029707E-01  5.25413714901845408E-01
  5.45706030177484869E-01  5.66434528457999353E-01  5.87582431202027911E-01
  6.09130158689842216E-01  6.31055139326492154E-01  6.53331614627332691E-01
  6.75930439530133764E-01  6.98818878777777264E-01  7.21960401061542134E-01
  7.45314472017301388E-01  7.68836346602037590E-01  7.92476862419721595E-01
  8.16182236584083287E-01  8.39893867215840695E-01  8.63548141489204668E-01
  8.87076252936093490E-01  9.10404030995474511E-01  9.33451784953516106E-01
  9.56134165735521457E-01  9.78360049340562754E-01  1.00003244538136848E+00
  1.02104843488385932E+00  1.04129914241146304E+00  1.06066974664048108E+00
  1.07903953463985736E+00  1.09628200620044192E+00  1.11226503433547963E+00
  1.12685108621392005E+00  1.13989751291793029E+00  1.15125691630444860E+00
  1.16077759796780389E+00  1.16830409686536396E+00  1.17367782649749408E+00
  1.17673782093718149E+00  1.17732159104966860E+00  1.17526610281980703E+00
  1.17040888895977346E+00  1.16258929981958481E+00  1.15164989303109921E+00
  1.13743797777027855E+00  1.11980732264946203E+00  1.09862002207226750E+00
  1.07374852482796457E+00  1.04507783681690558E+00  1.01250789942060382E+00
  9.75956122192035203E-01  9.35360079345782913E-01  8.90680368140709500E-01
  8.41903608792276659E-01  7.89045554951521511E-01  7.32154314322100763E-01
  6.71313654133845250E-01  6.06646332594550475E-01  5.38317421091839998E-01
  4.66537580412501818E-01  3.91566224968074972E-01  3.13714473981680897E-01
  2.33347831797765110E-01  1.50888500563113009E-01  6.68171943967375143E-02
 -1.83256797316857303E-02 -1.03939599431052077E-01 -1.89364435980225454E-01
 -2.73882091207959644E-01 -3.56719445049399342E-01 -4.37052833204020219E-01
 -5.14014300977531424E-01 -5.86699853129009852E-01 -6.54179953285133231E-01
 -7.15512550554970650E-01 -7.69758847447657879E-01 -8.16001986865326545E-01
 -8.53368885572521330E-01 -8.81055364760046200E-01 -8.98354456136545076E-01
 -9.04687832024731353E-01 -8.99640152064753895E-01 -8.82995770819996251E-01
 -8.54776796332442745E-01 -8.15281501125289521E-01 -7.65121448545372784E-01
 -7.05254782812165470E-01 -6.37012659736307940E-01 -5.62115026418869235E-01
 -4.82670548101167995E-01 -4.01153925556532731E-01 -3.20352783649929695E-01
 -2.43273917885182850E-01 -1.72996200211349788E-01 -1.12455183431879949E-01
 -6.41407843420634116E-02 -2.96847393170531978E-02 -9.31143265402512368E-03
 -1.12188875548200999E-03  1.21952486798672116E-05  7.61628727001058433E-07
  0.00000000000000000E+00  0.00000000000000000E+00  0.00000000000000000E+00
  0.00000000000000000E+00  0.00000000000000000E+00  0.00000000000000000E+00
  0.00000000000000000E+00  0.00000000000000000E+00  0.00000000000000000E+00
  0.00000000000000000E+00  0.00000000000000000E+00  0.00000000000000000E+00
  0.00000000000000000E+00  0.00000000000000000E+00  0.00000000000000000E+00
  0.00000000000000000E+00  0.00000000000000000E+00  0.00000000000000000E+00
  0.00000000000000000E+00  0.00000000000000000E+00  0.00000000000000000E+00
  0.00000000000000000E+00  0.00000000000000000E+00  0.00000000000000000E+00
  0.00000000000000000E+00  0.00000000000000000E+00  0.00000000000000000E+00
  0.00000000000000000E+00  0.00000000000000000E+00  0.00000000000000000E+00
  0.00000000000000000E+00  0.00000000000000000E+00  0.00000000000000000E+00
  0.00000000000000000E+00  0.00000000000000000E+00  0.00000000000000000E+00
  0.00000000000000000E+00  0.00000000000000000E+00  0.00000000000000000E+00
  0.00000000000000000E+00  0.00000000000000000E+00  0.00000000000000000E+00
  0.00000000000000000E+00  0.00000000000000000E+00  0.00000000000000000E+00
  0.00000000000000000E+00  0.00000000000000000E+00  0.00000000000000000E+00
  0.00000000000000000E+00  0.00000000000000000E+00  0.00000000000000000E+00
  0.00000000000000000E+00  0.00000000000000000E+00  0.00000000000000000E+00
  0.00000000000000000E+00  0.00000000000000000E+00  0.00000000000000000E+00
  0.00000000000000000E+00  0.00000000000000000E+00  0.00000000000000000E+00
  0.00000000000000000E+00  0.00000000000000000E+00  0.00000000000000000E+00
  0.00000000000000000E+00  0.00000000000000000E+00  0.00000000000000000E+00
  0.00000000000000000E+00  0.00000000000000000E+00  0.00000000000000000E+00
  0.00000000000000000E+00  0.00000000000000000E+00  0.00000000000000000E+00
  0.00000000000000000E+00  0.00000000000000000E+00  0.00000000000000000E+00
  0.00000000000000000E+00  0.00000000000000000E+00  0.00000000000000000E+00
  0.00000000000000000E+00  0.00000000000000000E+00  0.00000000000000000E+00
  0.00000000000000000E+00  0.00000000000000000E+00  0.00000000000000000E+00
  0.00000000000000000E+00  0.00000000000000000E+00  0.00000000000000000E+00
  0.00000000000000000E+00  0.00000000000000000E+00  0.00000000000000000E+00
  0.00000000000000000E+00  0.00000000000000000E+00  0.00000000000000000E+00
  0.00000000000000000E+00  0.00000000000000000E+00  0.00000000000000000E+00
  0.00000000000000000E+00  0.00000000000000000E+00  0.00000000000000000E+00
  0.00000000000000000E+00  0.00000000000000000E+00  0.00000000000000000E+00
  0.00000000000000000E+00  0.00000000000000000E+00  0.00000000000000000E+00
  0.00000000000000000E+00  0.00000000000000000E+00  0.00000000000000000E+00
  0.00000000000000000E+00  0.00000000000000000E+00  0.00000000000000000E+00
  0.00000000000000000E+00  0.00000000000000000E+00  0.00000000000000000E+00
  0.00000000000000000E+00  0.00000000000000000E+00  0.00000000000000000E+00
  0.00000000000000000E+00  0.00000000000000000E+00  0.00000000000000000E+00
  0.00000000000000000E+00  0.00000000000000000E+00  0.00000000000000000E+00
  0.00000000000000000E+00  0.00000000000000000E+00  0.00000000000000000E+00
  0.00000000000000000E+00  0.00000000000000000E+00  0.00000000000000000E+00
  0.00000000000000000E+00  0.00000000000000000E+00  0.00000000000000000E+00
  0.00000000000000000E+00  0.00000000000000000E+00  0.00000000000000000E+00
  0.00000000000000000E+00  0.00000000000000000E+00  0.00000000000000000E+00
  0.00000000000000000E+00  0.00000000000000000E+00  0.00000000000000000E+00
  0.00000000000000000E+00  0.00000000000000000E+00  0.00000000000000000E+00
  0.00000000000000000E+00  0.00000000000000000E+00  0.00000000000000000E+00
  0.00000000000000000E+00  0.00000000000000000E+00  0.00000000000000000E+00
  0.00000000000000000E+00  0.00000000000000000E+00  0.00000000000000000E+00
  0.00000000000000000E+00  0.00000000000000000E+00  0.00000000000000000E+00
  0.00000000000000000E+00  0.00000000000000000E+00  0.00000000000000000E+00
  0.00000000000000000E+00  0.00000000000000000E+00  0.00000000000000000E+00
  0.00000000000000000E+00  0.00000000000000000E+00  0.00000000000000000E+00
  0.00000000000000000E+00  0.00000000000000000E+00  0.00000000000000000E+00
  0.00000000000000000E+00  0.00000000000000000E+00  0.00000000000000000E+00
  0.00000000000000000E+00  0.00000000000000000E+00  0.00000000000000000E+00
  0.00000000000000000E+00  0.00000000000000000E+00  0.00000000000000000E+00
                              </PP_BETA.4>
   <PP_DIJ type="real" size="   16" columns="3">
 -7.24174836296597135E+00  4.45401433481473763E-01  0.00000000000000000E+00
  0.00000000000000000E+00  4.45401433481473763E-01  9.23583499086462201E-02
  0.00000000000000000E+00  0.00000000000000000E+00  0.00000000000000000E+00
  0.00000000000000000E+00 -2.37697223831285429E-02 -1.18885004730185928E-01
  0.00000000000000000E+00  0.00000000000000000E+00 -1.18885004730185928E-01
  8.38747499730532553E+00
                                       </PP_DIJ>
  <PP_AUGMENTATION q_with_l="T" nqf="0" cutoff_r="  1.6072759E+00" cutoff_r_index="   711" iraug="   711" nqlc="  3" lmax_aug="  2" shape="SINC**2" augmentation_epsilon="1.d-12">
    <PP_Q type="real" size="   16" columns="3">
  7.27832464266591650E-01 -1.26100312810250026E-01  0.00000000000000000E+00
  0.00000000000000000E+00 -1.26100312810250026E-01  1.51925227478839214E-02
  0.00000000000000000E+00  0.00000000000000000E+00  0.00000000000000000E+00
  0.00000000000000000E+00  9.46154437299272233E-03  2.15873937770232366E-01
  0.00000000000000000E+00  0.00000000000000000E+00  2.15873937770232366E-01
  4.76690324039642732E+00
                                       </PP_Q>
    <PP_MULTIPOLES type="real" size="    48" columns="3">
  7.27832464266591650E-01 -1.26100312810250026E-01  0.00000000000000000E+00
  0.00000000000000000E+00 -1.26100312810250026E-01  1.51925227478839214E-02
  0.00000000000000000E+00  0.00000000000000000E+00  0.00000000000000000E+00
  0.00000000000000000E+00  9.46154437299272233E-03  2.15873937770232366E-01
  0.00000000000000000E+00  0.00000000000000000E+00  2.15873937770232366E-01
  4.76690324039642732E+00  0.00000000000000000E+00  0.00000000000000000E+00
  2.85457133578859296E-02  6.52394988295177392E-01  0.00000000000000000E+00
  0.00000000000000000E+00 -3.32544799872479344E-03 -5.70629348704462455E-02
  2.85457133578859296E-02 -3.32544799872479344E-03  0.00000000000000000E+00
  0.00000000000000000E+00  6.52394988295177392E-01 -5.70629348704462455E-02
  0.00000000000000000E+00  0.00000000000000000E+00  0.00000000000000000E+00
  0.00000000000000000E+00  0.00000000000000000E+00  0.00000000000000000E+00
  0.00000000000000000E+00  0.00000000000000000E+00  0.00000000000000000E+00
  0.00000000000000000E+00  0.00000000000000000E+00  0.00000000000000000E+00
  5.16576434736053594E-03  1.13440891551382872E-01  0.00000000000000000E+00
  0.00000000000000000E+00  1.13440891551382872E-01  2.35697764967380685E+00
                                       </PP_MULTIPOLES>
 <PP_QIJL.1.1.0 type="real" size="   888" columns="3" first_index=" 1" second_index=" 1" composite_index=" 1" angular_momentum="0">
  2.71474687518442864E-07  2.78347101338577935E-07  2.85393491111393992E-07
  2.92618261057488365E-07  3.00025926890759235E-07  3.07621118640842076E-07
  3.15408583547048961E-07  3.23393189025538004E-07  3.31579925711574910E-07
  3.39973910578867175E-07  3.48580390137817608E-07  3.57404743714739276E-07
  3.66452486814133414E-07  3.75729274566025006E-07  3.85240905260594690E-07
  3.94993323972311452E-07  4.04992626275751919E-07  4.15245062055546935E-07
  4.25757039412751454E-07  4.36535128670077467E-07  4.47586066478584755E-07
  4.58916760028258748E-07  4.70534291365229086E-07  4.82445921818276664E-07
  4.94659096537348768E-07  5.07181449147048342E-07  5.20020806517836536E-07
  5.33185193658092724E-07  5.46682838729977541E-07  5.60522178192267643E-07
  5.74711862073428989E-07  5.89260759378092185E-07  6.04177963630504191E-07
  6.19472798558193402E-07  6.35154823919628110E-07  6.51233841479307409E-07
  6.67719901134178024E-07  6.84623307195108988E-07  7.01954624827379825E-07
  7.19724686654242895E-07  7.37944599527592427E-07  7.56625751470112827E-07
  7.75779818793079070E-07  7.95418773394435140E-07  8.15554890241532528E-07
  8.36200755043378485E-07  8.57369272117022644E-07  8.79073672453168108E-07
  9.01327521985875669E-07  9.24144730071695325E-07  9.47539558183376874E-07
  9.71526628823706469E-07  9.96120934664988205E-07  1.02133784791985241E-06
  1.04719312994937133E-06  1.07370294111427212E-06  1.10088385087568890E-06
  1.12875284815145240E-06  1.15732735193469188E-06  1.18662522218114669E-06
  1.21666477097211624E-06  1.24746477396004041E-06  1.27904448210372422E-06
  1.31142363370076976E-06  1.34462246672448250E-06  1.37866173147314860E-06
  1.41356270353954773E-06  1.44934719710868686E-06  1.48603757859229222E-06
  1.52365678060836981E-06  1.56222831631464104E-06  1.60177629410492646E-06
  1.64232543267744580E-06  1.68390107648462288E-06  1.72652921157405063E-06
  1.77023648183033739E-06  1.81505020562821013E-06  1.86099839290718895E-06
  1.90810976267842557E-06  1.95641376097477861E-06  2.00594057925529198E-06
  2.05672117327555186E-06  2.10878728243571741E-06  2.16217144961840256E-06
  2.21690704152872636E-06  2.27302826954919164E-06  2.33057021112258072E-06
  2.38956883167613312E-06  2.45006100710070222E-06  2.51208454679895801E-06
  2.57567821731704595E-06  2.64088176657450319E-06  2.70773594870751465E-06
  2.77628254954103437E-06  2.84656441270577206E-06  2.91862546641627577E-06
  2.99251075092692167E-06  3.06826644668290884E-06  3.14593990318386230E-06
  3.22557966857814617E-06  3.30723552000628706E-06  3.39095849471257135E-06
  3.47680092194416577E-06  3.56481645565775181E-06  3.65506010805413778E-06
  3.74758828396168550E-06  3.84245881609023331E-06  3.93973100117737533E-06
  4.03946563704976467E-06  4.14172506062262548E-06  4.24657318686110985E-06
  4.35407554872800214E-06  4.46429933814261801E-06  4.57731344797655399E-06
  4.69318851511253782E-06  4.81199696459319014E-06  4.93381305488745613E-06
  5.05871292430285857E-06  5.18677463857262450E-06  5.31807823964745875E-06
  5.45270579572234489E-06  5.59074145252981373E-06  5.73227148593154730E-06
  5.87738435584131711E-06  6.02617076151294042E-06  6.17872369822765621E-06
  6.33513851541658581E-06  6.49551297625442282E-06  6.65994731876164555E-06
  6.82854431845348531E-06  7.00140935257464371E-06  7.17865046596013955E-06
  7.36037843856321910E-06  7.54670685469266604E-06  7.73775217400270140E-06
  7.93363380427993503E-06  8.13447417607262559E-06  8.34039881920923309E-06
  8.55153644125373437E-06  8.76801900794694787E-06  8.98998182568410355E-06
  9.21756362608000865E-06  9.45090665267496032E-06  9.69015674983534274E-06
  9.93546345390452815E-06  1.01869800866611296E-05  1.04448638511427826E-05
  1.07092759298955793E-05  1.09803815857103781E-05  1.12583502649090261E-05
  1.15433557032450596E-05  1.18355760344847713E-05  1.21351939017369450E-05
  1.24423965716003626E-05  1.27573760512007329E-05  1.30803292081901716E-05
  1.34114578937838154E-05  1.37509690689109087E-05  1.40990749335588239E-05
  1.44559930593911442E-05  1.48219465257225932E-05  1.51971640589353724E-05
  1.55818801754243987E-05  1.59763353281608762E-05  1.63807760569654476E-05
  1.67954551425849005E-05  1.72206317646683314E-05  1.76565716637425767E-05
  1.81035473072868589E-05  1.85618380600106475E-05  1.90317303584420272E-05
  1.95135178899344463E-05  2.00075017762041239E-05  2.05139907615131125E-05
  2.10333014056153302E-05  2.15657582815854895E-05  2.21116941786554682E-05
  2.26714503101846524E-05  2.32453765268927761E-05  2.38338315354910040E-05
  2.44371831228454329E-05  2.50558083858137972E-05  2.56900939669001515E-05
  2.63404362958722757E-05  2.70072418374951056E-05  2.76909273455337958E-05
  2.83919201231839741E-05  2.91106582900951514E-05  2.98475910561491981E-05
  3.06031790021702894E-05  3.13778943677365624E-05  3.21722213462770918E-05
  3.29866563876359480E-05  3.38217085082936537E-05  3.46778996094393715E-05
  3.55557648030919789E-05  3.64558527464744965E-05  3.73787259848494871E-05
  3.83249613030313188E-05  3.92951500857920905E-05  4.02898986873896219E-05
  4.13098288104442261E-05  4.23555778944046966E-05  4.34277995138432354E-05
  4.45271637868289370E-05  4.56543577936360481E-05  4.68100860060441588E-05
  4.79950707275053382E-05  4.92100525444440814E-05  5.04557907889812375E-05
  5.17330640133618796E-05  5.30426704763897855E-05  5.43854286421689820E-05
  5.57621776914627460E-05  5.71737780459939275E-05  5.86211119060063460E-05
  6.01050838014299352E-05  6.16266211569894198E-05  6.31866748716082105E-05
  6.47862199124750026E-05  6.64262559241353493E-05  6.81078078529936243E-05
  6.98319265876164380E-05  7.15996896152290200E-05  7.34122016948233130E-05
  7.52705955472936255E-05  7.71760325630252956E-05  7.91297035273879517E-05
  8.11328293645786365E-05  8.31866619002776290E-05  8.52924846435984015E-05
  8.74516135888157294E-05  8.96653980373696689E-05  9.19352214406612923E-05
  9.42625022641666992E-05  9.66486948734040564E-05  9.90952904423045782E-05
  1.01603817884561316E-04  1.04175844808530502E-04  1.06812978496278788E-04
  1.09516866907390044E-04  1.12289199708157274E-04  1.15131709326800211E-04
  1.18046172035362912E-04  1.21034409058967885E-04  1.24098287713119717E-04
  1.27239722569764648E-04  1.30460676652828869E-04  1.33763162663983045E-04
  1.37149244239399089E-04  1.40621037238277004E-04  1.44180711063946512E-04
  1.47830490018362529E-04  1.51572654690840106E-04  1.55409543381894400E-04
  1.59343553563069185E-04  1.63377143373663180E-04  1.67512833155282942E-04
  1.71753207025179925E-04  1.76100914489348503E-04  1.80558672096389300E-04
  1.85129265133166231E-04  1.89815549363308179E-04  1.94620452809640156E-04
  1.99546977581649301E-04  2.04598201749120131E-04  2.09777281263108148E-04
  2.15087451925440168E-04  2.20532031407967219E-04  2.26114421322823577E-04
  2.31838109344975184E-04  2.37706671388380428E-04  2.43723773837107753E-04
  2.49893175832798734E-04  2.56218731619896562E-04  2.62704392950092222E-04
  2.69354211547481487E-04  2.76172341635960391E-04  2.83163042530427218E-04
  2.90330681293397993E-04  2.97679735458677758E-04  3.05214795823782737E-04
  3.12940569312834176E-04  3.20861881911706454E-04  3.28983681677239210E-04
  3.37311041822379676E-04  3.45849163879167088E-04  3.54603380941509395E-04
  3.63579160989766545E-04  3.72782110299191326E-04  3.82217976934332330E-04
  3.91892654331570448E-04  4.01812184971985246E-04  4.11982764146838118E-04
  4.22410743817985736E-04  4.33102636575607861E-04  4.44065119695701645E-04
  4.55305039299830512E-04  4.66829414619708994E-04  4.78645442369241968E-04
  4.90760501226715322E-04  5.03182156429904858E-04  5.15918164486924924E-04
  5.28976478005724099E-04  5.42365250645199530E-04  5.56092842190966706E-04
  5.70167823758923275E-04  5.84598983129784914E-04  5.99395330217887610E-04
  6.14566102677607828E-04  6.30120771650837159E-04  6.46069047659052578E-04
  6.62420886643577504E-04  6.79186496157750544E-04  6.96376341714792166E-04
  7.14001153295247830E-04  7.32071932018007847E-04  7.50599956978962885E-04
  7.69596792261496637E-04  7.89074294123089342E-04  8.09044618362413656E-04
  8.29520227871438664E-04  8.50513900377125836E-04  8.72038736377453265E-04
  8.94108167276596341E-04  9.16735963724210363E-04  9.39936244163900409E-04
  9.63723483596068994E-04  9.88112522560456036E-04  1.01311857634384822E-03
  1.03875724441850753E-03  1.06504452011707508E-03  1.09199680054978556E-03
  1.11963089676999912E-03  1.14796404419420755E-03  1.17701391328278661E-03
  1.20679862048796160E-03  1.23733673947558332E-03  1.26864731262746095E-03
  1.30074986283120809E-03  1.33366440556464396E-03  1.36741146128204665E-03
  1.40201206810967567E-03  1.43748779485816484E-03  1.47386075435960258E-03
  1.51115361713723964E-03  1.54938962541601539E-03  1.58859260748225547E-03
  1.62878699240110196E-03  1.66999782510045638E-03  1.71225078183034397E-03
  1.75557218600693290E-03  1.79998902445058055E-03  1.84552896402749925E-03
  1.89222036870492663E-03  1.94009231702977855E-03  1.98917462004121175E-03
  2.03949783962757529E-03  2.09109330733852445E-03  2.14399314366334800E-03
  2.19823027778677906E-03  2.25383846783386819E-03  2.31085232161570278E-03
  2.36930731788799302E-03  2.42923982813511357E-03  2.49068713889202646E-03
  2.55368747461708675E-03  2.61828002112893558E-03  2.68450494962097072E-03
  2.75240344126725760E-03  2.82201771243385238E-03  2.89339104051034891E-03
  2.96656779037614976E-03  3.04159344151651214E-03  3.11851461580391846E-03
  3.19737910596041295E-03  3.27823590471695847E-03  3.36113523468645333E-03
  3.44612857896731736E-03  3.53326871249455554E-03  3.62260973415585779E-03
  3.71420709969072418E-03  3.80811765539071064E-03  3.90439967261957963E-03
  4.00311288317296756E-03  4.10431851549628631E-03  4.20807933178097247E-03
  4.31445966595935936E-03  4.42352546261843681E-03  4.53534431685426263E-03
  4.64998551508874741E-03  4.76752007687003630E-03  4.88802079767915003E-03
  5.01156229276554857E-03  5.13822104203448884E-03  5.26807543601134215E-03
  5.40120582290623888E-03  5.53769455680329630E-03  5.67762604699967571E-03
  5.82108680851958164E-03  5.96816551382971759E-03  6.11895304578410210E-03
  6.27354255182306295E-03  6.43202949945444191E-03  6.59451173304458071E-03
  6.76108953194695141E-03  6.93186567000056864E-03  7.10694547642440767E-03
  7.28643689813798876E-03  7.47045056353832278E-03  7.65909984776267858E-03
  7.85250093947326144E-03  8.05077290919158257E-03  8.25403777921470197E-03
  8.46242059514578163E-03  8.67604949907054002E-03  8.89505580441937900E-03
  9.11957407254410449E-03  9.34974219104332815E-03  9.58570145387101745E-03
  9.82759664326202792E-03  1.00755761135184786E-02  1.03297918766849586E-02
  1.05903996901497450E-02  1.08575591462066138E-02  1.11314337636160814E-02
  1.14121910812108405E-02  1.17000027535724121E-02  1.19950446488190400E-02
  1.22974969485380829E-02  1.26075442499109531E-02  1.29253756700686510E-02
  1.32511849527071068E-02  1.35851705770026945E-02  1.39275358688611614E-02
  1.42784891145585000E-02  1.46382436767959877E-02  1.50070181132067500E-02
  1.53850362973472470E-02  1.57725275422204297E-02  1.61697267263788517E-02
  1.65768744226235318E-02  1.69942170293387665E-02  1.74220069044904377E-02
  1.78605025023559072E-02  1.83099685129960339E-02  1.87706760044991858E-02
  1.92429025680219655E-02  1.97269324656794524E-02  2.02230567813256427E-02
  2.07315735742218711E-02  2.12527880356241303E-02  2.17870126483105941E-02
  2.23345673491250514E-02  2.28957796945076439E-02  2.34709850290373383E-02
  2.40605266569859366E-02  2.46647560169626009E-02  2.52840328596298548E-02
  2.59187254284797032E-02  2.65692106436638716E-02  2.72358742889277847E-02
  2.79191112016668359E-02  2.86193254660389342E-02  2.93369306091247756E-02
  3.00723498001380443E-02  3.08260160527497051E-02  3.15983724304016722E-02
  3.23898722545903697E-02  3.32009793160694400E-02  3.40321680890689204E-02
  3.48839239483612479E-02  3.57567433891194386E-02  3.66511342494713621E-02
  3.75676159358518044E-02  3.85067196509614254E-02  3.94689886242131360E-02
  4.04549783445279365E-02  4.14652567955639748E-02  4.25004046931793250E-02
  4.35610157249197855E-02  4.46476967913486122E-02  4.57610682492659224E-02
  4.69017641566151361E-02  4.80704325187542164E-02  4.92677355358559499E-02
  5.04943498514356867E-02  5.17509668017955143E-02  5.30382926659286186E-02
  5.43570489155785486E-02  5.57079724653967087E-02  5.70918159229643826E-02
  5.85093478380638021E-02  5.99613529508069287E-02  6.14486324385059013E-02
  6.29720041610029313E-02  6.45323029036627555E-02  6.61303806175231185E-02
  6.77671066564325547E-02  6.94433680108059587E-02  7.11600695369935116E-02
  7.29181341816140804E-02  7.47185032006408428E-02  7.65621363727241322E-02
  7.84500122055127591E-02  8.03831281341456094E-02  8.23625007116815799E-02
  8.43891657907233361E-02  8.64641786947397267E-02  8.85886143780381385E-02
  9.07635675741675779E-02  9.29901529316616154E-02  9.52695051353561334E-02
  9.76027790119657762E-02  9.99911496197566502E-02  1.02435812320717495E-01
  1.04937982833197524E-01  1.07498897263380702E-01  1.10119812115531207E-01
  1.12802004278710136E-01  1.15546770987674130E-01  1.18355429755993488E-01
  1.21229318281416809E-01  1.24169794320275750E-01  1.27178235528390554E-01
  1.30256039266214124E-01  1.33404622368233694E-01  1.36625420872354963E-01
  1.39919889706442702E-01  1.43289502329611351E-01  1.46735750327965736E-01
  1.50260142959428800E-01  1.53864206644428347E-01  1.57549484400175660E-01
  1.61317535217369246E-01  1.65169933373032846E-01  1.69108267675677160E-01
  1.73134140641010681E-01  1.77249167595441903E-01  1.81454975700444915E-01
  1.85753202893248204E-01  1.90145496742845255E-01  1.94633513216197485E-01
  1.99218915347428416E-01  2.03903371804734279E-01  2.08688555354785726E-01
  2.13576141216504894E-01  2.18567805297037260E-01  2.23665222304257560E-01
  2.28870063735715862E-01  2.34183995732891198E-01  2.39608676793560293E-01
  2.45145755337177335E-01  2.50796867121616418E-01  2.56563632498136185E-01
  2.62447653496933664E-01  2.68450510739847714E-01  2.74573760174972537E-01
  2.80818929619532809E-01  2.87187515102656721E-01  2.93680977006839206E-01
  3.00300735997721335E-01  3.07048168729425808E-01  3.13924603316745321E-01
  3.20931314574485649E-01  3.28069519008338528E-01  3.35340369546121286E-01
  3.42744950001872328E-01  3.50284269271891657E-01  3.57959255244160612E-01
  3.65770748411276880E-01  3.73719495182583239E-01  3.81806140889890566E-01
  3.90031222469188421E-01  3.98395160809401128E-01  4.06898252767663005E-01
  4.15540662839510355E-01  4.24322414470484799E-01  4.33243381002076378E-01
  4.42303276253361743E-01  4.51501644723217022E-01  4.60837851405172749E-01
  4.70311071211748755E-01  4.79920278007862910E-01  4.89664233241018487E-01
  4.99541474166114052E-01  5.09550301666174543E-01  5.19688767666371398E-01
  5.29954662138124699E-01  5.40345499697870713E-01  5.50858505803362264E-01
  5.61490602549338247E-01  5.72238394071588385E-01  5.83098151571876500E-01
  5.94065797965173226E-01  6.05136892167411067E-01  6.16306613046599616E-01
  6.27569743053552509E-01  6.38920651539700568E-01  6.50353277804848418E-01
  6.61861113914903099E-01  6.73437187298496220E-01  6.85074043159545232E-01
  6.96763726773134140E-01  7.08497765723149597E-01  7.20267152076750738E-01
  7.32062324592410163E-01  7.43873151051962833E-01  7.55688910775959233E-01
  7.67498277332217094E-01  7.79289301602401285E-01  7.91049395328126570E-01
  8.02765315158672554E-01  8.14423147296594263E-01  8.26008292952877698E-01
  8.37505454767689450E-01  8.48898624160352999E-01  8.60171069866837890E-01
  8.71305327902018867E-01  8.82283193088284956E-01  8.93085712130873066E-01
  9.03693178661965413E-01  9.14085130526946288E-01  9.24240349335115785E-01
  9.34136862456249051E-01  9.43751947958099580E-01  9.53062142800414902E-01
  9.62043254134040016E-01  9.70670374251907608E-01  9.78917899678058090E-01
  9.86759554629942803E-01  9.94168418709492796E-01  1.00111695969139336E+00
  1.00757707188972434E+00  1.01352012001556657E+00  1.01891698879599546E+00
  1.02373813927544965E+00  1.02795367227151790E+00  1.03153339847942238E+00
  1.03444691619541773E+00  1.03666369741448006E+00  1.03815318248068378E+00
  1.03888488278527658E+00  1.03882849295352075E+00  1.03795401309383006E+00
  1.03623188052952142E+00  1.03363311127122981E+00  1.03012945249811305E+00
  1.02569354637989907E+00  1.02029910383599831E+00  1.01392108956966931E+00
  1.00653591903304762E+00  9.98121666840534605E-01  9.88658285291247330E-01
  9.78127834669556551E-01  9.66514725332971558E-01  9.53805969637839479E-01
  9.39991443516773550E-01  9.25064158486297861E-01  9.09020543260070535E-01
  8.91860731805881657E-01  8.73588858738090890E-01  8.54213361310697472E-01
  8.33747285540542782E-01  8.12208593583190530E-01  7.89620472637201365E-01
  7.66011643166026657E-01  7.41416662010152883E-01  7.15876218578148427E-01
  6.89437422194622451E-01  6.62154076738464714E-01  6.34086937298366515E-01
  6.05303946835295648E-01  5.75880448412847246E-01  5.45899367409909075E-01
  5.15451358910199664E-01  4.84634915883981832E-01  4.53556431715557318E-01
  4.22330211262345212E-01  3.91078424987706896E-01  3.59930999025128873E-01
  3.29025433875983431E-01  2.98506547433705249E-01  2.68526133982599446E-01
  2.39242530541380782E-01  2.10820086035263005E-01  1.83428528610801111E-01
  1.57242220773701896E-01  1.32439294524286516E-01  1.09200669284357357E-01
  8.77089435186857308E-02  6.81471518913402130E-02  5.06973872927474686E-02
  3.55392959342578640E-02  2.28484342367425534E-02  1.27944893520666146E-02
  5.53942213085253932E-03  1.23518672569133741E-03 -1.40751984858424876E-05
 -9.80100929537422529E-07 -2.85791238882946586E-08  7.45497732398932737E-10
  1.16723373536794788E-10  6.05143129552288750E-12  8.54935785007077343E-14
 -9.79441052530540162E-15 -8.57502262973897063E-16 -3.24889982101098154E-17
  1.94308120744662198E-19  9.08624144924180119E-20  5.67462188748547476E-21
  0.00000000000000000E+00  0.00000000000000000E+00  0.00000000000000000E+00
  0.00000000000000000E+00  0.00000000000000000E+00  0.00000000000000000E+00
  0.00000000000000000E+00  0.00000000000000000E+00  0.00000000000000000E+00
  0.00000000000000000E+00  0.00000000000000000E+00  0.00000000000000000E+00
  0.00000000000000000E+00  0.00000000000000000E+00  0.00000000000000000E+00
  0.00000000000000000E+00  0.00000000000000000E+00  0.00000000000000000E+00
  0.00000000000000000E+00  0.00000000000000000E+00  0.00000000000000000E+00
  0.00000000000000000E+00  0.00000000000000000E+00  0.00000000000000000E+00
  0.00000000000000000E+00  0.00000000000000000E+00  0.00000000000000000E+00
  0.00000000000000000E+00  0.00000000000000000E+00  0.00000000000000000E+00
  0.00000000000000000E+00  0.00000000000000000E+00  0.00000000000000000E+00
  0.00000000000000000E+00  0.00000000000000000E+00  0.00000000000000000E+00
  0.00000000000000000E+00  0.00000000000000000E+00  0.00000000000000000E+00
  0.00000000000000000E+00  0.00000000000000000E+00  0.00000000000000000E+00
  0.00000000000000000E+00  0.00000000000000000E+00  0.00000000000000000E+00
  0.00000000000000000E+00  0.00000000000000000E+00  0.00000000000000000E+00
  0.00000000000000000E+00  0.00000000000000000E+00  0.00000000000000000E+00
  0.00000000000000000E+00  0.00000000000000000E+00  0.00000000000000000E+00
  0.00000000000000000E+00  0.00000000000000000E+00  0.00000000000000000E+00
  0.00000000000000000E+00  0.00000000000000000E+00  0.00000000000000000E+00
  0.00000000000000000E+00  0.00000000000000000E+00  0.00000000000000000E+00
  0.00000000000000000E+00  0.00000000000000000E+00  0.00000000000000000E+00
  0.00000000000000000E+00  0.00000000000000000E+00  0.00000000000000000E+00
  0.00000000000000000E+00  0.00000000000000000E+00  0.00000000000000000E+00
  0.00000000000000000E+00  0.00000000000000000E+00  0.00000000000000000E+00
  0.00000000000000000E+00  0.00000000000000000E+00  0.00000000000000000E+00
  0.00000000000000000E+00  0.00000000000000000E+00  0.00000000000000000E+00
  0.00000000000000000E+00  0.00000000000000000E+00  0.00000000000000000E+00
  0.00000000000000000E+00  0.00000000000000000E+00  0.00000000000000000E+00
  0.00000000000000000E+00  0.00000000000000000E+00  0.00000000000000000E+00
  0.00000000000000000E+00  0.00000000000000000E+00  0.00000000000000000E+00
  0.00000000000000000E+00  0.00000000000000000E+00  0.00000000000000000E+00
  0.00000000000000000E+00  0.00000000000000000E+00  0.00000000000000000E+00
  0.00000000000000000E+00  0.00000000000000000E+00  0.00000000000000000E+00
  0.00000000000000000E+00  0.00000000000000000E+00  0.00000000000000000E+00
  0.00000000000000000E+00  0.00000000000000000E+00  0.00000000000000000E+00
  0.00000000000000000E+00  0.00000000000000000E+00  0.00000000000000000E+00
  0.00000000000000000E+00  0.00000000000000000E+00  0.00000000000000000E+00
  0.00000000000000000E+00  0.00000000000000000E+00  0.00000000000000000E+00
  0.00000000000000000E+00  0.00000000000000000E+00  0.00000000000000000E+00
  0.00000000000000000E+00  0.00000000000000000E+00  0.00000000000000000E+00
  0.00000000000000000E+00  0.00000000000000000E+00  0.00000000000000000E+00
  0.00000000000000000E+00  0.00000000000000000E+00  0.00000000000000000E+00
  0.00000000000000000E+00  0.00000000000000000E+00  0.00000000000000000E+00
  0.00000000000000000E+00  0.00000000000000000E+00  0.00000000000000000E+00
  0.00000000000000000E+00  0.00000000000000000E+00  0.00000000000000000E+00
  0.00000000000000000E+00  0.00000000000000000E+00  0.00000000000000000E+00
  0.00000000000000000E+00  0.00000000000000000E+00  0.00000000000000000E+00
  0.00000000000000000E+00  0.00000000000000000E+00  0.00000000000000000E+00
  0.00000000000000000E+00  0.00000000000000000E+00  0.00000000000000000E+00
  0.00000000000000000E+00  0.00000000000000000E+00  0.00000000000000000E+00
  0.00000000000000000E+00  0.00000000000000000E+00  0.00000000000000000E+00
  0.00000000000000000E+00  0.00000000000000000E+00  0.00000000000000000E+00
  0.00000000000000000E+00  0.00000000000000000E+00  0.00000000000000000E+00
  0.00000000000000000E+00  0.00000000000000000E+00  0.00000000000000000E+00
  0.00000000000000000E+00  0.00000000000000000E+00  0.00000000000000000E+00
  0.00000000000000000E+00  0.00000000000000000E+00  0.00000000000000000E+00
  0.00000000000000000E+00  0.00000000000000000E+00  0.00000000000000000E+00
  0.00000000000000000E+00  0.00000000000000000E+00  0.00000000000000000E+00
                       </PP_QIJL.1.1.0>
 <PP_QIJL.1.2.0 type="real" size="   888" columns="3" first_index=" 1" second_index=" 2" composite_index=" 2" angular_momentum="0">
 -4.70342347955525988E-08 -4.82249120118454598E-08 -4.94457313599222410E-08
 -5.06974558912024101E-08 -5.19808679738312397E-08 -5.32967697816797958E-08
 -5.46459837957332336E-08 -5.60293533181665010E-08 -5.74477429994301190E-08
 -5.89020393786891172E-08 -6.03931514379351535E-08 -6.19220111701255124E-08
 -6.34895741617131989E-08 -6.50968201899136535E-08 -6.67447538350958944E-08
 -6.84344051086801663E-08 -7.01668300969206475E-08 -7.19431116209962265E-08
 -7.37643599138069532E-08 -7.56317133138990180E-08 -7.75463389769677817E-08
 -7.95094336053596606E-08 -8.15222241960501156E-08 -8.35859688075562434E-08
 -8.57019573462553410E-08 -8.78715123726233039E-08 -9.00959899278673277E-08
 -9.23767803814977267E-08 -9.47153093003492745E-08 -9.71130383396008233E-08
 -9.95714661563594978E-08 -1.02092129346357361E-07 -1.04676603404379796E-07
 -1.07326503708986591E-07 -1.10043486532180442E-07 -1.12829250074618961E-07
 -1.15685535527044416E-07 -1.18614128158578008E-07 -1.21616858432564040E-07
 -1.24695603150667398E-07 -1.27852286625922941E-07 -1.31088881885494631E-07
 -1.34407411903867008E-07 -1.37809950867270859E-07 -1.41298625470101793E-07
 -1.44875616244172722E-07 -1.48543158921601175E-07 -1.52303545832213526E-07
 -1.56159127336309217E-07 -1.60112313293709093E-07 -1.64165574569980625E-07
 -1.68321444580801160E-07 -1.72582520875414781E-07 -1.76951466760167975E-07
 -1.81431012963159810E-07 -1.86023959341009491E-07 -1.90733176628858298E-07
 -1.95561608234644083E-07 -2.00512272078822871E-07 -2.05588262480645456E-07
 -2.10792752092189584E-07 -2.16128993881359424E-07 -2.21600323165067087E-07
 -2.27210159693906545E-07 -2.32962009789579151E-07 -2.38859468536439186E-07
 -2.44906222028521288E-07 -2.51106049673433854E-07 -2.57462826554597216E-07
 -2.63980525853266856E-07 -2.70663221331866715E-07 -2.77515089880205020E-07
 -2.84540414126126487E-07 -2.91743585112261907E-07 -2.99129105040547879E-07
 -3.06701590086201389E-07 -3.14465773282946064E-07 -3.22426507481277865E-07
 -3.30588768381605524E-07 -3.38957657644182834E-07 -3.47538406077769578E-07
 -3.56336376909006916E-07 -3.65357069134552765E-07 -3.74606120958085582E-07
 -3.84089313314311470E-07 -3.93812573482167808E-07 -4.03781978789507560E-07
 -4.14003760411563789E-07 -4.24484307265567070E-07 -4.35230170003951721E-07
 -4.46248065108649271E-07 -4.57544879089032926E-07 -4.69127672786125076E-07
 -4.81003685785759701E-07 -4.93180340943469914E-07 -5.05665249023912930E-07
 -5.18466213457747335E-07 -5.31591235218921691E-07 -5.45048517825425448E-07
 -5.58846472466640263E-07 -5.72993723260477405E-07 -5.87499112643603527E-07
 -6.02371706898110630E-07 -6.17620801818090878E-07 -6.33255928519660371E-07
 -6.49286859398047093E-07 -6.65723614235493942E-07 -6.82576466463767592E-07
 -6.99855949585199437E-07 -7.17572863756275003E-07 -7.35738282537867997E-07
 -7.54363559816363240E-07 -7.73460336899974088E-07 -7.93040549794697844E-07
 -8.13116436664459873E-07 -8.33700545480089089E-07 -8.54805741861934081E-07
 -8.76445217120999719E-07 -8.98632496503634457E-07 -9.21381447644929103E-07
 -9.44706289236090190E-07 -9.68621599911232781E-07 -9.93142327359117811E-07
 -1.01828379766554898E-06 -1.04406172489226361E-06 -1.07049222089828088E-06
 -1.09759180540988571E-06 -1.12537741634550758E-06 -1.15386642040195973E-06
 -1.18307662390866048E-06 -1.21302628395659202E-06 -1.24373411980899423E-06
 -1.27521932460088612E-06 -1.30750157733474539E-06 -1.34060105517983594E-06
 -1.37453844608287926E-06 -1.40933496169791902E-06 -1.44501235064350750E-06
 -1.48159291209545134E-06 -1.51909950972364016E-06 -1.55755558598166169E-06
 -1.59698517675810712E-06 -1.63741292639876667E-06 -1.67886410310906570E-06
 -1.72136461474637717E-06 -1.76494102501209403E-06 -1.80962057005353341E-06
 -1.85543117548610920E-06 -1.90240147384635419E-06 -1.95056082248673391E-06
 -1.99993932192342889E-06 -2.05056783464850230E-06 -2.10247800441828607E-06
 -2.15570227602996311E-06 -2.21027391559874744E-06 -2.26622703134834771E-06
 -2.32359659492762708E-06 -2.38241846326685053E-06 -2.44272940098713628E-06
 -2.50456710337714471E-06 -2.56797021995135722E-06 -2.63297837860459788E-06
 -2.69963221037795172E-06 -2.76797337485157409E-06 -2.83804458618020407E-06
 -2.90988963978766153E-06 -2.98355343973694141E-06 -3.05908202679320176E-06
 -3.13652260719695158E-06 -3.21592358216548163E-06 -3.29733457814108904E-06
 -3.38080647780482740E-06 -3.46639145187519719E-06 -3.55414299171172725E-06
 -3.64411594274375972E-06 -3.73636653874522200E-06 -3.83095243697695095E-06
 -3.92793275421851770E-06 -4.02736810371179036E-06 -4.12932063303976840E-06
 -4.23385406296394873E-06 -4.34103372724457449E-06 -4.45092661346890124E-06
 -4.56360140491251731E-06 -4.67912852346029384E-06 -4.79758017361358431E-06
 -4.91903038761095899E-06 -5.04355507169123357E-06 -5.17123205352685095E-06
 -5.30214113085816162E-06 -5.43636412135811783E-06 -5.57398491375917459E-06
 -5.71508952027389893E-06 -5.85976613034227072E-06 -6.00810516573913208E-06
 -6.16019933707617488E-06 -6.31614370173383165E-06 -6.47603572325908833E-06
 -6.63997533226659583E-06 -6.80806498888064462E-06 -6.98040974675759357E-06
 -7.15711731872799261E-06 -7.33829814410011564E-06 -7.52406545766637188E-06
 -7.71453536045588663E-06 -7.90982689227762669E-06 -8.11006210609863703E-06
 -8.31536614430500221E-06 -8.52586731689164490E-06 -8.74169718163135160E-06
 -8.96299062627160204E-06 -9.18988595281155218E-06 -9.42252496391130244E-06
 -9.66105305148719194E-06 -9.90561928754923464E-06 -1.01563765173360935E-05
 -1.04134814548069676E-05 -1.06770947805492686E-05 -1.09473812421630055E-05
 -1.12245097571855303E-05 -1.15086535186194731E-05 -1.17999901031305454E-05
 -1.20987015819830694E-05 -1.24049746347809609E-05 -1.27190006660868126E-05
 -1.30409759249910621E-05 -1.33711016277049557E-05 -1.37095840832556015E-05
 -1.40566348223601971E-05 -1.44124707295596445E-05 -1.47773141786949714E-05
 -1.51513931718104007E-05 -1.55349414815693181E-05 -1.59281987972724846E-05
 -1.63314108745697629E-05 -1.67448296889579632E-05 -1.71687135931602960E-05
 -1.76033274784868030E-05 -1.80489429402754124E-05 -1.85058384475163548E-05
 -1.89742995167662863E-05 -1.94546188904605239E-05 -1.99470967197343340E-05
 -2.04520407518666368E-05 -2.09697665224633938E-05 -2.15005975525006626E-05
 -2.20448655503497545E-05 -2.26029106189097602E-05 -2.31750814679768628E-05
 -2.37617356319831969E-05 -2.43632396932400490E-05 -2.49799695108247910E-05
 -2.56123104552533779E-05 -2.62606576490851285E-05 -2.69254162136094461E-05
 -2.76070015217678650E-05 -2.83058394574687349E-05 -2.90223666814555317E-05
 -2.97570309038947250E-05 -3.05102911638524423E-05 -3.12826181158338293E-05
 -3.20744943235634243E-05 -3.28864145611885899E-05 -3.37188861220938312E-05
 -3.45724291355176624E-05 -3.54475768911685445E-05 -3.63448761720423858E-05
 -3.72648875956474402E-05 -3.82081859638491822E-05 -3.91753606215521820E-05
 -4.01670158244413363E-05 -4.11837711160117036E-05 -4.22262617141199042E-05
 -4.32951389072975005E-05 -4.43910704610727156E-05 -4.55147410345516245E-05
 -4.66668526075180446E-05 -4.78481249183162645E-05 -4.90592959127888055E-05
 -5.03011222045471120E-05 -5.15743795468601727E-05 -5.28798633164544640E-05
 -5.42183890095234276E-05 -5.55907927502552940E-05 -5.69979318121929880E-05
 -5.84406851527491072E-05 -5.99199539612075205E-05 -6.14366622205492837E-05
 -6.29917572834518826E-05 -6.45862104628174564E-05 -6.62210176371938583E-05
 -6.78971998714657363E-05 -6.96158040531953931E-05 -7.13779035450100427E-05
 -7.31845988534361014E-05 -7.50370183145938126E-05 -7.69363187971765336E-05
 -7.88836864231465235E-05 -8.08803373065936651E-05 -8.29275183112114289E-05
 -8.50265078268568823E-05 -8.71786165656744769E-05 -8.93851883782720595E-05
 -9.16476010904532484E-05 -9.39672673610206417E-05 -9.63456355611763058E-05
 -9.87841906760629057E-05 -1.01284455228996725E-04 -1.03847990228962559E-04
 -1.06476396141951790E-04 -1.09171313886738814E-04 -1.11934425855709125E-04
 -1.14767456961362271E-04 -1.17672175709133530E-04 -1.20650395297190914E-04
 -1.23703974743879515E-04 -1.26834820043506311E-04 -1.30044885351168602E-04
 -1.33336174197354036E-04 -1.36710740733052624E-04 -1.40170691006139822E-04
 -1.43718184269813257E-04 -1.47355434323877130E-04 -1.51084710889694637E-04
 -1.54908341019645507E-04 -1.58828710541944907E-04 -1.62848265541704941E-04
 -1.66969513879138373E-04 -1.71195026745824810E-04 -1.75527440259988569E-04
 -1.79969457101749719E-04 -1.84523848189345523E-04 -1.89193454397333362E-04
 -1.93981188317815794E-04 -1.98890036065754321E-04 -2.03923059129458822E-04
 -2.09083396267372692E-04 -2.14374265452297138E-04 -2.19798965864223018E-04
 -2.25360879932975629E-04 -2.31063475431893012E-04 -2.36910307623800707E-04
 -2.42905021460569588E-04 -2.49051353837572277E-04 -2.55353135904394014E-04
 -2.61814295433171549E-04 -2.68438859245981787E-04 -2.75230955702724593E-04
 -2.82194817250985515E-04 -2.89334783039398111E-04 -2.96655301596049294E-04
 -3.04160933573528964E-04 -3.11856354562245399E-04 -3.19746357973670439E-04
 -3.27835857995226144E-04 -3.36129892618541426E-04 -3.44633626742885406E-04
 -3.53352355355594045E-04 -3.62291506791354587E-04 -3.71456646072264524E-04
 -3.80853478330616605E-04 -3.90487852316415271E-04 -4.00365763991668343E-04
 -4.10493360213534404E-04 -4.20876942508507750E-04 -4.31522970939794107E-04
 -4.42438068070129037E-04 -4.53629023022327198E-04 -4.65102795639899349E-04
 -4.76866520750139568E-04 -4.88927512532102374E-04 -5.01293268992037181E-04
 -5.13971476548790232E-04 -5.26970014731784888E-04 -5.40296960994271036E-04
 -5.53960595644555315E-04 -5.67969406897994014E-04 -5.82332096052629467E-04
 -5.97057582791402607E-04 -6.12155010613867610E-04 -6.27633752400454060E-04
 -6.43503416112391419E-04 -6.59773850630430677E-04 -6.76455151735619038E-04
 -6.93557668235524559E-04 -7.11092008239153691E-04 -7.29069045584046461E-04
 -7.47499926419062225E-04 -7.66396075946368036E-04 -7.85769205326396041E-04
 -8.05631318749541205E-04 -8.25994720678267964E-04 -8.46872023263556479E-04
 -8.68276153939616336E-04 -8.90220363200826671E-04 -9.12718232565264543E-04
 -9.35783682728871195E-04 -9.59430981914456476E-04 -9.83674754419916865E-04
 -1.00852998937001753E-03 -1.03401204967633201E-03 -1.06013668121017457E-03
 -1.08692002219282539E-03 -1.11437861280790172E-03 -1.14252940504065898E-03
 -1.17138977274904130E-03 -1.20097752197205433E-03 -1.23131090148000306E-03
 -1.26240861357181881E-03 -1.29428982512470652E-03 -1.32697417890122009E-03
 -1.36048180512001360E-03 -1.39483333329508408E-03 -1.43004990434908116E-03
 -1.46615318300630368E-03 -1.50316537047085722E-03 -1.54110921739685825E-03
 -1.58000803715570510E-03 -1.61988571940631138E-03 -1.66076674397427969E-03
 -1.70267619504587743E-03 -1.74563977568440863E-03 -1.78968382267383750E-03
 -1.83483532169610112E-03 -1.88112192284810450E-03 -1.92857195650512426E-03
 -1.97721444953838149E-03 -2.02707914189145756E-03 -2.07819650352250107E-03
 -2.13059775171796665E-03 -2.18431486878623189E-03 -2.23938062013767430E-03
 -2.29582857275626492E-03 -2.35369311406968210E-03 -2.41300947122369876E-03
 -2.47381373077098501E-03 -2.53614285877817609E-03 -2.60003472135767778E-03
 -2.66552810562999468E-03 -2.73266274112468665E-03 -2.80147932162831117E-03
 -2.87201952748208792E-03 -2.94432604833626049E-03 -3.01844260636591850E-03
 -3.09441397996007561E-03 -3.17228602788584019E-03 -3.25210571393283856E-03
 -3.33392113204219196E-03 -3.41778153192917166E-03 -3.50373734520660922E-03
 -3.59184021200864784E-03 -3.68214300812022251E-03 -3.77469987261592728E-03
 -3.86956623602141472E-03 -3.96679884899235353E-03 -4.06645581151519019E-03
 -4.16859660262965896E-03 -4.27328211068675121E-03 -4.38057466413883500E-03
 -4.49053806285993305E-03 -4.60323760999516683E-03 -4.71874014434792068E-03
 -4.83711407330795953E-03 -4.95842940630907090E-03 -5.08275778881472386E-03
 -5.21017253683215588E-03 -5.34074867196598045E-03 -5.47456295698972670E-03
 -5.61169393193191365E-03 -5.75222195066789864E-03 -5.89622921803432346E-03
 -6.04379982743679690E-03 -6.19501979894133969E-03 -6.34997711783292541E-03
 -6.50876177365875951E-03 -6.67146579972321789E-03 -6.83818331301374021E-03
 -7.00901055453377001E-03 -7.18404593005727253E-03 -7.36339005127025024E-03
 -7.54714577726310273E-03 -7.73541825634210638E-03 -7.92831496816829261E-03
 -8.12594576618862023E-03 -8.32842292030358360E-03 -8.53586115973045852E-03
 -8.74837771606186247E-03 -8.96609236648311138E-03 -9.18912747706928865E-03
 -9.41760804610916775E-03 -9.65166174744613685E-03 -9.89141897379566815E-03
 -1.01370128799326675E-02 -1.03885794256809265E-02 -1.06462574186845672E-02
 -1.09101885569125572E-02 -1.11805174707582788E-02 -1.14573917646466992E-02
 -1.17409620581195723E-02 -1.20313820263346707E-02 -1.23288084398049981E-02
 -1.26334012032655908E-02 -1.29453233936310946E-02 -1.32647412969549364E-02
 -1.35918244441754175E-02 -1.39267456455053323E-02 -1.42696810234247944E-02
 -1.46208100441483999E-02 -1.49803155473076134E-02 -1.53483837736667263E-02
 -1.57252043908343610E-02 -1.61109705167815503E-02 -1.65058787408606210E-02
 -1.69101291420967609E-02 -1.73239253047242636E-02 -1.77474743306904915E-02
 -1.81809868487756224E-02 -1.86246770200457212E-02 -1.90787625396278103E-02
 -1.95434646344084806E-02 -2.00190080562593978E-02 -2.05056210704497067E-02
 -2.10035354392500047E-02 -2.15129864001724382E-02 -2.20342126384068041E-02
 -2.25674562530608913E-02 -2.31129627172082623E-02 -2.36709808310028025E-02
 -2.42417626673704575E-02 -2.48255635098611829E-02 -2.54226417826091435E-02
 -2.60332589714720557E-02 -2.66576795357903289E-02 -2.72961708103732353E-02
 -2.79490028975099628E-02 -2.86164485479156773E-02 -2.92987830299523029E-02
 -2.99962839868166548E-02 -3.07092312812180836E-02 -3.14379068263453271E-02
 -3.21825944023360136E-02 -3.29435794580752311E-02 -3.37211488974345289E-02
 -3.45155908487037172E-02 -3.53271944163015134E-02 -3.61562494147261715E-02
 -3.70030460833397218E-02 -3.78678747807420710E-02 -3.87510256577539638E-02
 -3.96527883089926661E-02 -4.05734514011115779E-02 -4.15133022764576087E-02
 -4.24726265312620546E-02 -4.34517075680794021E-02 -4.44508261201973301E-02
 -4.54702597466955724E-02 -4.65102822975576036E-02 -4.75711633479274643E-02
 -4.86531675991470278E-02 -4.97565542451246443E-02 -5.08815763038259622E-02
 -5.20284799120895036E-02 -5.31975035815564004E-02 -5.43888774142061576E-02
 -5.56028222775511588E-02 -5.68395489367822596E-02 -5.80992571419319884E-02
 -5.93821346687536944E-02 -6.06883563131588658E-02 -6.20180828359962744E-02
 -6.33714598564635717E-02 -6.47486166934029828E-02 -6.61496651535107283E-02
 -6.75746982634097410E-02 -6.90237889440366847E-02 -7.04969886272516916E-02
 -7.19943258126609226E-02 -7.35158045623120204E-02 -7.50614029320371412E-02
 -7.66310713396787246E-02 -7.82247308675777520E-02 -7.98422714979508258E-02
 -8.14835502806075251E-02 -8.31483894329382300E-02 -8.48365743700420366E-02
 -8.65478516646208257E-02 -8.82819269368653042E-02 -9.00384626738761212E-02
 -9.18170759780649604E-02 -9.36173362453296132E-02 -9.54387627734996774E-02
 -9.72808223013710838E-02 -9.91429264798935062E-02 -1.01024429277669511E-01
 -1.02924624321017233E-01 -1.04842742171751865E-01 -1.06777947546642854E-01
 -1.08729336481362113E-01 -1.10695933440218719E-01 -1.12676688379104981E-01
 -1.14670473768589173E-01 -1.16676081578700283E-01 -1.18692220231823881E-01
 -1.20717511535382016E-01 -1.22750487604422309E-01 -1.24789587773263058E-01
 -1.26833155512954765E-01 -1.28879435370226475E-01 -1.30926569938190684E-01
 -1.32972596860520403E-01 -1.35015445897656600E-01 -1.37052936076095006E-01
 -1.39082772924579601E-01 -1.41102545813884039E-01 -1.43109725436850882E-01
 -1.45101661455724007E-01 -1.47075580310474130E-01 -1.49028583232865969E-01
 -1.50957644507373895E-01 -1.52859610003474450E-01 -1.54731195975916169E-01
 -1.56568988206086696E-01 -1.58369441531844318E-01 -1.60128879769677102E-01
 -1.61843496060615932E-01 -1.63509353725679568E-01 -1.65122387685525451E-01
 -1.66678406418071273E-01 -1.68173094548822510E-01 -1.69602016158132779E-01
 -1.70960618846155404E-01 -1.72244238530448124E-01 -1.73448105126692093E-01
 -1.74567349195888344E-01 -1.75597009542888982E-01 -1.76532041813115770E-01
 -1.77367328247030304E-01 -1.78097688674140137E-01 -1.78717892658922045E-01
 -1.79222672966757673E-01 -1.79606740480752564E-01 -1.79864800600348512E-01
 -1.79991571034236075E-01 -1.79981801237239031E-01 -1.79830293590538537E-01
 -1.79531926224802990E-01 -1.79081677530932959E-01 -1.78474652578129278E-01
 -1.77706111496814201E-01 -1.76771499583194380E-01 -1.75666479357279165E-01
 -1.74386964687974821E-01 -1.72929156901660414E-01 -1.71289582642204508E-01
 -1.69465133771589505E-01 -1.67453109312748372E-01 -1.65251259096847319E-01
 -1.62857829082775102E-01 -1.60271608483715300E-01 -1.57491978557928486E-01
 -1.54518962515948877E-01 -1.51353276698678624E-01 -1.47996382899072576E-01
 -1.44450541399387206E-01 -1.40718864225461482E-01 -1.36805368665799704E-01
 -1.32715030672428014E-01 -1.28453837376463847E-01 -1.24028838404573280E-01
 -1.19448195663322904E-01 -1.14721230921514622E-01 -1.09858470276931838E-01
 -1.04871685159198688E-01 -9.97739290996618594E-02 -9.45795693005705429E-02
 -8.93043121709900245E-02 -8.39652220697796464E-02 -7.85807321387681501E-02
 -7.31706462187897561E-02 -6.77561309029855591E-02 -6.23596964899191045E-02
 -5.70051655721317760E-02 -5.17176285139027275E-02 -4.65233843712282713E-02
 -4.14498657588509567E-02 -3.65255468818894077E-02 -3.17798339202326058E-02
 -2.72429359777492247E-02 -2.29457152405395139E-02 -1.89195168282605478E-02
 -1.51959767624650788E-02 -1.18068066382348465E-02 -8.78355488404846535E-03
 -6.15734603001229491E-03 -3.95859603127339098E-03 -2.21670396520270985E-03
 -9.59730292042415534E-04 -2.14001765702628892E-04  2.43859269690529697E-06
  1.69806981507514524E-07  4.95146429857079559E-09 -1.29160901540116363E-10
 -2.02228598446609503E-11 -1.04843822827291186E-12 -1.48121546118037500E-14
  1.69692654789389913E-15  1.48566200197548826E-16  5.62886795839034554E-18
 -3.36647731592513873E-20 -1.57423300728060601E-20 -9.83154270004792600E-22
  0.00000000000000000E+00  0.00000000000000000E+00  0.00000000000000000E+00
  0.00000000000000000E+00  0.00000000000000000E+00  0.00000000000000000E+00
  0.00000000000000000E+00  0.00000000000000000E+00  0.00000000000000000E+00
  0.00000000000000000E+00  0.00000000000000000E+00  0.00000000000000000E+00
  0.00000000000000000E+00  0.00000000000000000E+00  0.00000000000000000E+00
  0.00000000000000000E+00  0.00000000000000000E+00  0.00000000000000000E+00
  0.00000000000000000E+00  0.00000000000000000E+00  0.00000000000000000E+00
  0.00000000000000000E+00  0.00000000000000000E+00  0.00000000000000000E+00
  0.00000000000000000E+00  0.00000000000000000E+00  0.00000000000000000E+00
  0.00000000000000000E+00  0.00000000000000000E+00  0.00000000000000000E+00
  0.00000000000000000E+00  0.00000000000000000E+00  0.00000000000000000E+00
  0.00000000000000000E+00  0.00000000000000000E+00  0.00000000000000000E+00
  0.00000000000000000E+00  0.00000000000000000E+00  0.00000000000000000E+00
  0.00000000000000000E+00  0.00000000000000000E+00  0.00000000000000000E+00
  0.00000000000000000E+00  0.00000000000000000E+00  0.00000000000000000E+00
  0.00000000000000000E+00  0.00000000000000000E+00  0.00000000000000000E+00
  0.00000000000000000E+00  0.00000000000000000E+00  0.00000000000000000E+00
  0.00000000000000000E+00  0.00000000000000000E+00  0.00000000000000000E+00
  0.00000000000000000E+00  0.00000000000000000E+00  0.00000000000000000E+00
  0.00000000000000000E+00  0.00000000000000000E+00  0.00000000000000000E+00
  0.00000000000000000E+00  0.00000000000000000E+00  0.00000000000000000E+00
  0.00000000000000000E+00  0.00000000000000000E+00  0.00000000000000000E+00
  0.00000000000000000E+00  0.00000000000000000E+00  0.00000000000000000E+00
  0.00000000000000000E+00  0.00000000000000000E+00  0.00000000000000000E+00
  0.00000000000000000E+00  0.00000000000000000E+00  0.00000000000000000E+00
  0.00000000000000000E+00  0.00000000000000000E+00  0.00000000000000000E+00
  0.00000000000000000E+00  0.00000000000000000E+00  0.00000000000000000E+00
  0.00000000000000000E+00  0.00000000000000000E+00  0.00000000000000000E+00
  0.00000000000000000E+00  0.00000000000000000E+00  0.00000000000000000E+00
  0.00000000000000000E+00  0.00000000000000000E+00  0.00000000000000000E+00
  0.00000000000000000E+00  0.00000000000000000E+00  0.00000000000000000E+00
  0.00000000000000000E+00  0.00000000000000000E+00  0.00000000000000000E+00
  0.00000000000000000E+00  0.00000000000000000E+00  0.00000000000000000E+00
  0.00000000000000000E+00  0.00000000000000000E+00  0.00000000000000000E+00
  0.00000000000000000E+00  0.00000000000000000E+00  0.00000000000000000E+00
  0.00000000000000000E+00  0.00000000000000000E+00  0.00000000000000000E+00
  0.00000000000000000E+00  0.00000000000000000E+00  0.00000000000000000E+00
  0.00000000000000000E+00  0.00000000000000000E+00  0.00000000000000000E+00
  0.00000000000000000E+00  0.00000000000000000E+00  0.00000000000000000E+00
  0.00000000000000000E+00  0.00000000000000000E+00  0.00000000000000000E+00
  0.00000000000000000E+00  0.00000000000000000E+00  0.00000000000000000E+00
  0.00000000000000000E+00  0.00000000000000000E+00  0.00000000000000000E+00
  0.00000000000000000E+00  0.00000000000000000E+00  0.00000000000000000E+00
  0.00000000000000000E+00  0.00000000000000000E+00  0.00000000000000000E+00
  0.00000000000000000E+00  0.00000000000000000E+00  0.00000000000000000E+00
  0.00000000000000000E+00  0.00000000000000000E+00  0.00000000000000000E+00
  0.00000000000000000E+00  0.00000000000000000E+00  0.00000000000000000E+00
  0.00000000000000000E+00  0.00000000000000000E+00  0.00000000000000000E+00
  0.00000000000000000E+00  0.00000000000000000E+00  0.00000000000000000E+00
  0.00000000000000000E+00  0.00000000000000000E+00  0.00000000000000000E+00
  0.00000000000000000E+00  0.00000000000000000E+00  0.00000000000000000E+00
  0.00000000000000000E+00  0.00000000000000000E+00  0.00000000000000000E+00
  0.00000000000000000E+00  0.00000000000000000E+00  0.00000000000000000E+00
  0.00000000000000000E+00  0.00000000000000000E+00  0.00000000000000000E+00
  0.00000000000000000E+00  0.00000000000000000E+00  0.00000000000000000E+00
  0.00000000000000000E+00  0.00000000000000000E+00  0.00000000000000000E+00
  0.00000000000000000E+00  0.00000000000000000E+00  0.00000000000000000E+00
  0.00000000000000000E+00  0.00000000000000000E+00  0.00000000000000000E+00
  0.00000000000000000E+00  0.00000000000000000E+00  0.00000000000000000E+00
                       </PP_QIJL.1.2.0>
 <PP_QIJL.1.3.1 type="real" size="   888" columns="3" first_index=" 1" second_index=" 3" composite_index=" 4" angular_momentum="1">
  4.37428911891976633E-12  4.54143943195376991E-12  4.71497689161559755E-12
  4.89514556349195117E-12  5.08219883940093863E-12  5.27639979376383881E-12
  5.47802155359872701E-12  5.68734768264981787E-12  5.90467258019332947E-12
  6.13030189508728279E-12  6.36455295563921503E-12  6.60775521589945440E-12
  6.86025071901271445E-12  7.12239457826996100E-12  7.39455547654447400E-12
  7.67711618481482888E-12  7.97047410049560075E-12  8.27504180634490997E-12
  8.59124765072642212E-12  8.91953635004135953E-12  9.26036961418771041E-12
  9.61422679591143050E-12  9.98160556497605185E-12  1.03630226080932986E-11
  1.07590143555941319E-11  1.11701377358765508E-11  1.15969709586719484E-11
  1.20401143282501624E-11  1.25001910876942304E-11  1.29778482954356629E-11
  1.34737577352899556E-11  1.39886168612558000E-11  1.45231497784302439E-11
  1.50781082613923576E-11  1.56542728115145093E-11  1.62524537546646541E-11
  1.68734923808615403E-11  1.75182621274745226E-11  1.81876698076357976E-11
  1.88826568855960835E-11  1.96042008008074903E-11  2.03533163426112216E-11
  2.11310570774438851E-11  2.19385168305921900E-11  2.27768312245555293E-11
  2.36471792762053748E-11  2.45507850549620604E-11  2.54889194043466730E-11
  2.64629017293044787E-11  2.74741018518361221E-11  2.85239419375275943E-11
  2.96138984957014913E-11  3.07455044559977945E-11  3.19203513242989189E-11
  3.31400914210490284E-11  3.44064402050852098E-11  3.57211786862898165E-11
  3.70861559304097301E-11  3.85032916596128547E-11  3.99745789523995545E-11
  4.15020870466897331E-11  4.30879642500263172E-11  4.47344409609665828E-11
  4.64438328059499804E-11  4.82185438960087361E-11  5.00610702079368143E-11
  5.19740030946614311E-11  5.39600329297355887E-11  5.60219528911170791E-11
  5.81626628895155553E-11  6.03851736468490705E-11  6.26926109305624208E-11
  6.50882199497250980E-11  6.75753699191231558E-11  7.01575587977615131E-11
  7.28384182084122866E-11  7.56217185451631177E-11  7.85113742761377948E-11
  8.15114494488273096E-11  8.46261634057993614E-11  8.78598967188213471E-11
  9.12171973497263280E-11  9.47027870466941708E-11  9.83215679849608256E-11
  1.02078629661273645E-10  1.05979256051785489E-10  1.10028933043477367E-10
  1.14233356149550055E-10  1.18598438519628294E-10  1.23130319256044352E-10
  1.27835372047909201E-10  1.32720214135108982E-10  1.37791715614826041E-10
  1.43057009103673590E-10  1.48523499769043805E-10  1.54198875743771259E-10
  1.60091118938758125E-10  1.66208516268765415E-10  1.72559671307157695E-10
  1.79153516386001284E-10  1.85999325158525386E-10  1.93106725641617463E-10
  2.00485713756690579E-10  2.08146667387970450E-10  2.16100360977973347E-10
  2.24357980680697096E-10  2.32931140093848038E-10  2.41831896592215865E-10
  2.51072768285173916E-10  2.60666751622154522E-10  2.70627339670851201E-10
  2.80968541093866147E-10  2.91704899850481310E-10  3.02851515651264960E-10
  3.14424065194284304E-10  3.26438824212777587E-10  3.38912690365309129E-10
  3.51863207000587205E-10  3.65308587830371302E-10  3.79267742545170160E-10
  3.93760303408745994E-10  4.08806652868841630E-10  4.24427952222946277E-10
  4.40646171379424042E-10  4.57484119755860027E-10  4.74965478358063536E-10
  4.93114833084866361E-10  5.11957709305535959E-10  5.31520607758438322E-10
  5.51831041821442534E-10  5.72917576206460785E-10  5.94809867132572902E-10
  6.17538704034207740E-10  6.41136052863048499E-10  6.65635101044555900E-10
  6.91070304152341898E-10  7.17477434366008492E-10  7.44893630780639542E-10
  7.73357451638659289E-10  8.02908928557533767E-10  8.33589622829581364E-10
  8.65442683873040478E-10  8.98512909916636086E-10  9.32846811002954214E-10
  9.68492674399239253E-10  1.00550063250761478E-09  1.04392273337019356E-09
  1.08381301386826999E-09  1.12522757571851442E-09  1.16822466437306050E-09
  1.21286475093443776E-09  1.25921061720051135E-09  1.30732744395908250E-09
  1.35728290265625064E-09  1.40914725056753647E-09  1.46299342960557992E-09
  1.51889716890329272E-09  1.57693709131679399E-09  1.63719482399784349E-09
  1.69975511319140246E-09  1.76470594341966237E-09  1.83213866122007266E-09
  1.90214810361142207E-09  1.97483273146881371E-09  2.05029476799490873E-09
  2.12864034248211349E-09  2.20997963956789191E-09  2.29442705419345725E-09
  2.38210135248327136E-09  2.47312583877159150E-09  2.56762852901149231E-09
  2.66574233080973266E-09  2.76760523034046937E-09  2.87336048640129533E-09
  2.98315683188417765E-09  3.09714868294408150E-09  3.21549635616038458E-09
  3.33836629399598436E-09  3.46593129887045659E-09  3.59837077617802854E-09
  3.73587098659053927E-09  3.87862530800060506E-09  4.02683450747442266E-09
  4.18070702359440509E-09  4.34045925959109746E-09  4.50631588767494243E-09
  4.67851016499586494E-09  4.85728426167672277E-09  5.04288960137864996E-09
  5.23558721488125762E-09  5.43564810717064029E-09  5.64335363855506358E-09
  5.85899592034142185E-09  6.08287822563058402E-09  6.31531541580855334E-09
  6.55663438333280333E-09  6.80717451143751521E-09  7.06728815140227104E-09
  7.33734111805772930E-09  7.61771320422199306E-09  7.90879871479431409E-09
  8.21100702125365025E-09  8.52476313734481327E-09  8.85050831675946974E-09
  9.18870067365296174E-09  9.53981582687076755E-09  9.90434756878651711E-09
  1.02828085596983895E-08  1.06757310487514224E-08  1.10836676224095653E-08
  1.15071919815193806E-08  1.19468997480664683E-08  1.24034093027539920E-08
  1.28773626545805597E-08  1.33694263436456960E-08  1.38802923784423760E-08
  1.44106792089647894E-08  1.49613327369923765E-08  1.55330273649705882E-08
  1.61265670849699119E-08  1.67427866092434236E-08  1.73825525439799281E-08
  1.80467646079030396E-08  1.87363568974205591E-08  1.94522992001137180E-08
  2.01955983584077362E-08  2.09672996853348054E-08  2.17684884343912949E-08
  2.26002913255483326E-08  2.34638781295569037E-08  2.43604633127838728E-08
  2.52913077448865342E-08  2.62577204717213198E-08  2.72610605559842352E-08
  2.83027389881724802E-08  2.93842206705459938E-08  3.05070264768771784E-08
  3.16727353908935754E-08  3.28829867264110016E-08  3.41394824322756946E-08
  3.54439894853576835E-08  3.67983423749631152E-08  3.82044456821506275E-08
  3.96642767575759306E-08  4.11798885016292229E-08  4.27534122507777539E-08
  4.43870607741634290E-08  4.60831313846652315E-08  4.78440091687983613E-08
  4.96721703399948404E-08  5.15701857199721560E-08  5.35407243530814233E-08
  5.55865572587121859E-08  5.77105613270262543E-08  5.99157233634993516E-08
  6.22051442879478575E-08  6.45820434939398775E-08  6.70497633747144938E-08
  6.96117740219675503E-08  7.22716781041054150E-08  7.50332159308214530E-08
  7.79002707111062378E-08  8.08768740120758275E-08  8.39672114262881353E-08
  8.71756284555059697E-08  9.05066366191681085E-08  9.39649197961541054E-08
  9.75553408087437410E-08  1.01282948258017781E-07  1.05152983620299955E-07
  1.09170888614602391E-07  1.13342312851424671E-07  1.17673121773640401E-07
  1.22169404900623872E-07  1.26837484387192916E-07  1.31683923909382105E-07
  1.36715537889520655E-07  1.41939401073565060E-07  1.47362858474131227E-07
  1.52993535693183158E-07  1.58839349638864415E-07  1.64908519651518777E-07
  1.71209579054508467E-07  1.77751387146046336E-07  1.84543141648866382E-07
  1.91594391635201446E-07  1.98915050945208990E-07  2.06515412117664343E-07
  2.14406160852472638E-07  2.22598391025285768E-07  2.31103620275282029E-07
  2.39933806187985881E-07  2.49101363095809744E-07  2.58619179519896179E-07
  2.68500636277712014E-07  2.78759625281786374E-07  2.89410569055961344E-07
  3.00468440996506041E-07  3.11948786406512420E-07  3.23867744333053537E-07
  3.36242070237713646E-07  3.49089159532274158E-07  3.62427072012531075E-07
  3.76274557224493622E-07  3.90651080798507933E-07  4.05576851788195837E-07
  4.21072851052525800E-07  4.37160860720758574E-07  4.53863494781555114E-07
  4.71204230839081825E-07  4.89207443080583446E-07  5.07898436501599550E-07
  5.27303482436727800E-07  5.47449855445690048E-07  5.68365871606334140E-07
  5.90080928268153616E-07  6.12625545321982833E-07  6.36031408043590999E-07
  6.60331411571139567E-07  6.85559707078716256E-07  7.11751749710520243E-07
  7.38944348342758309E-07  7.67175717242811993E-07  7.96485529697925861E-07
  8.26914973688376130E-07  8.58506809682929361E-07  8.91305430637370850E-07
  9.25356924279938124E-07  9.60709137770653840E-07  9.97411744824915020E-07
  1.03551631539502956E-06  1.07507638800704709E-06  1.11614754485383958E-06
  1.15878748974924645E-06  1.20305612905209736E-06  1.24901565567298394E-06
  1.29673063628097160E-06  1.34626810183191589E-06  1.39769764154458606E-06
  1.45109150045562627E-06  1.50652468068927248E-06  1.56407504658298789E-06
  1.62382343381545323E-06  1.68585376268887433E-06  1.75025315572340722E-06
  1.81711205972731707E-06  1.88652437251277698E-06  1.95858757443360485E-06
  2.03340286492804370E-06  2.11107530425632169E-06  2.19171396062999044E-06
  2.27543206293759888E-06  2.36234715927885584E-06  2.45258128152743407E-06
  2.54626111615096082E-06  2.64351818152498760E-06  2.74448901198749451E-06
  2.84931534888907645E-06  2.95814433890344895E-06  3.07112873987330397E-06
  3.18842713447663921E-06  3.31020415200957730E-06  3.43663069859253261E-06
  3.56788419611797774E-06  3.70414883027171306E-06  3.84561580796943379E-06
  3.99248362456456037E-06  4.14495834119655282E-06  4.30325387266263082E-06
  4.46759228621011878E-06  4.63820411166085436E-06  4.81532866329786483E-06
  4.99921437395593753E-06  5.19011914177620951E-06  5.38831069010263939E-06
  5.59406694101527685E-06  5.80767640301284648E-06  6.02943857337942109E-06
  6.25966435578900944E-06  6.49867649371841215E-06  6.74681002026380911E-06
  7.00441272497796837E-06  7.27184563836588705E-06  7.54948353470346349E-06
  7.83771545387201066E-06  8.13694524291558118E-06  8.44759211806282339E-06
  8.77009124798081610E-06  9.10489435905282461E-06  9.45247036351016359E-06
  9.81330601127766886E-06  1.01879065664110835E-05  1.05767965090490534E-05
  1.09805202638323137E-05  1.13996429557728754E-05  1.18347511946149133E-05
  1.22864538887413322E-05  1.27553830897227663E-05  1.32421948686537752E-05
  1.37475702254528808E-05  1.42722160323605523E-05  1.48168660129224370E-05
  1.53822817577517797E-05  1.59692537784437745E-05  1.65786026010523123E-05
  1.72111799005901372E-05  1.78678696781132940E-05  1.85495894819269366E-05
  1.92572916745490073E-05  1.99919647471202265E-05  2.07546346829959427E-05
  2.15463663723979586E-05  2.23682650799576688E-05  2.32214779670959796E-05
  2.41071956712558347E-05  2.50266539440532430E-05  2.59811353506015364E-05
  2.69719710321792959E-05  2.80005425345584939E-05  2.90682837043886494E-05
  3.01766826561043206E-05  3.13272838120568165E-05  3.25216900184196767E-05
  3.37615647396384669E-05  3.50486343342488858E-05  3.63846904150466017E-05
  3.77715922967934608E-05  3.92112695344590910E-05  4.07057245553079879E-05
  4.22570353881396153E-05  4.38673584933534707E-05  4.55389316974691449E-05
  4.72740772356943162E-05  4.90752049064471636E-05  5.09448153417482106E-05
  5.28855033979893217E-05  5.48999616710857383E-05  5.69909841404205527E-05
  5.91614699460646525E-05  6.14144273041734683E-05  6.37529775656676246E-05
  6.61803594228398047E-05  6.86999332691700076E-05  7.13151857175520454E-05
  7.40297342831668955E-05  7.68473322362673108E-05  7.97718736307184462E-05
  8.28073985142224847E-05  8.59580983269868718E-05  8.92283214955880117E-05
  9.26225792280705183E-05  9.61455515172576395E-05  9.98020933592866144E-05
  1.03597241195912829E-04  1.07536219587028501E-04  1.11624448121279342E-04
  1.15867548572367660E-04  1.20271352310857084E-04  1.24841907979283170E-04
  1.29585489438820812E-04  1.34508603996179820E-04  1.39618000921171251E-04
  1.44920680265048463E-04  1.50423901987846290E-04  1.56135195404764047E-04
  1.62062368962308657E-04  1.68213520357118949E-04  1.74597047005673411E-04
  1.81221656876263498E-04  1.88096379694206235E-04  1.95230578536052980E-04
  2.02633961821455403E-04  2.10316595714977859E-04  2.18288916949391899E-04
  2.26561746088626930E-04  2.35146301240340874E-04  2.44054212230629289E-04
  2.53297535253268395E-04  2.62888768013698937E-04  2.72840865379756295E-04
  2.83167255551217904E-04  2.93881856761566546E-04  3.04999094533952089E-04
  3.16533919505943852E-04  3.28501825834008740E-04  3.40918870192076062E-04
  3.53801691387851426E-04  3.67167530614339200E-04  3.81034252345655803E-04
  3.95420365892177510E-04  4.10345047640461402E-04  4.25828163998256981E-04
  4.41890295050956932E-04  4.58552758944732292E-04  4.75837637023879181E-04
  4.93767799745109428E-04  5.12366933371358278E-04  5.31659567459764480E-04
  5.51671103174087001E-04  5.72427842445644088E-04  5.93957017980282186E-04
  6.16286824124300339E-04  6.39446448623502391E-04  6.63466105298709348E-04
  6.88377067628714585E-04  7.14211703250296074E-04  7.41003509415261337E-04
  7.68787149423386692E-04  7.97598490014254924E-04  8.27474639722125343E-04
  8.58453988242492737E-04  8.90576246818649522E-04  9.23882489622021531E-04
  9.58415196122215803E-04  9.94218294508037370E-04  1.03133720614789911E-03
  1.06981889105346121E-03  1.10971189433120999E-03  1.15106639370028598E-03
  1.19393424803200575E-03  1.23836904686468879E-03  1.28442616086516144E-03
  1.33216279333527705E-03  1.38163803266958983E-03  1.43291290570697356E-03
  1.48605043193548352E-03  1.54111567866587243E-03  1.59817581701393748E-03
  1.65730017862006102E-03  1.71856031306320801E-03  1.78203004608375442E-03
  1.84778553837938167E-03  1.91590534487775751E-03  1.98647047446326658E-03
  2.05956445023155457E-03  2.13527336996102582E-03  2.21368596666348446E-03
  2.29489366924378463E-03  2.37899066323863425E-03  2.46607395126054955E-03
  2.55624341294908609E-03  2.64960186454714624E-03  2.74625511788488368E-03
  2.84631203835499207E-03  2.94988460161227850E-03  3.05708794922119470E-03
  3.16804044275640316E-03  3.28286371591607340E-03  3.40168272433691776E-03
  3.52462579339664567E-03  3.65182466317628789E-03  3.78341453010599005E-03
  3.91953408503701011E-03  4.06032554791624194E-03  4.20593469794383005E-03
  4.35651089864106181E-03  4.51220711777489212E-03  4.67317994193200154E-03
  4.83958958444377727E-03  5.01159988593069452E-03  5.18937830774617720E-03
  5.37309591741928338E-03  5.56292736475116727E-03  5.75905084769145863E-03
  5.96164806859224988E-03  6.17090417901986019E-03  6.38700771180053268E-03
  6.61015049950662310E-03  6.84052757991583226E-03  7.07833708578640627E-03
  7.32378011754959181E-03  7.57706059864358440E-03  7.83838511318632469E-03
  8.10796272291662047E-03  8.38600476176502851E-03  8.67272460867106292E-03
  8.96833743670673485E-03  9.27305993549067294E-03  9.58711000509588837E-03
  9.91070642286490631E-03  1.02440684791295505E-02  1.05874155791102053E-02
  1.09409668097032783E-02  1.13049404722436395E-02  1.16795535757299260E-02
  1.20650212878688472E-02  1.24615563442040233E-02  1.28693684142574347E-02
  1.32886634189634048E-02  1.37196427966255249E-02  1.41625027197604409E-02
  1.46174332582246404E-02  1.50846174838035283E-02  1.55642305140250327E-02
  1.60564384986261639E-02  1.65613975407703333E-02  1.70792525493580136E-02
  1.76101360226020888E-02  1.81541667642169287E-02  1.87114485235915229E-02
  1.92820685570069712E-02  1.98660961140087987E-02  2.04635808454588543E-02
  2.10745511266967750E-02  2.16990122941511480E-02  2.23369448026804161E-02
  2.29883022953181609E-02  2.36530095823043289E-02  2.43309605315986596E-02
  2.50220158770848335E-02  2.57260009355559857E-02  2.64427032325737499E-02
  2.71718700456695245E-02  2.79132058661532186E-02  2.86663697754318894E-02
  2.94309727396596076E-02  3.02065748365574274E-02  3.09926824117537324E-02
  3.17887451683258673E-02  3.25941531998079903E-02  3.34082339811276677E-02
  3.42302493180291767E-02  3.50593922668465466E-02  3.58947840428382459E-02
  3.67354709299923740E-02  3.75804212039063876E-02  3.84285220884225537E-02
  3.92785767691588295E-02  4.01293014816596627E-02  4.09793227002058849E-02
  4.18271744572011883E-02  4.26712958181665741E-02  4.35100285461956712E-02
  4.43416149970283016E-02  4.51641962780148301E-02  4.59758107066333688E-02
  4.67743926238194732E-02  4.75577716183145094E-02  4.83236721887518733E-02
  4.90697139103640767E-02  4.97934121805609087E-02  5.04921796038308446E-02
  5.11633280435661031E-02  5.18040714501066188E-02  5.24115295564085495E-02
  5.29827324765772267E-02  5.35146262764639585E-02  5.40040796516104357E-02
  5.44478918144171917E-02  5.48428015785004386E-02  5.51854977944867889E-02
  5.54726312737178345E-02  5.57008282653184139E-02  5.58667054724986956E-02
  5.59668868293034388E-02  5.59980221637218639E-02  5.59568076968603792E-02
  5.58400084651058115E-02  5.56444828693418089E-02  5.53672094332584852E-02
  5.50053155820377435E-02  5.45561086764818626E-02  5.40171094157637019E-02
  5.33860875204811361E-02  5.26610995091624928E-02  5.18405288190266628E-02
  5.09231282615096384E-02  4.99080644215850674E-02  4.87949639800610013E-02
  4.75839620136745273E-02  4.62757520477247927E-02  4.48716372183345924E-02
  4.33735826338094432E-02  4.17842686683741957E-02  4.01071445473752744E-02
  3.83464816057292601E-02  3.65074260648352786E-02  3.45960507038595225E-02
  3.26194043227113345E-02  3.05855584885725562E-02  2.85036508761525795E-02
  2.63839241276239318E-02  2.42377589412553912E-02  2.20777006660345179E-02
  1.99174781377693989E-02  1.77720132781888848E-02  1.56574202052481258E-02
  1.35909925324675575E-02  1.15911771607487262E-02  9.67753313537979450E-03
  7.87067407476299552E-03  6.19219233476094640E-03  4.66456324631540301E-03
  3.31102843840564137E-03  2.15545626615684920E-03  1.22217785132523694E-03
  5.35802481852237192E-04  1.20976681318904182E-04 -1.39385237224207750E-06
 -9.70583830165170442E-08 -2.83016112833986789E-09  7.38258706511693340E-11
  1.15589951547756965E-11  5.99266992590453140E-13  8.46634079970798902E-15
 -9.69930360779033177E-16 -8.49175636600320430E-17 -3.21735194515942125E-18
  1.92421325580785385E-20  8.99801108419815238E-21  5.61951945999503266E-22
  0.00000000000000000E+00  0.00000000000000000E+00  0.00000000000000000E+00
  0.00000000000000000E+00  0.00000000000000000E+00  0.00000000000000000E+00
  0.00000000000000000E+00  0.00000000000000000E+00  0.00000000000000000E+00
  0.00000000000000000E+00  0.00000000000000000E+00  0.00000000000000000E+00
  0.00000000000000000E+00  0.00000000000000000E+00  0.00000000000000000E+00
  0.00000000000000000E+00  0.00000000000000000E+00  0.00000000000000000E+00
  0.00000000000000000E+00  0.00000000000000000E+00  0.00000000000000000E+00
  0.00000000000000000E+00  0.00000000000000000E+00  0.00000000000000000E+00
  0.00000000000000000E+00  0.00000000000000000E+00  0.00000000000000000E+00
  0.00000000000000000E+00  0.00000000000000000E+00  0.00000000000000000E+00
  0.00000000000000000E+00  0.00000000000000000E+00  0.00000000000000000E+00
  0.00000000000000000E+00  0.00000000000000000E+00  0.00000000000000000E+00
  0.00000000000000000E+00  0.00000000000000000E+00  0.00000000000000000E+00
  0.00000000000000000E+00  0.00000000000000000E+00  0.00000000000000000E+00
  0.00000000000000000E+00  0.00000000000000000E+00  0.00000000000000000E+00
  0.00000000000000000E+00  0.00000000000000000E+00  0.00000000000000000E+00
  0.00000000000000000E+00  0.00000000000000000E+00  0.00000000000000000E+00
  0.00000000000000000E+00  0.00000000000000000E+00  0.00000000000000000E+00
  0.00000000000000000E+00  0.00000000000000000E+00  0.00000000000000000E+00
  0.00000000000000000E+00  0.00000000000000000E+00  0.00000000000000000E+00
  0.00000000000000000E+00  0.00000000000000000E+00  0.00000000000000000E+00
  0.00000000000000000E+00  0.00000000000000000E+00  0.00000000000000000E+00
  0.00000000000000000E+00  0.00000000000000000E+00  0.00000000000000000E+00
  0.00000000000000000E+00  0.00000000000000000E+00  0.00000000000000000E+00
  0.00000000000000000E+00  0.00000000000000000E+00  0.00000000000000000E+00
  0.00000000000000000E+00  0.00000000000000000E+00  0.00000000000000000E+00
  0.00000000000000000E+00  0.00000000000000000E+00  0.00000000000000000E+00
  0.00000000000000000E+00  0.00000000000000000E+00  0.00000000000000000E+00
  0.00000000000000000E+00  0.00000000000000000E+00  0.00000000000000000E+00
  0.00000000000000000E+00  0.00000000000000000E+00  0.00000000000000000E+00
  0.00000000000000000E+00  0.00000000000000000E+00  0.00000000000000000E+00
  0.00000000000000000E+00  0.00000000000000000E+00  0.00000000000000000E+00
  0.00000000000000000E+00  0.00000000000000000E+00  0.00000000000000000E+00
  0.00000000000000000E+00  0.00000000000000000E+00  0.00000000000000000E+00
  0.00000000000000000E+00  0.00000000000000000E+00  0.00000000000000000E+00
  0.00000000000000000E+00  0.00000000000000000E+00  0.00000000000000000E+00
  0.00000000000000000E+00  0.00000000000000000E+00  0.00000000000000000E+00
  0.00000000000000000E+00  0.00000000000000000E+00  0.00000000000000000E+00
  0.00000000000000000E+00  0.00000000000000000E+00  0.00000000000000000E+00
  0.00000000000000000E+00  0.00000000000000000E+00  0.00000000000000000E+00
  0.00000000000000000E+00  0.00000000000000000E+00  0.00000000000000000E+00
  0.00000000000000000E+00  0.00000000000000000E+00  0.00000000000000000E+00
  0.00000000000000000E+00  0.00000000000000000E+00  0.00000000000000000E+00
  0.00000000000000000E+00  0.00000000000000000E+00  0.00000000000000000E+00
  0.00000000000000000E+00  0.00000000000000000E+00  0.00000000000000000E+00
  0.00000000000000000E+00  0.00000000000000000E+00  0.00000000000000000E+00
  0.00000000000000000E+00  0.00000000000000000E+00  0.00000000000000000E+00
  0.00000000000000000E+00  0.00000000000000000E+00  0.00000000000000000E+00
  0.00000000000000000E+00  0.00000000000000000E+00  0.00000000000000000E+00
  0.00000000000000000E+00  0.00000000000000000E+00  0.00000000000000000E+00
  0.00000000000000000E+00  0.00000000000000000E+00  0.00000000000000000E+00
  0.00000000000000000E+00  0.00000000000000000E+00  0.00000000000000000E+00
  0.00000000000000000E+00  0.00000000000000000E+00  0.00000000000000000E+00
  0.00000000000000000E+00  0.00000000000000000E+00  0.00000000000000000E+00
  0.00000000000000000E+00  0.00000000000000000E+00  0.00000000000000000E+00
  0.00000000000000000E+00  0.00000000000000000E+00  0.00000000000000000E+00
  0.00000000000000000E+00  0.00000000000000000E+00  0.00000000000000000E+00
  0.00000000000000000E+00  0.00000000000000000E+00  0.00000000000000000E+00
  0.00000000000000000E+00  0.00000000000000000E+00  0.00000000000000000E+00
                       </PP_QIJL.1.3.1>
 <PP_QIJL.1.4.1 type="real" size="   888" columns="3" first_index=" 1" second_index=" 4" composite_index=" 7" angular_momentum="1">
  9.99717282507151937E-11  1.03791847410050514E-10  1.07757940936789318E-10
  1.11875586802082095E-10  1.16150576122449049E-10  1.20588921304440992E-10
  1.25196864500619598E-10  1.29980886388600696E-10  1.34947715285520946E-10
  1.40104336610894992E-10  1.45458002710981852E-10  1.51016243058547296E-10
  1.56786874842483920E-10  1.62778013961960093E-10  1.68998086440728763E-10
  1.75455840277656055E-10  1.82160357749943515E-10  1.89121068186621289E-10
  1.96347761230085011E-10  2.03850600604314228E-10  2.11640138409363951E-10
  2.19727329961893001E-10  2.28123549202902037E-10  2.36840604694223833E-10
  2.45890756226149900E-10  2.55286732059877852E-10  2.65041746828589879E-10
  2.75169520122761072E-10  2.85684295785548193E-10  2.96600861945471875E-10
  3.07934571814727330E-10  3.19701365281997992E-10  3.31917791330677238E-10
  3.44601031313410319E-10  3.57768923116303275E-10  3.71439986246243491E-10
  3.85633447877029537E-10  4.00369269890685951E-10  4.15668176952080857E-10
  4.31551685656407710E-10  4.48042134790297032E-10  4.65162716749471301E-10
  4.82937510156680583E-10  5.01391513726308936E-10  5.20550681422719072E-10
  5.40441958962363124E-10  5.61093321710408271E-10  5.82533814025763207E-10
  6.04793590109271700E-10  6.27903956413039876E-10  6.51897415670112100E-10
  6.76807712606715664E-10  7.02669881401257707E-10  7.29520294956685463E-10
  7.57396716055919252E-10  7.86338350471605226E-10  8.16385902105824561E-10
  8.47581630236219421E-10  8.79969408950137683E-10  9.13594788849472090E-10
  9.48505061113518676E-10  9.84749324009913950E-10  1.02237855194670370E-09
  1.06144566716355780E-09  1.10200561416191674E-09  1.14411543697956233E-09
  1.18783435941803068E-09  1.23322386833528256E-09  1.28034780012168008E-09
  1.32927243047997959E-09  1.38006656763598625E-09  1.43280164911133357E-09
  1.48755184219364082E-09  1.54439414824606769E-09  1.60340851100291299E-09
  1.66467792900291397E-09  1.72828857231916884E-09  1.79432990374960281E-09
  1.86289480463797796E-09  1.93407970550297072E-09  2.00798472165895731E-09
  2.08471379401887320E-09  2.16437483527734681E-09  2.24707988168008731E-09
  2.33294525059248262E-09  2.42209170408893449E-09  2.51464461879352421E-09
  2.61073416221061006E-09  2.71049547579319621E-09  2.81406886500655478E-09
  2.92159999665469334E-09  3.03324010374706385E-09  3.14914619819346407E-09
  3.26948129162627257E-09  3.39441462466083392E-09  3.52412190491628326E-09
  3.65878555413154606E-09  3.79859496472399661E-09  3.94374676615158732E-09
  4.09444510145326840E-09  4.25090191435642394E-09  4.41333724735520697E-09
  4.58197955117885582E-09  4.75706600608533322E-09  4.93884285543213309E-09
  5.12756575199328131E-09  5.32350011750985237E-09  5.52692151597936200E-09
  5.73811604120915998E-09  5.95738071917890688E-09  6.18502392577781966E-09
  6.42136582050444588E-09  6.66673879673871275E-09  6.92148794921957620E-09
  7.18597155938578497E-09  7.46056159926208440E-09  7.74564425459983584E-09
  8.04162046800753905E-09  8.34890650283517726E-09  8.66793452860549796E-09
  8.99915322881527099E-09  9.34302843196174979E-09  9.70004376668138982E-09
  1.00707013419224022E-08  1.04555224531077393E-08  1.08550483152812874E-08
  1.12698408242688603E-08  1.17004833469240230E-08  1.21475815415703021E-08
  1.26117642097936944E-08  1.30936841807829432E-08  1.35940192294619768E-08
  1.41134730297051086E-08  1.46527761439758863E-08  1.52126870507811652E-08
  1.57939932113856748E-08  1.63975121772865558E-08  1.70240927400063278E-08
  1.76746161248203876E-08  1.83499972300982583E-08  1.90511859140016806E-08
  1.97791683303483471E-08  2.05349683155209123E-08  2.13196488283709572E-08
  2.21343134451431426E-08  2.29801079115221769E-08  2.38582217539843947E-08
  2.47698899527209477E-08  2.57163946784848323E-08  2.66990670958045395E-08
  2.77192892351002854E-08  2.87784959363345360E-08  2.98781768669316714E-08
  3.10198786168028376E-08  3.22052068734243588E-08  3.34358286800277563E-08
  3.47134747800756480E-08  3.60399420513217711E-08  3.74170960328770157E-08
  3.88468735488380815E-08  4.03312854321663282E-08  4.18724193526454028E-08
  4.34724427528957460E-08  4.51336058965788380E-08  4.68582450330736360E-08
  4.86487856830741978E-08  5.05077460497295523E-08  5.24377405601306649E-08
  5.44414835421139797E-08  5.65217930415519407E-08  5.86815947855111893E-08
  6.09239262968403866E-08  6.32519411659699259E-08  6.56689134859450842E-08
  6.81782424569224417E-08  7.07834571665918686E-08  7.34882215532692656E-08
  7.62963395586278994E-08  7.92117604772984975E-08  8.22385845108980592E-08
  8.53810685342609862E-08  8.86436320819916227E-08  9.20308635637806874E-08
  9.55475267171754419E-08  9.91985673069317634E-08  1.02989120080332520E-07
  1.06924515988252451E-07  1.11010289682163968E-07  1.15252187297551830E-07
  1.19656174534774349E-07  1.24228445048637603E-07  1.28975429158563532E-07
  1.33903802891535663E-07  1.39020497370578013E-07  1.44332708561952176E-07
  1.49847907394770782E-07  1.55573850267282357E-07  1.61518589954558138E-07
  1.67690486932974132E-07  1.74098221137342802E-07  1.80750804167301083E-07
  1.87657591960039051E-07  1.94828297947258248E-07  2.02273006714808692E-07
  2.10002188184225216E-07  2.18026712336132940E-07  2.26357864496134809E-07
  2.35007361204820925E-07  2.43987366694011129E-07  2.53310509992630370E-07
  2.62989902686028835E-07  2.73039157353911939E-07  2.83472406712689210E-07
  2.94304323489150932E-07  3.05550141053540173E-07  3.17225674840805263E-07
  3.29347344590389450E-07  3.41932197435659559E-07  3.54997931875441004E-07
  3.68562922661516768E-07  3.82646246636834988E-07  3.97267709560926616E-07
  4.12447873960248778E-07  4.28208088042407651E-07  4.44570515715159955E-07
  4.61558167752276675E-07  4.79194934149949233E-07  4.97505617719485715E-07
  5.16515968963357313E-07  5.36252722283533243E-07  5.56743633573210056E-07
  5.78017519244681068E-07  6.00104296748089123E-07  6.23035026638150078E-07
  6.46841956248022618E-07  6.71558565031547949E-07  6.97219611637581562E-07
  7.23861182782806328E-07  7.51520743991529665E-07  7.80237192273740173E-07
  8.10050910815522365E-07  8.41003825758794433E-07  8.73139465150023366E-07
  9.06503020140738939E-07  9.41141408525890935E-07  9.77103340709461642E-07
  1.01443938818988650E-06  1.05320205466150369E-06  1.09344584983194069E-06
  1.13522736605931296E-06  1.17860535791679425E-06  1.22364082479635506E-06
  1.27039709666770273E-06  1.31893992311291612E-06  1.36933756576199715E-06
  1.42166089425908292E-06  1.47598348589414519E-06  1.53238172904013352E-06
  1.59093493054087750E-06  1.65172542720062358E-06  1.71483870153186000E-06
  1.78036350192395813E-06  1.84839196740138407E-06  1.91901975714678293E-06
  1.99234618497081813E-06  2.06847435891757822E-06  2.14751132620177128E-06
  2.22956822368112909E-06  2.31476043407535046E-06  2.40320774815098603E-06
  2.49503453309994020E-06  2.59036990734814029E-06  2.68934792203968922E-06
  2.79210774945138764E-06  2.89879387860218930E-06  3.00955631833216026E-06
  3.12455080813605718E-06  3.24393903704744869E-06  3.36788887088070594E-06
  3.49657458814979295E-06  3.63017712499495922E-06  3.76888432946120250E-06
  3.91289122548522715E-06  4.06240028696149742E-06  4.21762172227192118E-06
  4.37877376967838735E-06  4.54608300399275633E-06  4.71978465495441780E-06
  4.90012293776223942E-06  5.08735139622454427E-06  5.28173325900837485E-06
  5.48354180948802950E-06  5.69306076971127565E-06  5.91058469902209007E-06
  6.13641940789874347E-06  6.37088238758758339E-06  6.61430325613511392E-06
  6.86702422144349390E-06  7.12940056199889971E-06  7.40180112594656415E-06
  7.68460884921199995E-06  7.97822129339485051E-06  8.28305120418898403E-06
  8.59952709111160730E-06  8.92809382935370367E-06  9.26921328459491997E-06
  9.62336496165860740E-06  9.99104667791531180E-06  1.03727752623782996E-05
  1.07690872814701116E-05  1.11805397924764758E-05  1.16077111257428905E-05
  1.20512016967087058E-05  1.25116348489158222E-05  1.29896577291720457E-05
  1.34859421960937014E-05  1.40011857632995286E-05  1.45361125785750576E-05
  1.50914744403779722E-05  1.56680518531062439E-05  1.62666551226049205E-05
  1.68881254934441055E-05  1.75333363295579367E-05  1.82031943398957809E-05
  1.88986408507987694E-05  1.96206531268800008E-05  2.03702457422545786E-05
  2.11484720040354574E-05  2.19564254300833172E-05  2.27952412830755619E-05
  2.36660981630356191E-05  2.45702196605473946E-05  2.55088760729621272E-05
  2.64833861859931916E-05  2.74951191231856167E-05  2.85454962658399204E-05
  2.96359932460687629E-05  3.07681420157667214E-05  3.19435329943777005E-05
  3.31638172984544466E-05  3.44307090561166715E-05  3.57459878096336685E-05
  3.71115010094784899E-05  3.85291666033264681E-05  4.00009757236045635E-05
  4.15289954773308904E-05  4.31153718421275740E-05  4.47623326724360423E-05
  4.64721908201195711E-05  4.82473473737893410E-05  5.00902950213563604E-05
  5.20036215404842718E-05  5.39900134217915134E-05  5.60522596298346513E-05
  5.81932555070957227E-05  6.04160068263855996E-05  6.27236339972982393E-05
  6.51193764325469694E-05  6.76065970802309634E-05  7.01887871283175758E-05
  7.28695708878569223E-05  7.56527108616938363E-05  7.85421130056903981E-05
  8.15418321897323919E-05  8.46560778661051489E-05  8.78892199530504817E-05
  9.12457949416396665E-05  9.47305122344011994E-05  9.83482607244546544E-05
  1.02104115624228721E-04  1.06003345553166615E-04  1.10051419894251307E-04
  1.14254016429442883E-04  1.18617029264544922E-04  1.23146577054420174E-04
  1.27849011539867208E-04  1.32730926407871244E-04  1.37799166487450345E-04
  1.43060837293755761E-04  1.48523314933459994E-04  1.54194256385042423E-04
  1.60081610168071032E-04  1.66193627416056825E-04  1.72538873368069861E-04
  1.79126239294951224E-04  1.85964954876277519E-04  1.93064601045029888E-04
  2.00435123317507330E-04  2.08086845626582903E-04  2.16030484677277239E-04
  2.24277164844291938E-04  2.32838433631576145E-04  2.41726277715014393E-04
  2.50953139590005781E-04  2.60531934846396519E-04  2.70476070094572633E-04
  2.80799461566802065E-04  2.91516554418889940E-04  3.02642342758311961E-04
  3.14192390425715605E-04  3.26182852557995394E-04  3.38630497962361370E-04
  3.51552732330974438E-04  3.64967622327519599E-04  3.78893920577955709E-04
  3.93351091598828629E-04  4.08359338698823719E-04  4.23939631888684682E-04
  4.40113736836900962E-04  4.56904244909752256E-04  4.74334604335373982E-04
  4.92429152534767760E-04  5.11213149661611716E-04  5.30712813395330281E-04
  5.50955355033497826E-04  5.71969016930787689E-04  5.93783111335999410E-04
  6.16428060676766048E-04  6.39935439344885672E-04  6.64338017037034538E-04
  6.89669803707244704E-04  7.15966096192879138E-04  7.43263526572369450E-04
  7.71600112318038224E-04  8.01015308308541756E-04  8.31550060769121959E-04
  8.63246863212450868E-04  8.96149814448602908E-04  9.30304678739813447E-04
  9.65758948175605351E-04  1.00256190735221388E-03  1.04076470043926476E-03
  1.08042040071582176E-03  1.12158408266508779E-03  1.16431289671722676E-03
  1.20866614674333770E-03  1.25470537039212415E-03  1.30249442237003778E-03
  1.35209956076735340E-03  1.40358953654218851E-03  1.45703568627919252E-03
  1.51251202832899728E-03  1.57009536244915628E-03  1.62986537306547162E-03
  1.69190473629622965E-03  1.75629923085965454E-03  1.82313785299815568E-03
  1.89251293555485977E-03  1.96452027135689874E-03  2.03925924105977964E-03
  2.11683294559086637E-03  2.19734834335140331E-03  2.28091639233737485E-03
  2.36765219737446403E-03  2.45767516261442571E-03  2.55110914947304351E-03
  2.64808264018310483E-03  2.74872890718670659E-03  2.85318618854525901E-03
  2.96159786955575927E-03  3.07411267077149948E-03  3.19088484266589556E-03
  3.31207436717032185E-03  3.43784716627392600E-03  3.56837531791498637E-03
  3.70383727940874503E-03  3.84441811870700348E-03  3.99030975367695769E-03
  4.14171119965938209E-03  4.29882882555697801E-03  4.46187661881299481E-03
  4.63107645947805589E-03  4.80665840364607935E-03  4.98886097652289674E-03
  5.17793147554296111E-03  5.37412628376184812E-03  5.57771119381063590E-03
  5.78896174269549323E-03  6.00816355790424750E-03  6.23561271509435241E-03
  6.47161610763808803E-03  6.71649182833125580E-03  6.97056956376772285E-03
  7.23419100171334567E-03  7.50771025172917040E-03  7.79149427937212043E-03
  8.08592335451397207E-03  8.39139151417763081E-03  8.70830704009828774E-03
  9.03709295135327398E-03  9.37818751264196671E-03  9.73204475868015215E-03
  1.00991350348538563E-02  1.04799455544811529E-02  1.08749809733109781E-02
  1.12847639817785558E-02  1.17098359150762041E-02  1.21507573813744649E-02
  1.26081089088852412E-02  1.30824916123174085E-02  1.35745278786678827E-02
  1.40848620726436603E-02  1.46141612624956993E-02  1.51631159667979763E-02
  1.57324409219655702E-02  1.63228758707315534E-02  1.69351863724962783E-02
  1.75701646359801358E-02  1.82286303737913512E-02  1.89114316790033148E-02
  1.96194459248534361E-02  2.03535806877535586E-02  2.11147746930124801E-02
  2.19039987831777111E-02  2.27222569103965356E-02  2.35705871525317377E-02
  2.44500627522055251E-02  2.53617931784222705E-02  2.63069252125596523E-02
  2.72866440577100265E-02  2.83021744703118375E-02  2.93547819134166790E-02
  3.04457737338396442E-02  3.15765003610476921E-02  3.27483565264785545E-02
  3.39627825023600255E-02  3.52212653626672728E-02  3.65253402625654450E-02
  3.78765917347004405E-02  3.92766550013610022E-02  4.07272173051262468E-02
  4.22300192526101972E-02  4.37868561691029598E-02  4.53995794635890723E-02
  4.70700980058285021E-02  4.88003795083961703E-02  5.05924519105301618E-02
  5.24484047644712681E-02  5.43703906236115767E-02  5.63606264239044571E-02
  5.84213948540135697E-02  6.05550457168933451E-02  6.27639972778304134E-02
  6.50507375894336104E-02  6.74178257874685216E-02  6.98678933626479398E-02
  7.24036453970677285E-02  7.50278617552244398E-02  7.77433982225079617E-02
  8.05531875976975148E-02  8.34602407205484315E-02  8.64676474235815118E-02
  8.95785774021954362E-02  9.27962810071320532E-02  9.61240899337104104E-02
  9.95654177947380842E-02  1.03123760575874357E-01  1.06802696968711336E-01
  1.10605888551894613E-01  1.14537079803564854E-01  1.18600097951521086E-01
  1.22798852640522135E-01  1.27137335385985845E-01  1.31619618794114240E-01
  1.36249855562104977E-01  1.41032277216857571E-01  1.45971192561919205E-01
  1.51070985814535569E-01  1.56336114444979246E-01  1.61771106657428387E-01
  1.67380558480430042E-01  1.73169130460645193E-01  1.79141543952958809E-01
  1.85302576936779873E-01  1.91657059321083789E-01  1.98209867752286717E-01
  2.04965919880616521E-01  2.11930168016055187E-01  2.19107592132786660E-01
  2.26503192254458141E-01  2.34121980128776469E-01  2.41968970129157107E-01
  2.50049169353913692E-01  2.58367566947826810E-01  2.66929122520115192E-01
  2.75738753598385955E-01  2.84801322124631828E-01  2.94121619968778336E-01
  3.03704353329050381E-01  3.13554125955862961E-01  3.23675421253259710E-01
  3.34072583152683011E-01  3.44749795648899404E-01  3.55711060946938662E-01
  3.66960176298401386E-01  3.78500709346533570E-01  3.90335971896482226E-01
  4.02468992114647262E-01  4.14902485187959358E-01  4.27638822245861860E-01
  4.40679997477807006E-01  4.54027593540212215E-01  4.67682745173451042E-01
  4.81646100878723837E-01  4.95917782616873248E-01  5.10497343695527794E-01
  5.25383724654299167E-01  5.40575207076764541E-01  5.56069365379429414E-01
  5.71863016719560524E-01  5.87952168818272725E-01  6.04331965700975693E-01
  6.20996631548726530E-01  6.37939412689406793E-01  6.55152517635073539E-01
  6.72627055252820516E-01  6.90352971385428948E-01  7.08318983861248364E-01
  7.26512515977433271E-01  7.44919628691134594E-01  7.63524951849179345E-01
  7.82311614468986227E-01  8.01261174341845517E-01  8.20353547374780390E-01
  8.39566936966017141E-01  8.58877763679263384E-01  8.78260595689457357E-01
  8.97688080528822985E-01  9.17130878538320760E-01  9.36557598619601084E-01
  9.55934736971205568E-01  9.75226619381094006E-01  9.94395347849186817E-01
  1.01340075248054484E+00  1.03220034940961525E+00  1.05074930557057633E+00
  1.06900041157670644E+00  1.08690406399333406E+00  1.10440825761502581E+00
  1.12145858927557462E+00  1.13799827488773553E+00  1.15396818109431143E+00
  1.16930687216136997E+00  1.18395067461147496E+00  1.19783376168595446E+00
  1.21088825844158277E+00  1.22304436906319802E+00  1.23423052948407608E+00
  1.24437358764238915E+00  1.25339901109867724E+00  1.26123112553961692E+00
  1.26779338728706570E+00  1.27300869130829541E+00  1.27679971440448026E+00
  1.27908929863313880E+00  1.27980087784220631E+00  1.27885894616621054E+00
  1.27618957047123049E+00  1.27172095141236841E+00  1.26538403497870822E+00
  1.25711317021273694E+00  1.24684681847655643E+00  1.23452831685150621E+00
  1.22010669365275937E+00  1.20353753178847156E+00  1.18478388569545356E+00
  1.16381725163451244E+00  1.14061858241003145E+00  1.11517934603800239E+00
  1.08750262961543354E+00  1.05760428324296041E+00  1.02551408930734289E+00
  9.91276959168613025E-01  9.54954151156143016E-01  9.16624495225986213E-01
  8.76385610150459238E-01  8.34355109702508146E-01  7.90671783571616937E-01
  7.45496727810166515E-01  6.99014413197047602E-01  6.51433675752938424E-01
  6.02988604860594135E-01  5.53939299485515013E-01  5.04572475979935375E-01
  4.55201898570519681E-01  4.06168598739984121E-01  3.57840854893668903E-01
  3.10613902093623329E-01  2.64909333086431276E-01  2.21174158004992683E-01
  1.79879488611961569E-01  1.41518805121815167E-01  1.06605767609635374E-01
  7.56715494279951995E-02  4.92616473759164425E-02  2.79321345034694024E-02
  1.22454411803988306E-02  2.76484877443892996E-03 -3.18556516935970420E-05
 -2.21821055435340095E-06 -6.46816183238482644E-08  1.68724555646970214E-09
  2.64173832832965105E-10  1.36958841320646200E-11  1.93493090807715744E-13
 -2.21671708965285165E-14 -1.94073948180864206E-15 -7.35306299158885749E-17
  4.39767284412036560E-19  2.05644093120329395E-19  1.28430713444237032E-20
  0.00000000000000000E+00  0.00000000000000000E+00  0.00000000000000000E+00
  0.00000000000000000E+00  0.00000000000000000E+00  0.00000000000000000E+00
  0.00000000000000000E+00  0.00000000000000000E+00  0.00000000000000000E+00
  0.00000000000000000E+00  0.00000000000000000E+00  0.00000000000000000E+00
  0.00000000000000000E+00  0.00000000000000000E+00  0.00000000000000000E+00
  0.00000000000000000E+00  0.00000000000000000E+00  0.00000000000000000E+00
  0.00000000000000000E+00  0.00000000000000000E+00  0.00000000000000000E+00
  0.00000000000000000E+00  0.00000000000000000E+00  0.00000000000000000E+00
  0.00000000000000000E+00  0.00000000000000000E+00  0.00000000000000000E+00
  0.00000000000000000E+00  0.00000000000000000E+00  0.00000000000000000E+00
  0.00000000000000000E+00  0.00000000000000000E+00  0.00000000000000000E+00
  0.00000000000000000E+00  0.00000000000000000E+00  0.00000000000000000E+00
  0.00000000000000000E+00  0.00000000000000000E+00  0.00000000000000000E+00
  0.00000000000000000E+00  0.00000000000000000E+00  0.00000000000000000E+00
  0.00000000000000000E+00  0.00000000000000000E+00  0.00000000000000000E+00
  0.00000000000000000E+00  0.00000000000000000E+00  0.00000000000000000E+00
  0.00000000000000000E+00  0.00000000000000000E+00  0.00000000000000000E+00
  0.00000000000000000E+00  0.00000000000000000E+00  0.00000000000000000E+00
  0.00000000000000000E+00  0.00000000000000000E+00  0.00000000000000000E+00
  0.00000000000000000E+00  0.00000000000000000E+00  0.00000000000000000E+00
  0.00000000000000000E+00  0.00000000000000000E+00  0.00000000000000000E+00
  0.00000000000000000E+00  0.00000000000000000E+00  0.00000000000000000E+00
  0.00000000000000000E+00  0.00000000000000000E+00  0.00000000000000000E+00
  0.00000000000000000E+00  0.00000000000000000E+00  0.00000000000000000E+00
  0.00000000000000000E+00  0.00000000000000000E+00  0.00000000000000000E+00
  0.00000000000000000E+00  0.00000000000000000E+00  0.00000000000000000E+00
  0.00000000000000000E+00  0.00000000000000000E+00  0.00000000000000000E+00
  0.00000000000000000E+00  0.00000000000000000E+00  0.00000000000000000E+00
  0.00000000000000000E+00  0.00000000000000000E+00  0.00000000000000000E+00
  0.00000000000000000E+00  0.00000000000000000E+00  0.00000000000000000E+00
  0.00000000000000000E+00  0.00000000000000000E+00  0.00000000000000000E+00
  0.00000000000000000E+00  0.00000000000000000E+00  0.00000000000000000E+00
  0.00000000000000000E+00  0.00000000000000000E+00  0.00000000000000000E+00
  0.00000000000000000E+00  0.00000000000000000E+00  0.00000000000000000E+00
  0.00000000000000000E+00  0.00000000000000000E+00  0.00000000000000000E+00
  0.00000000000000000E+00  0.00000000000000000E+00  0.00000000000000000E+00
  0.00000000000000000E+00  0.00000000000000000E+00  0.00000000000000000E+00
  0.00000000000000000E+00  0.00000000000000000E+00  0.00000000000000000E+00
  0.00000000000000000E+00  0.00000000000000000E+00  0.00000000000000000E+00
  0.00000000000000000E+00  0.00000000000000000E+00  0.00000000000000000E+00
  0.00000000000000000E+00  0.00000000000000000E+00  0.00000000000000000E+00
  0.00000000000000000E+00  0.00000000000000000E+00  0.00000000000000000E+00
  0.00000000000000000E+00  0.00000000000000000E+00  0.00000000000000000E+00
  0.00000000000000000E+00  0.00000000000000000E+00  0.00000000000000000E+00
  0.00000000000000000E+00  0.00000000000000000E+00  0.00000000000000000E+00
  0.00000000000000000E+00  0.00000000000000000E+00  0.00000000000000000E+00
  0.00000000000000000E+00  0.00000000000000000E+00  0.00000000000000000E+00
  0.00000000000000000E+00  0.00000000000000000E+00  0.00000000000000000E+00
  0.00000000000000000E+00  0.00000000000000000E+00  0.00000000000000000E+00
  0.00000000000000000E+00  0.00000000000000000E+00  0.00000000000000000E+00
  0.00000000000000000E+00  0.00000000000000000E+00  0.00000000000000000E+00
  0.00000000000000000E+00  0.00000000000000000E+00  0.00000000000000000E+00
  0.00000000000000000E+00  0.00000000000000000E+00  0.00000000000000000E+00
  0.00000000000000000E+00  0.00000000000000000E+00  0.00000000000000000E+00
  0.00000000000000000E+00  0.00000000000000000E+00  0.00000000000000000E+00
  0.00000000000000000E+00  0.00000000000000000E+00  0.00000000000000000E+00
  0.00000000000000000E+00  0.00000000000000000E+00  0.00000000000000000E+00
  0.00000000000000000E+00  0.00000000000000000E+00  0.00000000000000000E+00
  0.00000000000000000E+00  0.00000000000000000E+00  0.00000000000000000E+00
                       </PP_QIJL.1.4.1>
 <PP_QIJL.2.2.0 type="real" size="   888" columns="3" first_index=" 2" second_index=" 2" composite_index=" 3" angular_momentum="0">
  5.66666859213899473E-09  5.81012097771028591E-09  5.95720487705494863E-09
  6.10801222234816832E-09  6.26263727303767463E-09  6.42117667475830002E-09
  6.58372951973906495E-09  6.75039740873884902E-09  6.92128451454949992E-09
  7.09649764710773747E-09  7.27614632025439039E-09  7.46034282018359445E-09
  7.64920227562581085E-09  7.84284272980632242E-09  8.04138521422591277E-09
  8.24495382430975183E-09  8.45367579697013008E-09  8.66768159013395843E-09
  8.88710496428297559E-09  9.11208306605760556E-09  9.34275651397858455E-09
  9.57926948633711123E-09  9.82176981131097484E-09  1.00704090593619200E-08
  1.03253426379710509E-08  1.05867298887741423E-08  1.08547341871540835E-08
  1.11295230443560280E-08  1.14112682121867972E-08  1.17001457903646221E-08
  1.19963363365874442E-08  1.23000249793858260E-08  1.26114015338350257E-08
  1.29306606201938572E-08  1.32580017855492152E-08  1.35936296285380606E-08
  1.39377539272281121E-08  1.42905897702351782E-08  1.46523576911596736E-08
  1.50232838064270935E-08  1.54035999566166186E-08  1.57935438513691097E-08
  1.61933592179616018E-08  1.66032959536448827E-08  1.70236102818355544E-08
  1.74545649122639304E-08  1.78964292051742113E-08  1.83494793396833116E-08
  1.88139984863997546E-08  1.92902769844141620E-08  1.97786125227687272E-08
  2.02793103265215781E-08  2.07926833475211288E-08  2.13190524600091020E-08
  2.18587466611770003E-08  2.24121032767969128E-08  2.29794681720611217E-08
  2.35611959677556871E-08  2.41576502619095005E-08  2.47692038570522222E-08
  2.53962389932258288E-08  2.60391475868957252E-08  2.66983314759077393E-08
  2.73742026706489461E-08  2.80671836115639566E-08  2.87777074331915856E-08
  2.95062182348859384E-08  3.02531713583887170E-08  3.10190336724308648E-08
  3.18042838645371071E-08  3.26094127402170733E-08  3.34349235297325655E-08
  3.42813322026279969E-08  3.51491677902242900E-08  3.60389727162776957E-08
  3.69513031360064377E-08  3.78867292837018703E-08  3.88458358291392699E-08
  3.98292222430095407E-08  4.08375031716028617E-08  4.18713088209774234E-08
  4.29312853508526775E-08  4.40180952784734482E-08  4.51324178926990087E-08
  4.62749496785742499E-08  4.74464047526471824E-08  4.86475153093080840E-08
  4.98790320784272138E-08  5.11417247945769714E-08  5.24363826781320132E-08
  5.37638149285483651E-08  5.51248512301303296E-08  5.65203422705999438E-08
  5.79511602727932657E-08  5.94181995398172905E-08  6.09223770140063372E-08
  6.24646328500289283E-08  6.40459310025019015E-08  6.56672598284791817E-08
  6.73296327051933196E-08  6.90340886634335626E-08  7.07816930369585120E-08
  7.25735381283473855E-08  7.44107438917069980E-08  7.62944586326614965E-08
  7.82258597260602773E-08  8.02061543518560303E-08  8.22365802496097261E-08
  8.43184064920954024E-08  8.64529342784887353E-08  8.86414977476330972E-08
  9.08854648118938899E-08  9.31862380121205927E-08  9.55452553942513114E-08
  9.79639914081084514E-08  1.00443957828944677E-07  1.02986704702318618E-07
  1.05593821312888225E-07  1.08266937177727969E-07  1.11007723064791414E-07
  1.13817892037153392E-07  1.16699200523687770E-07  1.19653449416846546E-07
  1.22682485198228472E-07  1.25788201092640790E-07  1.28972538251371736E-07
  1.32237486965418809E-07  1.35585087909426748E-07  1.39017433417113900E-07
  1.42536668788985185E-07  1.46144993633145340E-07  1.49844663240055197E-07
  1.53637989992086177E-07  1.57527344808755828E-07  1.61515158628546296E-07
  1.65603923928234042E-07  1.69796196280675157E-07  1.74094595952027086E-07
  1.78501809539397769E-07  1.83020591649949907E-07  1.87653766622509202E-07
  1.92404230292748477E-07  1.97274951803056670E-07  2.02268975458219134E-07
  2.07389422628070061E-07  2.12639493698307796E-07  2.18022470070686781E-07
  2.23541716213842791E-07  2.29200681766027504E-07  2.35002903691069137E-07
  2.40952008488907340E-07  2.47051714462076751E-07  2.53305834039564868E-07
  2.59718276159488143E-07  2.66293048712079929E-07  2.73034261044518360E-07
  2.79946126529149573E-07  2.87032965196722190E-07  2.94299206436269521E-07
  3.01749391763333307E-07  3.09388177658257465E-07  3.17220338476316259E-07
  3.25250769431504167E-07  3.33484489655852288E-07  3.41926645336178745E-07
  3.50582512930232136E-07  3.59457502464231450E-07  3.68557160913885162E-07
  3.77887175670975217E-07  3.87453378097679221E-07  3.97261747170866539E-07
  4.07318413218623953E-07  4.17629661751351314E-07  4.28201937389829730E-07
  4.39041847892710756E-07  4.50156168285928172E-07  4.61551845096634465E-07
  4.73236000694301965E-07  4.85215937741670974E-07  4.97499143758378842E-07
  5.10093295800072618E-07  5.23006265255939131E-07  5.36246122767680322E-07
  5.49821143272951232E-07  5.63739811176461097E-07  5.78010825651946013E-07
  5.92643106078299443E-07  6.07645797613326835E-07  6.23028276908501897E-07
  6.38800157968409767E-07  6.54971298158427075E-07  6.71551804364474394E-07
  6.88552039308633229E-07  7.05982628024601943E-07  7.23854464497023323E-07
  7.42178718468824320E-07  7.60966842420830741E-07  7.80230578727995197E-07
  7.99981966996742611E-07  8.20233351587958033E-07  8.40997389330386609E-07
  8.62287057429175123E-07  8.84115661574577482E-07  9.06496844255824819E-07
  9.29444593285371251E-07  9.52973250538866453E-07  9.77097520916218424E-07
  1.00183248152948884E-06  1.02719359112317429E-06  1.05319669973294282E-06
  1.07985805858867851E-06  1.10719433026814537E-06  1.13522259910754574E-06
  1.16396038187545170E-06  1.19342563871686783E-06  1.22363678437410147E-06
  1.25461269969159354E-06  1.28637274341179967E-06  1.31893676426947013E-06
  1.35232511339198556E-06  1.38655865701332663E-06  1.42165878950971096E-06
  1.45764744676506491E-06  1.49454711987450072E-06  1.53238086919454260E-06
  1.57117233874877979E-06  1.61094577099782611E-06  1.65172602198301461E-06
  1.69353857685312368E-06  1.73640956578378784E-06  1.78036578029965156E-06
  1.82543469000936456E-06  1.87164445976380648E-06  1.91902396724831531E-06
  1.96760282101990144E-06  2.01741137900061901E-06  2.06848076743858559E-06
  2.12084290034863565E-06  2.17453049944459858E-06  2.22957711457559446E-06
  2.28601714467914397E-06  2.34388585926417197E-06  2.40321942043724673E-06
  2.46405490548574041E-06  2.52643033003201126E-06  2.59038467177309141E-06
  2.65595789482060383E-06  2.72319097465601866E-06  2.79212592371683809E-06
  2.86280581762969887E-06  2.93527482210663766E-06  3.00957822052130657E-06
  3.08576244218224516E-06  3.16387509132085128E-06  3.24396497681212184E-06
  3.32608214264661143E-06  3.41027789917257552E-06  3.49660485512769661E-06
  3.58511695048037871E-06  3.67586949010099756E-06  3.76891917828406471E-06
  3.86432415414279340E-06  3.96214402789797550E-06  4.06243991808383384E-06
  4.16527448969391211E-06  4.27071199329069178E-06  4.37881830510332629E-06
  4.48966096813831228E-06  4.60330923432867067E-06  4.71983410774782110E-06
  4.83930838891491917E-06  4.96180672021928529E-06  5.08740563249197948E-06
  5.21618359275351025E-06  5.34822105316733043E-06  5.48360050122940058E-06
  5.62240651122503988E-06  5.76472579698488081E-06  5.91064726597274834E-06
  6.06026207473890716E-06  6.21366368577304778E-06  6.37094792579233448E-06
  6.53221304550046232E-06  6.69755978085491316E-06  6.86709141588022029E-06
  7.04091384706615470E-06  7.21913564939076180E-06  7.40186814400896741E-06
  7.58922546764876737E-06  7.78132464375785400E-06  7.97828565544456405E-06
  8.18023152025850179E-06  8.38728836685669726E-06  8.59958551360297318E-06
  8.81725554914888791E-06  9.04043441504598869E-06  9.26926149044051916E-06
  9.50387967890259232E-06  9.74443549744365272E-06  9.99107916777690229E-06
  1.02439647098770140E-05  1.05032500378968213E-05  1.07690970584999545E-05
  1.10416717716700614E-05  1.13211443740586377E-05  1.16076893649349150E-05
  1.19014856548032127E-05  1.22027166767542320E-05  1.25115705006189083E-05
  1.28282399499948963E-05  1.31529227222173664E-05  1.34858215113480419E-05
  1.38271441342575060E-05  1.41771036598783867E-05  1.45359185417085391E-05
  1.49038127536451532E-05  1.52810159292333029E-05  1.56677635044136916E-05
  1.60642968638572277E-05  1.64708634909757028E-05  1.68877171217000141E-05
  1.73151179021201512E-05  1.77533325500826700E-05  1.82026345208445375E-05
  1.86633041768840496E-05  1.91356289619721538E-05  1.96199035796102258E-05
  2.01164301759427207E-05  2.06255185272556109E-05  2.11474862321749144E-05
  2.16826589086811877E-05  2.22313703960601038E-05  2.27939629619109725E-05
  2.33707875143385084E-05  2.39622038194564452E-05  2.45685807243338780E-05
  2.51902963855192540E-05  2.58277385032798695E-05  2.64813045616976112E-05
  2.71514020747660442E-05  2.78384488386360883E-05  2.85428731901623392E-05
  2.92651142719050202E-05  3.00056223037461467E-05  3.07648588612831781E-05
  3.15432971611656553E-05  3.23414223535462009E-05  3.31597318218197700E-05
  3.39987354898302555E-05  3.48589561367274340E-05  3.57409297196604504E-05
  3.66452057045003210E-05  3.75723474047873161E-05  3.85229323291033329E-05
  3.94975525370755938E-05  4.04968150042200089E-05  4.15213419958418068E-05
  4.25717714502121656E-05  4.36487573712457557E-05  4.47529702309099037E-05
  4.58850973816005102E-05  4.70458434787265220E-05  4.82359309137489066E-05
  4.94561002579250043E-05  5.07071107170210624E-05  5.19897405972523339E-05
  5.33047877827220955E-05  5.46530702246352364E-05  5.60354264425679726E-05
  5.74527160380831672E-05  5.89058202209826788E-05  6.03956423485062206E-05
  6.19231084777790427E-05  6.34891679318229358E-05  6.50947938794549152E-05
  6.67409839294001830E-05  6.84287607389544723E-05  7.01591726375429367E-05
  7.19332942655289944E-05  7.37522272286254366E-05  7.56171007682747512E-05
  7.75290724483741728E-05  7.94893288587228571E-05  8.14990863355835664E-05
  8.35595916997681657E-05  8.56721230126374458E-05  8.78379903504355357E-05
  9.00585365973815297E-05  9.23351382579419902E-05  9.46692062887379476E-05
  9.70621869505405247E-05  9.95155626807975297E-05  1.02030852987164392E-04
  1.04609615362512656E-04  1.07253446221893079E-04  1.09963981861978811E-04
  1.12742899443476620E-04  1.15591917997012037E-04  1.18512799453015770E-04
  1.21507349696135453E-04  1.24577419644726124E-04  1.27724906356001982E-04
  1.30951754157367442E-04  1.34259955804512539E-04  1.37651553666848345E-04
  1.41128640940863827E-04  1.44693362892075133E-04  1.48347918126114558E-04
  1.52094559889588845E-04  1.55935597401337007E-04  1.59873397214702799E-04
  1.63910384611574896E-04  1.68049045028775010E-04  1.72291925517465029E-04
  1.76641636236251297E-04  1.81100851978644519E-04  1.85672313735705581E-04
  1.90358830294481941E-04  1.95163279872944686E-04  2.00088611792146524E-04
  2.05137848186307334E-04  2.10314085751741610E-04  2.15620497535213196E-04
  2.21060334762492820E-04  2.26636928707840072E-04  2.32353692605221442E-04
  2.38214123602197291E-04  2.44221804757043480E-04  2.50380407079941992E-04
  2.56693691618934924E-04  2.63165511591645015E-04  2.69799814563557322E-04
  2.76600644673470370E-04  2.83572144906961486E-04  2.90718559418557787E-04
  2.98044235903836851E-04  3.05553628021919266E-04  3.13251297869133560E-04
  3.21141918504550406E-04  3.29230276528362509E-04  3.37521274714117363E-04
  3.46019934695132147E-04  3.54731399705931604E-04  3.63660937379282293E-04
  3.72813942600244816E-04  3.82195940417464491E-04  3.91812589012323516E-04
  4.01669682726471283E-04  4.11773155148833332E-04  4.22129082262950503E-04
  4.32743685654600127E-04  4.43623335780345997E-04  4.54774555297459673E-04
  4.66204022456796795E-04  4.77918574558027702E-04  4.89925211467735246E-04
  5.02231099200372753E-04  5.14843573563734448E-04  5.27770143868537414E-04
  5.41018496701878727E-04  5.54596499764446055E-04  5.68512205772510868E-04
  5.82773856425098345E-04  5.97389886434951628E-04  6.12368927623112725E-04
  6.27719813077168309E-04  6.43451581374496250E-04  6.59573480867911457E-04
  6.76094974033306074E-04  6.93025741878221181E-04  7.10375688413382791E-04
  7.28154945183663712E-04  7.46373875857326489E-04  7.65043080871543918E-04
  7.84173402136320542E-04  8.03775927792828304E-04  8.23861997023665510E-04
  8.44443204912154904E-04  8.65531407352435208E-04  8.87138726006175523E-04
  9.09277553301562013E-04  9.31960557470729750E-04  9.55200687626641298E-04
  9.79011178875178458E-04  1.00340555745572347E-03  1.02839764590530592E-03
  1.05400156824628504E-03  1.08023175519316112E-03  1.10710294936899249E-03
  1.13463021052504637E-03  1.16282892076249845E-03  1.19171478975130815E-03
  1.22130385993341460E-03  1.25161251170209068E-03  1.28265746855503416E-03
  1.31445580221529524E-03  1.34702493770341952E-03  1.38038265835026502E-03
  1.41454711074693283E-03  1.44953680962410297E-03  1.48537064263979854E-03
  1.52206787506204626E-03  1.55964815434199195E-03  1.59813151456672867E-03
  1.63753838076597519E-03  1.67788957305532315E-03  1.71920631061120411E-03
  1.76151021546204077E-03  1.80482331606437226E-03  1.84916805064206128E-03
  1.89456727028400958E-03  1.94104424177760754E-03  1.98862265014107965E-03
  2.03732660082725199E-03  2.08718062159534649E-03  2.13820966401745980E-03
  2.19043910457730447E-03  2.24389474532719424E-03  2.29860281410190423E-03
  2.35458996424139878E-03  2.41188327377464323E-03  2.47051024402353573E-03
  2.53049879762751954E-03  2.59187727592195480E-03  2.65467443561723119E-03
  2.71891944473141552E-03  2.78464187777682348E-03  2.85187171011127422E-03
  2.92063931139504912E-03  2.99097543810331826E-03  3.06291122508776763E-03
  3.13647817607549473E-03  3.21170815303777838E-03  3.28863336438140787E-03
  3.36728635193820833E-03  3.44769997662146754E-03  3.52990740266969543E-03
  3.61394208044070160E-03  3.69983772769841030E-03  3.78762830924780436E-03
  3.87734801482323300E-03  3.96903123520917032E-03  4.06271253648636532E-03
  4.15842663225305959E-03  4.25620835371117671E-03  4.35609261761277667E-03
  4.45811439189736872E-03  4.56230865887019468E-03  4.66871037580333589E-03
  4.77735443295766986E-03  4.88827560879329884E-03  5.00150852221833715E-03
  5.11708758176947741E-03  5.23504693168998139E-03  5.35542039463075391E-03
  5.47824141081520825E-03  5.60354297359609912E-03  5.73135756129498908E-03
  5.86171706503940855E-03  5.99465271242317823E-03  6.13019498696463789E-03
  6.26837354314628125E-03  6.40921711676941449E-03  6.55275343044217466E-03
  6.69900909420724153E-03  6.84800950098304190E-03  6.99977871658547749E-03
  7.15433936417336769E-03  7.31171250309861024E-03  7.47191750177352010E-03
  7.63497190434944770E-03  7.80089129111646417E-03  7.96968913250726239E-03
  8.14137663633769659E-03  8.31596258809737948E-03  8.49345318427931206E-03
  8.67385185850633872E-03  8.85715910017257149E-03  9.04337226545214729E-03
  9.23248538070360267E-03  9.42448893795425589E-03  9.61936968229902198E-03
  9.81711039114763727E-03  1.00176896453118367E-02  1.02210815916758246E-02
  1.04272556974050225E-02  1.06361764957202502E-02  1.08478033231823191E-02
  1.10620900484201760E-02  1.12789847923982171E-02  1.14984296402826352E-02
  1.17203603449451531E-02  1.19447060222925300E-02  1.21713888386819884E-02
  1.24003236904528715E-02  1.26314178759546793E-02  1.28645707605482291E-02
  1.30996734349190860E-02  1.33366083668593951E-02  1.35752490474126235E-02
  1.38154596322167776E-02  1.40570945782323136E-02  1.42999982766280429E-02
  1.45440046832314811E-02  1.47889369477634033E-02  1.50346070417539130E-02
  1.52808153871592575E-02  1.55273504875671157E-02  1.57739885632281578E-02
  1.60204931901203329E-02  1.62666149464865233E-02  1.65120910693815903E-02
  1.67566451216899226E-02  1.69999866716231997E-02  1.72418109891163580E-02
  1.74817987623790451E-02  1.77196158338433565E-02  1.79549129608994121E-02
  1.81873256063709889E-02  1.84164737616866608E-02  1.86419618023367095E-02
  1.88633783844253215E-02  1.90802963880248519E-02  1.92922729077976002E-02
  1.94988492946712583E-02  1.96995512589027005E-02  1.98938890411169585E-02
  2.00813576481608455E-02  2.02614371651847272E-02  2.04335931541001214E-02
  2.05972771433236765E-02  2.07519272057909536E-02  2.08969686433675278E-02
  2.10318147877009316E-02  2.11558679156891236E-02  2.12685202852102191E-02
  2.13691553103377216E-02  2.14571488858946446E-02  2.15318708507902142E-02
  2.15926866103911923E-02  2.16389589336951869E-02  2.16700499290298498E-02
  2.16853231877369400E-02  2.16841461259215350E-02  2.16658925362382196E-02
  2.16299453376140247E-02  2.15756995282945889E-02  2.15025653686840568E-02
  2.14099718009097065E-02  2.12973700758094832E-02  2.11642376152710934E-02
  2.10100821236117799E-02  2.08344459379272082E-02  2.06369105894533972E-02
  2.04171016107803777E-02  2.01746935891108370E-02  1.99094154248699098E-02
  1.96210557917817982E-02  1.93094688146631457E-02  1.89745799477198870E-02
  1.86163919873492782E-02  1.82349912380592900E-02  1.78305538161673410E-02
  1.74033520397100308E-02  1.69537608445007454E-02  1.64822642320905065E-02
  1.59894617034850237E-02  1.54760745862026015E-02  1.49429522168634359E-02
  1.43910779391913917E-02  1.38215748367174832E-02  1.32357110901183284E-02
  1.26349049172266512E-02  1.20207290030541272E-02  1.13949143032354445E-02
  1.07593531205864637E-02  1.01161013632518268E-02  9.46737984988223896E-03
  8.81557454047782532E-03  8.16323557897261076E-03  7.51307499847235927E-03
  6.86796293681441686E-03  6.23092227254340523E-03  5.60512150697044156E-03
  4.99386571217839883E-03  4.40058545070396833E-03  3.82882356908682787E-03
  3.28221964987431437E-03  2.76449195873864012E-03  2.27941694502249411E-03
  1.83080610582990054E-03  1.42248004333792055E-03  1.05823970146683285E-03
  7.41834953005372018E-04  4.76930301872458646E-04  2.67067738898814269E-04
  1.15627978779307897E-04  2.57828598602829121E-05 -2.93800817737113848E-07
 -2.04582873095991242E-08 -5.96550732626391521E-10  1.55612614358709945E-11
  2.43644326782594650E-12  1.26315480729660761E-13  1.78456334381680423E-15
 -2.04445132655298400E-16 -1.78992052102543915E-17 -6.78164094892944314E-19
  4.05592040674704244E-21  1.89663056661634753E-21  1.18450091667916105E-22
  0.00000000000000000E+00  0.00000000000000000E+00  0.00000000000000000E+00
  0.00000000000000000E+00  0.00000000000000000E+00  0.00000000000000000E+00
  0.00000000000000000E+00  0.00000000000000000E+00  0.00000000000000000E+00
  0.00000000000000000E+00  0.00000000000000000E+00  0.00000000000000000E+00
  0.00000000000000000E+00  0.00000000000000000E+00  0.00000000000000000E+00
  0.00000000000000000E+00  0.00000000000000000E+00  0.00000000000000000E+00
  0.00000000000000000E+00  0.00000000000000000E+00  0.00000000000000000E+00
  0.00000000000000000E+00  0.00000000000000000E+00  0.00000000000000000E+00
  0.00000000000000000E+00  0.00000000000000000E+00  0.00000000000000000E+00
  0.00000000000000000E+00  0.00000000000000000E+00  0.00000000000000000E+00
  0.00000000000000000E+00  0.00000000000000000E+00  0.00000000000000000E+00
  0.00000000000000000E+00  0.00000000000000000E+00  0.00000000000000000E+00
  0.00000000000000000E+00  0.00000000000000000E+00  0.00000000000000000E+00
  0.00000000000000000E+00  0.00000000000000000E+00  0.00000000000000000E+00
  0.00000000000000000E+00  0.00000000000000000E+00  0.00000000000000000E+00
  0.00000000000000000E+00  0.00000000000000000E+00  0.00000000000000000E+00
  0.00000000000000000E+00  0.00000000000000000E+00  0.00000000000000000E+00
  0.00000000000000000E+00  0.00000000000000000E+00  0.00000000000000000E+00
  0.00000000000000000E+00  0.00000000000000000E+00  0.00000000000000000E+00
  0.00000000000000000E+00  0.00000000000000000E+00  0.00000000000000000E+00
  0.00000000000000000E+00  0.00000000000000000E+00  0.00000000000000000E+00
  0.00000000000000000E+00  0.00000000000000000E+00  0.00000000000000000E+00
  0.00000000000000000E+00  0.00000000000000000E+00  0.00000000000000000E+00
  0.00000000000000000E+00  0.00000000000000000E+00  0.00000000000000000E+00
  0.00000000000000000E+00  0.00000000000000000E+00  0.00000000000000000E+00
  0.00000000000000000E+00  0.00000000000000000E+00  0.00000000000000000E+00
  0.00000000000000000E+00  0.00000000000000000E+00  0.00000000000000000E+00
  0.00000000000000000E+00  0.00000000000000000E+00  0.00000000000000000E+00
  0.00000000000000000E+00  0.00000000000000000E+00  0.00000000000000000E+00
  0.00000000000000000E+00  0.00000000000000000E+00  0.00000000000000000E+00
  0.00000000000000000E+00  0.00000000000000000E+00  0.00000000000000000E+00
  0.00000000000000000E+00  0.00000000000000000E+00  0.00000000000000000E+00
  0.00000000000000000E+00  0.00000000000000000E+00  0.00000000000000000E+00
  0.00000000000000000E+00  0.00000000000000000E+00  0.00000000000000000E+00
  0.00000000000000000E+00  0.00000000000000000E+00  0.00000000000000000E+00
  0.00000000000000000E+00  0.00000000000000000E+00  0.00000000000000000E+00
  0.00000000000000000E+00  0.00000000000000000E+00  0.00000000000000000E+00
  0.00000000000000000E+00  0.00000000000000000E+00  0.00000000000000000E+00
  0.00000000000000000E+00  0.00000000000000000E+00  0.00000000000000000E+00
  0.00000000000000000E+00  0.00000000000000000E+00  0.00000000000000000E+00
  0.00000000000000000E+00  0.00000000000000000E+00  0.00000000000000000E+00
  0.00000000000000000E+00  0.00000000000000000E+00  0.00000000000000000E+00
  0.00000000000000000E+00  0.00000000000000000E+00  0.00000000000000000E+00
  0.00000000000000000E+00  0.00000000000000000E+00  0.00000000000000000E+00
  0.00000000000000000E+00  0.00000000000000000E+00  0.00000000000000000E+00
  0.00000000000000000E+00  0.00000000000000000E+00  0.00000000000000000E+00
  0.00000000000000000E+00  0.00000000000000000E+00  0.00000000000000000E+00
  0.00000000000000000E+00  0.00000000000000000E+00  0.00000000000000000E+00
  0.00000000000000000E+00  0.00000000000000000E+00  0.00000000000000000E+00
  0.00000000000000000E+00  0.00000000000000000E+00  0.00000000000000000E+00
  0.00000000000000000E+00  0.00000000000000000E+00  0.00000000000000000E+00
  0.00000000000000000E+00  0.00000000000000000E+00  0.00000000000000000E+00
  0.00000000000000000E+00  0.00000000000000000E+00  0.00000000000000000E+00
  0.00000000000000000E+00  0.00000000000000000E+00  0.00000000000000000E+00
  0.00000000000000000E+00  0.00000000000000000E+00  0.00000000000000000E+00
  0.00000000000000000E+00  0.00000000000000000E+00  0.00000000000000000E+00
  0.00000000000000000E+00  0.00000000000000000E+00  0.00000000000000000E+00
  0.00000000000000000E+00  0.00000000000000000E+00  0.00000000000000000E+00
  0.00000000000000000E+00  0.00000000000000000E+00  0.00000000000000000E+00
                       </PP_QIJL.2.2.0>
 <PP_QIJL.2.3.1 type="real" size="   888" columns="3" first_index=" 2" second_index=" 3" composite_index=" 5" angular_momentum="1">
 -5.09585128035934163E-13 -5.29057392294889620E-13 -5.49273730583622081E-13
 -5.70262575451939506E-13 -5.92053445913917968E-13 -6.14676988963618687E-13
 -6.38165022677691997E-13 -6.62550580964728380E-13 -6.87867960024358399E-13
 -7.14152766582203997E-13 -7.41441967967545549E-13 -7.69773944104492750E-13
 -7.99188541490374421E-13 -8.29727129236130651E-13 -8.61432657248381064E-13
 -8.94349716635034237E-13 -9.28524602418408929E-13 -9.64005378645463118E-13
 -1.00084194598572532E-12 -1.03908611191192845E-12 -1.07879166356321349E-12
 -1.12001444339164110E-12 -1.16281242769993747E-12 -1.20724580818028123E-12
 -1.25337707656823325E-12 -1.30127111253253167E-12 -1.35099527492212173E-12
 -1.40261949650090812E-12 -1.45621638230199114E-12 -1.51186131174010630E-12
 -1.56963254462669361E-12 -1.62961133123478250E-12 -1.69188202657122333E-12
 -1.75653220901383080E-12 -1.82365280348342337E-12 -1.89333820932122878E-12
 -1.96568643305362697E-12 -2.04079922622963256E-12 -2.11878222852543454E-12
 -2.19974511631762735E-12 -2.28380175693294991E-12 -2.37107036879325444E-12
 -2.46167368767866380E-12 -2.55573913934536935E-12 -2.65339901873799379E-12
 -2.75479067605152327E-12 -2.86005670990148678E-12 -2.96934516787705900E-12
 -3.08280975475624705E-12 -3.20061004867863235E-12 -3.32291172557749749E-12
 -3.44988679218850668E-12 -3.58171382796208640E-12 -3.71857823621905335E-12
 -3.86067250490481084E-12 -4.00819647730528876E-12 -4.16135763311015956E-12
 -4.32037138021308335E-12 -4.48546135766491822E-12 -4.65685975020132626E-12
 -4.83480761478989555E-12 -5.01955521965583016E-12 -5.21136239626053404E-12
 -5.41049890473269468E-12 -5.61724481326050407E-12 -5.83189089198273469E-12
 -6.05473902193131982E-12 -6.28610261959844834E-12 -6.52630707772990182E-12
 -6.77569022295992776E-12 -7.03460279093319650E-12 -7.30340891958395342E-12
 -7.58248666126178820E-12 -7.87222851442792478E-12 -8.17304197566956232E-12
 -8.48535011280526524E-12 -8.80959215989151327E-12 -9.14622413496593113E-12
 -9.49571948139377449E-12 -9.85856973372251728E-12 -1.02352852089806617E-11
 -1.06263957243910650E-11 -1.10324513425091294E-11 -1.14540231448357231E-11
 -1.18917040349904122E-11 -1.23461095725741236E-11 -1.28178788388966715E-11
 -1.33076753357853804E-11 -1.38161879187380646E-11 -1.43441317657329021E-11
 -1.48922493830591142E-11 -1.54613116495824905E-11 -1.60521189009134795E-11
 -1.66655020550026999E-11 -1.73023237807481224E-11 -1.79634797112568367E-11
 -1.86498997034675332E-11 -1.93625491459050016E-11 -2.01024303164057843E-11
 -2.08705837917255434E-11 -2.16680899110096095E-11 -2.24960702951853949E-11
 -2.33556894244129016E-11 -2.42481562758123267E-11 -2.51747260237720009E-11
 -2.61367018052273636E-11 -2.71354365523951178E-11 -2.81723348955383673E-11
 -2.92488551384395910E-11 -3.03665113093598136E-11 -3.15268752903674906E-11
 -3.27315790280330605E-11 -3.39823168285972121E-11 -3.52808477408411717E-11
 -3.66289980300104458E-11 -3.80286637462701354E-11 -3.94818133913056295E-11
 -4.09904906868176888E-11 -4.25568174488057993E-11 -4.41829965716825323E-11
 -4.58713151264143767E-11 -4.76241475770480218E-11 -4.94439591201439486E-11
 -5.13333091518148062E-11 -5.32948548672446806E-11 -5.53313549977495111E-11
 -5.74456736906372328E-11 -5.96407845373218181E-11 -6.19197747553570918E-11
 -6.42858495302721254E-11 -6.67423365233123102E-11 -6.92926905514287134E-11
 -7.19404984460947456E-11 -7.46894840977845765E-11 -7.75435136932071479E-11
 -8.05066011526620475E-11 -8.35829137751610384E-11 -8.67767780992590734E-11
 -9.00926859878322592E-11 -9.35353009453626422E-11 -9.71094646766145111E-11
 -1.00820203895922451E-10 -1.04672737396672080E-10 -1.08672483390911524E-10
 -1.12825067129416907E-10 -1.17136328812929553E-10 -1.21612331805686003E-10
 -1.26259371162796761E-10 -1.31083982483463351E-10 -1.36092951102485529E-10
 -1.41293321632984954E-10 -1.46692407873760380E-10 -1.52297803095213954E-10
 -1.58117390718305677E-10 -1.64159355401563670E-10 -1.70432194551739278E-10
 -1.76944730274286023E-10 -1.83706121780475160E-10 -1.90725878268590155E-10
 -1.98013872297329020E-10 -2.05580353670211297E-10 -2.13435963850504797E-10
 -2.21591750926949861E-10 -2.30059185151347860E-10 -2.38850175069842076E-10
 -2.47977084270569592E-10 -2.57452748771238268E-10 -2.67290495071121451E-10
 -2.77504158892800651E-10 -2.88108104640011242E-10 -2.99117245599018637E-10
 -3.10547064911875469E-10 -3.22413637351033455E-10 -3.34733651926004512E-10
 -3.47524435353824504E-10 -3.60803976426262615E-10 -3.74590951308155573E-10
 -3.88904749802385916E-10 -4.03765502618357878E-10 -4.19194109682505886E-10
 -4.35212269530460923E-10 -4.51842509822258560E-10 -4.69108219023624519E-10
 -4.87033679297630372E-10 -5.05644100653250676E-10 -5.24965656398652792E-10
 -5.45025519949077342E-10 -5.65851903041267817E-10 -5.87474095407810983E-10
 -6.09922505967649520E-10 -6.33228705590194003E-10 -6.57425471493596664E-10
 -6.82546833339289905E-10 -7.08628121087808021E-10 -7.35706014683100043E-10
 -7.63818595635159424E-10 -7.93005400573628472E-10 -8.23307476847468033E-10
 -8.54767440249153115E-10 -8.87429534944210805E-10 -9.21339695690748886E-10
 -9.56545612436058543E-10 -9.93096797381478321E-10 -1.03104465460955704E-09
 -1.07044255237149193E-09 -1.11134589813662888E-09 -1.15381221650910377E-09
 -1.19790123012191657E-09 -1.24367494362115952E-09 -1.29119773085966282E-09
 -1.34053642542144553E-09 -1.39176041460523038E-09 -1.44494173699859714E-09
 -1.50015518377992087E-09 -1.55747840389117298E-09 -1.61699201322830899E-09
 -1.67877970800397639E-09 -1.74292838244108642E-09 -1.80952825096273413E-09
 -1.87867297505105917E-09 -1.95045979495214173E-09 -2.02498966641300286E-09
 -2.10236740264294261E-09 -2.18270182169779416E-09 -2.26610589949554399E-09
 -2.35269692867785780E-09 -2.44259668354013896E-09 -2.53593159126332255E-09
 -2.63283290968728461E-09 -2.73343691187530873E-09 -2.83788507773012170E-09
 -2.94632429293035318E-09 -3.05890705546646901E-09 -3.17579169006715728E-09
 -3.29714257081781168E-09 -3.42313035228318481E-09 -3.55393220945902313E-09
 -3.68973208689107790E-09 -3.83072095731069264E-09 -3.97709709015025768E-09
 -4.12906633031624033E-09 -4.28684238761211833E-09 -4.45064713721720292E-09
 -4.62071093164356452E-09 -4.79727292460960924E-09 -4.98058140728609450E-09
 -5.17089415738633968E-09 -5.36847880159110681E-09 -5.57361319181739945E-09
 -5.78658579586066939E-09 -6.00769610295869750E-09 -6.23725504484699990E-09
 -6.47558543289721507E-09 -6.72302241195267357E-09 -6.97991393149942582E-09
 -7.24662123483408718E-09 -7.52351936691573092E-09 -7.81099770161526919E-09
 -8.10946048910296041E-09 -8.41932742414319942E-09 -8.74103423609500670E-09
 -9.07503330144674143E-09 -9.42179427974516471E-09 -9.78180477381248767E-09
 -1.01555710151784439E-08 -1.05436185756898740E-08 -1.09464931062979754E-08
 -1.13647611040601411E-08 -1.17990107084335964E-08 -1.22498525279791607E-08
 -1.27179204986357157E-08 -1.32038727747710967E-08 -1.37083926542598723E-08
 -1.42321895388872666E-08 -1.47759999314277226E-08 -1.53405884707977659E-08
 -1.59267490067363442E-08 -1.65353057155212587E-08 -1.71671142582879610E-08
 -1.78230629835766470E-08 -1.85040741757952116E-08 -1.92111053513509038E-08
 -1.99451506042690453E-08 -2.07072420031878407E-08 -2.14984510416893667E-08
 -2.23198901440016679E-08 -2.31727142281854051E-08 -2.40581223289973296E-08
 -2.49773592827082621E-08 -2.59317174762388575E-08 -2.69225386630662723E-08
 -2.79512158484502838E-08 -2.90191952466213413E-08 -3.01279783126771929E-08
 -3.12791238520366566E-08 -3.24742502104085730E-08 -3.37150375473477503E-08
 -3.50032301965841971E-08 -3.63406391164362013E-08 -3.77291444337416298E-08
 -3.91706980848733665E-08 -4.06673265575414918E-08 -4.22211337372238051E-08
 -4.38343038622145980E-08 -4.55091045914322594E-08 -4.72478901892835198E-08
 -4.90531048320477724E-08 -5.09272860404115864E-08 -5.28730682429629983E-08
 -5.48931864756358009E-08 -5.69904802222844710E-08 -5.91678974017688045E-08
 -6.14284985071290736E-08 -6.37754609026478614E-08 -6.62120832848135125E-08
 -6.87417903134274562E-08 -7.13681374193393189E-08 -7.40948157955339992E-08
 -7.69256575785566662E-08 -7.98646412275230706E-08 -8.29158971082378104E-08
 -8.60837132902328446E-08 -8.93725415648294468E-08 -9.27870036926406851E-08
 -9.63318978892468084E-08 -1.00012205558107559E-07 -1.03833098280122821E-07
 -1.07799945069607008E-07 -1.11918319906812287E-07 -1.16194009557526795E-07
 -1.20633021690661999E-07 -1.25241593305170231E-07 -1.30026199478052805E-07
 -1.34993562445669585E-07 -1.40150661031025715E-07 -1.45504740430185099E-07
 -1.51063322371462472E-07 -1.56834215661567539E-07 -1.62825527133403278E-07
 -1.69045673010782804E-07 -1.75503390705898801E-07 -1.82207751065989991E-07
 -1.89168171086264140E-07 -1.96394427106780539E-07 -2.03896668511674951E-07
 -2.11685431949787210E-07 -2.19771656096485590E-07 -2.28166696977224839E-07
 -2.36882343874170047E-07 -2.45930835837988479E-07 -2.55324878827759929E-07
 -2.65077663502834950E-07 -2.75202883691356132E-07 -2.85714755561089102E-07
 -2.96628037519187948E-07 -3.07958050868479696E-07 -3.19720701248991696E-07
 -3.31932500894444079E-07 -3.44610591734537165E-07 -3.57772769375073435E-07
 -3.71437507989129876E-07 -3.85623986153765055E-07 -4.00352113668008190E-07
 -4.15642559389205816E-07 -4.31516780126391247E-07 -4.47997050630493667E-07
 -4.65106494722855801E-07 -4.82869117605072753E-07 -5.01309839394760425E-07
 -5.20454529933528401E-07 -5.40330044915086826E-07 -5.60964263383605202E-07
 -5.82386126653770831E-07 -6.04625678706148049E-07 -6.27714108113508529E-07
 -6.51683791555787031E-07 -6.76568338983369924E-07 -7.02402640491013337E-07
 -7.29222914966911558E-07 -7.57066760583356609E-07 -7.85973207198359846E-07
 -8.15982770740100617E-07 -8.47137509648501783E-07 -8.79481083451357701E-07
 -9.13058813555722415E-07 -9.47917746336916523E-07 -9.84106718611561859E-07
 -1.02167642558404555E-06 -1.06067949135867134E-06 -1.10117054211421711E-06
 -1.14320628204101486E-06 -1.18684557214288508E-06 -1.23214951201140367E-06
 -1.27918152468348366E-06 -1.32800744469675420E-06 -1.37869560946409918E-06
 -1.43131695409013346E-06 -1.48594510975738455E-06 -1.54265650581554487E-06
 -1.60153047571085773E-06 -1.66264936689941823E-06 -1.72609865489434087E-06
 -1.79196706159754215E-06 -1.86034667807604929E-06 -1.93133309194715596E-06
 -2.00502551954261714E-06 -2.08152694303372536E-06 -2.16094425269632878E-06
 -2.24338839450643552E-06 -2.32897452326310333E-06 -2.41782216144079191E-06
 -2.51005536398997937E-06 -2.60580288929937479E-06 -2.70519837654637605E-06
 -2.80838052967059690E-06 -2.91549330821114175E-06 -3.02668612527028073E-06
 -3.14211405285639022E-06 -3.26193803487599953E-06 -3.38632510805407639E-06
 -3.51544863106995069E-06 -3.64948852222354304E-06 -3.78863150592889007E-06
 -3.93307136835774096E-06 -4.08300922256219389E-06 -4.23865378342391916E-06
 -4.40022165280100857E-06 -4.56793761522176222E-06 -4.74203494451107448E-06
 -4.92275572173470230E-06 -5.11035116488919370E-06 -5.30508197076036016E-06
 -5.50721866936884414E-06 -5.71704199145787724E-06 -5.93484324947931137E-06
 -6.16092473260305622E-06 -6.39560011621656283E-06 -6.63919488642807878E-06
 -6.89204678009588086E-06 -7.15450624095449479E-06 -7.42693689243284441E-06
 -7.70971602770514886E-06 -8.00323511758991535E-06 -8.30790033690312014E-06
 -8.62413310999202029E-06 -8.95237067606287946E-06 -9.29306667498345357E-06
 -9.64669175425088677E-06 -1.00137341979124127E-05 -1.03947005782254784E-05
 -1.07901164307608947E-05 -1.12005269537616719E-05 -1.16264977325745791E-05
 -1.20686154901497936E-05 -1.25274888643594877E-05 -1.30037492130537783E-05
 -1.34980514477380598E-05 -1.40110748970151037E-05 -1.45435242007011462E-05
 -1.50961302355771232E-05 -1.56696510737852054E-05 -1.62648729750872298E-05
 -1.68826114141619773E-05 -1.75237121438994348E-05 -1.81890522958621240E-05
 -1.88795415191621295E-05 -1.95961231592588602E-05 -2.03397754776332219E-05
 -2.11115129136640679E-05 -2.19123873899853817E-05 -2.27434896631597905E-05
 -2.36059507206773059E-05 -2.45009432257110434E-05 -2.54296830109737370E-05
 -2.63934306237921514E-05 -2.73934929235603032E-05 -2.84312247330296805E-05
 -2.95080305448806060E-05 -3.06253662859286093E-05 -3.17847411403645737E-05
 -3.29877194334346818E-05 -3.42359225771212319E-05 -3.55310310803849655E-05
 -3.68747866256690957E-05 -3.82689942129387493E-05 -3.97155243729287676E-05
 -4.12163154523566527E-05 -4.27733759731343651E-05 -4.43887870666371750E-05
 -4.60647049847820434E-05 -4.78033636908789430E-05 -4.96070775326222101E-05
 -5.14782439979612373E-05 -5.34193465556267636E-05 -5.54329575835193965E-05
 -5.75217413876085928E-05 -5.96884573116419868E-05 -6.19359629393721295E-05
 -6.42672173928264914E-05 -6.66852847294265759E-05 -6.91933374376654695E-05
 -7.17946600328502852E-05 -7.44926527568896287E-05 -7.72908353848447959E-05
 -8.01928511371937861E-05 -8.32024706989287482E-05 -8.63235963501429666E-05
 -8.95602662103055794E-05 -9.29166585942434208E-05 -9.63970964803119993E-05
 -1.00006052096423588E-04 -1.03748151624901149E-04 -1.07628180023102592E-04
 -1.11651085959341782E-04 -1.15821986871242997E-04 -1.20146174145179896E-04
 -1.24629118412586230E-04 -1.29276474961357245E-04 -1.34094089271464130E-04
 -1.39088002669591240E-04 -1.44264458097392417E-04 -1.49629905990030231E-04
 -1.55191010276455466E-04 -1.60954654490491850E-04 -1.66927947986060808E-04
 -1.73118232251805697E-04 -1.79533087338559782E-04 -1.86180338381039453E-04
 -1.93068062205417048E-04 -2.00204594017794964E-04 -2.07598534186904970E-04
 -2.15258755093566956E-04 -2.23194408035691218E-04 -2.31414930186175905E-04
 -2.39930051612291577E-04 -2.48749802320340902E-04 -2.57884519309536995E-04
 -2.67344853638582381E-04 -2.77141777501467242E-04 -2.87286591268920476E-04
 -2.97790930472459749E-04 -3.08666772744765341E-04 -3.19926444691041206E-04
 -3.31582628642876711E-04 -3.43648369263493969E-04 -3.56137080030435860E-04
 -3.69062549538040803E-04 -3.82438947568408151E-04 -3.96280830894627618E-04
 -4.10603148849551336E-04 -4.25421248563703845E-04 -4.40750879816830345E-04
 -4.56608199473114949E-04 -4.73009775520606972E-04 -4.89972590584448944E-04
 -5.07514044847173101E-04 -5.25651958369820595E-04 -5.44404572789752546E-04
 -5.63790552243876707E-04 -5.83828983432063968E-04 -6.04539374853388530E-04
 -6.25941655110264839E-04 -6.48056170123793135E-04 -6.70903679158509742E-04
 -6.94505349726172059E-04 -7.18882751156575965E-04 -7.44057846681183506E-04
 -7.70052983937127866E-04 -7.96890883953636818E-04 -8.24594628311336227E-04
 -8.53187644311489838E-04 -8.82693688123051528E-04 -9.13136825872272310E-04
 -9.44541412317156676E-04 -9.76932066915892332E-04 -1.01033364736106816E-03
 -1.04477122035368810E-03 -1.08027002926565818E-03 -1.11685545848140880E-03
 -1.15455299458334742E-03 -1.19338818391484091E-03 -1.23338658620326057E-03
 -1.27457372409265626E-03 -1.31697502871267239E-03 -1.36061578064155717E-03
 -1.40552104595528153E-03 -1.45171560739368929E-03 -1.49922389051880805E-03
 -1.54806988419896167E-03 -1.59827705509603185E-03 -1.64986825643126064E-03
 -1.70286563049326222E-03 -1.75729050432665412E-03 -1.81316327834061403E-03
 -1.87050330823676698E-03 -1.92932877933582538E-03 -1.98965657287690934E-03
 -2.05150212430951599E-03 -2.11487927373528190E-03 -2.17980010749423700E-03
 -2.24627479055306738E-03 -2.31431139017426084E-03 -2.38391569046127096E-03
 -2.45509099701431924E-03 -2.52783793150348005E-03 -2.60215421700713510E-03
 -2.67803445314592414E-03 -2.75546988064892268E-03 -2.83444813560787892E-03
 -2.91495299414280210E-03 -2.99696410644097536E-03 -3.08045672018015084E-03
 -3.16540139432247656E-03 -3.25176370342656696E-03 -3.33950393200034687E-03
 -3.42857675933985620E-03 -3.51893093646617715E-03 -3.61050895485179150E-03
 -3.70324670736519364E-03 -3.79707314262956851E-03 -3.89190991448035758E-03
 -3.98767102658670672E-03 -4.08426247361879866E-03 -4.18158188108266101E-03
 -4.27951814532629305E-03 -4.37795107506889700E-03 -4.47675103686252622E-03
 -4.57577860718177271E-03 -4.67488423320635681E-03 -4.77390790533004702E-03
 -4.87267884488116684E-03 -4.97101520997073228E-03 -5.06872382341194607E-03
 -5.16559992750566504E-03 -5.26142696956798713E-03 -5.35597642235439205E-03
 -5.44900764581795691E-03 -5.54026779674940580E-03 -5.62949178941167007E-03
 -5.71640231496051317E-03 -5.80070992830105693E-03 -5.88211320942260384E-03
 -5.96029900242708421E-03 -6.03494274498353467E-03 -6.10570889885696157E-03
 -6.17225148561687410E-03 -6.23421473558690223E-03 -6.29123386579547635E-03
 -6.34293599879569205E-03 -6.38894122095226905E-03 -6.42886379816498890E-03
 -6.46231356492697404E-03 -6.48889749434289516E-03 -6.50822144746103851E-03
 -6.51989212768959263E-03 -6.52351925496552632E-03 -6.51871795381656939E-03
 -6.50511136544299363E-03 -6.48233350759158840E-03 -6.45003239177911226E-03
 -6.40787337588048268E-03 -6.35554277946603040E-03 -6.29275177507257477E-03
 -6.21924054511975230E-03 -6.13478268270402707E-03 -6.03918986548789699E-03
 -5.93231680157894382E-03 -5.81406640185219963E-03 -5.68439517629064622E-03
 -5.54331886073032142E-03 -5.39091824776832124E-03 -5.22734514693756064E-03
 -5.05282848457104007E-03 -4.86768051228391764E-03 -4.67230304941003254E-03
 -4.46719368737308071E-03 -4.25295193796098800E-03 -4.03028525279956230E-03
 -3.80001478556809798E-03 -3.56308083776107551E-03 -3.32054790763413156E-03
 -3.07360921721283728E-03 -2.82359056697054252E-03 -2.57195343398301454E-03
 -2.32029716625009033E-03 -2.07036010094794080E-03 -1.82401946078364287E-03
 -1.58328987442495073E-03 -1.35032032336399326E-03 -1.12738934894233782E-03
 -9.16898345555099809E-04 -7.21362726136293262E-04 -5.43400766269502367E-04
 -3.85720011834111585E-04 -2.51101019503859892E-04 -1.42378256196301774E-04
 -6.24185939460879209E-05 -1.40932425734310400E-05  1.62377570449109999E-07
  1.13068677428086092E-08  3.29701119825282326E-10 -8.60038390819280390E-12
 -1.34657126353086749E-12 -6.98119257426515619E-14 -9.86290856211267465E-16
  1.12992551165795357E-16  9.89251656069849480E-18  3.74807119131532723E-19
 -2.24162242520319396E-21 -1.04822806763678240E-21 -6.54648896236918875E-23
  0.00000000000000000E+00  0.00000000000000000E+00  0.00000000000000000E+00
  0.00000000000000000E+00  0.00000000000000000E+00  0.00000000000000000E+00
  0.00000000000000000E+00  0.00000000000000000E+00  0.00000000000000000E+00
  0.00000000000000000E+00  0.00000000000000000E+00  0.00000000000000000E+00
  0.00000000000000000E+00  0.00000000000000000E+00  0.00000000000000000E+00
  0.00000000000000000E+00  0.00000000000000000E+00  0.00000000000000000E+00
  0.00000000000000000E+00  0.00000000000000000E+00  0.00000000000000000E+00
  0.00000000000000000E+00  0.00000000000000000E+00  0.00000000000000000E+00
  0.00000000000000000E+00  0.00000000000000000E+00  0.00000000000000000E+00
  0.00000000000000000E+00  0.00000000000000000E+00  0.00000000000000000E+00
  0.00000000000000000E+00  0.00000000000000000E+00  0.00000000000000000E+00
  0.00000000000000000E+00  0.00000000000000000E+00  0.00000000000000000E+00
  0.00000000000000000E+00  0.00000000000000000E+00  0.00000000000000000E+00
  0.00000000000000000E+00  0.00000000000000000E+00  0.00000000000000000E+00
  0.00000000000000000E+00  0.00000000000000000E+00  0.00000000000000000E+00
  0.00000000000000000E+00  0.00000000000000000E+00  0.00000000000000000E+00
  0.00000000000000000E+00  0.00000000000000000E+00  0.00000000000000000E+00
  0.00000000000000000E+00  0.00000000000000000E+00  0.00000000000000000E+00
  0.00000000000000000E+00  0.00000000000000000E+00  0.00000000000000000E+00
  0.00000000000000000E+00  0.00000000000000000E+00  0.00000000000000000E+00
  0.00000000000000000E+00  0.00000000000000000E+00  0.00000000000000000E+00
  0.00000000000000000E+00  0.00000000000000000E+00  0.00000000000000000E+00
  0.00000000000000000E+00  0.00000000000000000E+00  0.00000000000000000E+00
  0.00000000000000000E+00  0.00000000000000000E+00  0.00000000000000000E+00
  0.00000000000000000E+00  0.00000000000000000E+00  0.00000000000000000E+00
  0.00000000000000000E+00  0.00000000000000000E+00  0.00000000000000000E+00
  0.00000000000000000E+00  0.00000000000000000E+00  0.00000000000000000E+00
  0.00000000000000000E+00  0.00000000000000000E+00  0.00000000000000000E+00
  0.00000000000000000E+00  0.00000000000000000E+00  0.00000000000000000E+00
  0.00000000000000000E+00  0.00000000000000000E+00  0.00000000000000000E+00
  0.00000000000000000E+00  0.00000000000000000E+00  0.00000000000000000E+00
  0.00000000000000000E+00  0.00000000000000000E+00  0.00000000000000000E+00
  0.00000000000000000E+00  0.00000000000000000E+00  0.00000000000000000E+00
  0.00000000000000000E+00  0.00000000000000000E+00  0.00000000000000000E+00
  0.00000000000000000E+00  0.00000000000000000E+00  0.00000000000000000E+00
  0.00000000000000000E+00  0.00000000000000000E+00  0.00000000000000000E+00
  0.00000000000000000E+00  0.00000000000000000E+00  0.00000000000000000E+00
  0.00000000000000000E+00  0.00000000000000000E+00  0.00000000000000000E+00
  0.00000000000000000E+00  0.00000000000000000E+00  0.00000000000000000E+00
  0.00000000000000000E+00  0.00000000000000000E+00  0.00000000000000000E+00
  0.00000000000000000E+00  0.00000000000000000E+00  0.00000000000000000E+00
  0.00000000000000000E+00  0.00000000000000000E+00  0.00000000000000000E+00
  0.00000000000000000E+00  0.00000000000000000E+00  0.00000000000000000E+00
  0.00000000000000000E+00  0.00000000000000000E+00  0.00000000000000000E+00
  0.00000000000000000E+00  0.00000000000000000E+00  0.00000000000000000E+00
  0.00000000000000000E+00  0.00000000000000000E+00  0.00000000000000000E+00
  0.00000000000000000E+00  0.00000000000000000E+00  0.00000000000000000E+00
  0.00000000000000000E+00  0.00000000000000000E+00  0.00000000000000000E+00
  0.00000000000000000E+00  0.00000000000000000E+00  0.00000000000000000E+00
  0.00000000000000000E+00  0.00000000000000000E+00  0.00000000000000000E+00
  0.00000000000000000E+00  0.00000000000000000E+00  0.00000000000000000E+00
  0.00000000000000000E+00  0.00000000000000000E+00  0.00000000000000000E+00
  0.00000000000000000E+00  0.00000000000000000E+00  0.00000000000000000E+00
  0.00000000000000000E+00  0.00000000000000000E+00  0.00000000000000000E+00
  0.00000000000000000E+00  0.00000000000000000E+00  0.00000000000000000E+00
  0.00000000000000000E+00  0.00000000000000000E+00  0.00000000000000000E+00
  0.00000000000000000E+00  0.00000000000000000E+00  0.00000000000000000E+00
  0.00000000000000000E+00  0.00000000000000000E+00  0.00000000000000000E+00
  0.00000000000000000E+00  0.00000000000000000E+00  0.00000000000000000E+00
                       </PP_QIJL.2.3.1>
 <PP_QIJL.2.4.1 type="real" size="   888" columns="3" first_index=" 2" second_index=" 4" composite_index=" 8" angular_momentum="1">
 -8.74421220335220963E-12 -9.07834599453312223E-12 -9.42524770387610851E-12
 -9.78540521894955881E-12 -1.01593250704760403E-11 -1.05475331447201282E-11
 -1.09505754231063721E-11 -1.13690187500945628E-11 -1.18034516303934150E-11
 -1.22544850566468960E-11 -1.27227533687405979E-11 -1.32089151459428304E-11
 -1.37136541331453402E-11 -1.42376802024868952E-11 -1.47817303517269157E-11
 -1.53465697407738920E-11 -1.59329927678094869E-11 -1.65418241865457473E-11
 -1.71739202661699756E-11 -1.78301699956074312E-11 -1.85114963338154701E-11
 -1.92188575078378454E-11 -1.99532483604709909E-11 -2.07157017494266726E-11
 -2.15072899999487743E-11 -2.23291264129558570E-11 -2.31823668307921090E-11
 -2.40682112628257525E-11 -2.49879055731558907E-11 -2.59427432328081706E-11
 -2.69340671388974701E-11 -2.79632715032833298E-11 -2.90318038134211893E-11
 -3.01411668681132637E-11 -3.12929208910757928E-11 -3.24886857252479592E-11
 -3.37301431109648393E-11 -3.50190390511760037E-11 -3.63571862670439406E-11
 -3.77464667473824610E-11 -3.91888343955008435E-11 -4.06863177772071329E-11
 -4.22410229737962723E-11 -4.38551365440805304E-11 -4.55309285995792071E-11
 -4.72707559972432709E-11 -4.90770656541538790E-11 -5.09523979889078736E-11
 -5.28993904944806696E-11 -5.49207814476365057E-11 -5.70194137600655342E-11
 -5.91982389766898930E-11 -6.14603214267526867E-11 -6.38088425335161415E-11
 -6.62471052886662267E-11 -6.87785388976554604E-11 -7.14067036025995951E-11
 -7.41352956894159628E-11 -7.69681526863408733E-11 -7.99092587610576523E-11
 -8.29627503240730414E-11 -8.61329218462193281E-11 -8.94242318984214583E-11
 -9.28413094223016932E-11 -9.63889602403501710E-11 -1.00072173814888144E-10
 -1.03896130265307208E-10 -1.07866207653416771E-10 -1.11987989547225394E-10
 -1.16267272873714012E-10 -1.20710076071678335E-10 -1.25322647556139061E-10
 -1.30111474506150099E-10 -1.35083291988426710E-10 -1.40245092429620644E-10
 -1.45604135450506507E-10 -1.51167958075980627E-10 -1.56944385335209277E-10
 -1.62941541266796133E-10 -1.69167860344496299E-10 -1.75632099339539335E-10
 -1.82343349636211804E-10 -1.89311050018035577E-10 -1.96544999942558192E-10
 -2.04055373323381816E-10 -2.11852732838807306E-10 -2.19948044787262074E-10
 -2.28352694510382312E-10 -2.37078502405426446E-10 -2.46137740549541683E-10
 -2.55543149959288445E-10 -2.65307958509686421E-10 -2.75445899537967672E-10
 -2.85971231158201693E-10 -2.96898756313979520E-10 -3.08243843597345677E-10
 -3.20022448863256145E-10 -3.32251137669956216E-10 -3.44947108576837237E-10
 -3.58128217332555848E-10 -3.71813001987417388E-10 -3.86020708965348620E-10
 -4.00771320132117483E-10 -4.16085580897874947E-10 -4.31985029393543344E-10
 -4.48492026762073472E-10 -4.65629788607196148E-10 -4.83422417643869184E-10
 -5.01894937596352410E-10 -5.21073328391586474E-10 -5.40984562697353335E-10
 -5.61656643856630061E-10 -5.83118645271466833E-10 -6.05400751291784212E-10
 -6.28534299666601572E-10 -6.52551825617375916E-10 -6.77487107595464286E-10
 -7.03375214788040541E-10 -7.30252556439282317E-10 -7.58156933056200825E-10
 -7.87127589571104337E-10 -8.17205270535494018E-10 -8.48432277422984002E-10
 -8.80852528121852932E-10 -9.14511618700896778E-10 -9.49456887535416139E-10
 -9.85737481883571208E-10 -1.02340442700669629E-09 -1.06251069793079415E-09
 -1.10311129395014444E-09 -1.14526331597776390E-09 -1.18902604685155699E-09
 -1.23446103470904858E-09 -1.28163217954797603E-09 -1.33060582309446242E-09
 -1.38145084210517863E-09 -1.43423874523465387E-09 -1.48904377360404527E-09
 -1.54594300521272147E-09 -1.60501646333953953E-09 -1.66634722908627397E-09
 -1.73002155822140918E-09 -1.79612900248870437E-09 -1.86476253555105728E-09
 -1.93601868374681179E-09 -2.00999766184241516E-09 -2.08680351397227184E-09
 -2.16654425996405962E-09 -2.24933204725527158E-09 -2.33528330861463655E-09
 -2.42451892589022489E-09 -2.51716440001444234E-09 -2.61335002750510685E-09
 -2.71321108371067085E-09 -2.81688801305748268E-09 -2.92452662656655537E-09
 -3.03627830691748694E-09 -3.15230022134802699E-09 -3.27275554268858118E-09
 -3.39781367884274840E-09 -3.52765051103642413E-09 -3.66244864117034853E-09
 -3.80239764862404305E-09 -3.94769435687264520E-09 -4.09854311029117646E-09
 -4.25515606153543069E-09 -4.41775346990362676E-09 -4.58656401109912266E-09
 -4.76182509882883754E-09 -4.94378321868963790E-09 -5.13269427481329386E-09
 -5.32882394975652707E-09 -5.53244807814186571E-09 -5.74385303457603742E-09
 -5.96333613639075950E-09 -6.19120606177119965E-09 -6.42778328386206455E-09
 -6.67340052146077901E-09 -6.92840320693016257E-09 -7.19314997199182919E-09
 -7.46801315208027602E-09 -7.75337930996775979E-09 -8.04964977939846977E-09
 -8.35724122949199559E-09 -8.67658625071456345E-09 -9.00813396323882306E-09
 -9.35235064854764793E-09 -9.70972040517362675E-09 -1.00807458294898237E-08
 -1.04659487225172652E-08 -1.08658708237345610E-08 -1.12810745729288874E-08
 -1.17121439011539604E-08 -1.21596850519107168E-08 -1.26243274337039501E-08
 -1.31067245051730165E-08 -1.36075546940434911E-08 -1.41275223511881721E-08
 -1.46673587411438678E-08 -1.52278230704706619E-08 -1.58097035554062486E-08
 -1.64138185303095824E-08 -1.70410175984585746E-08 -1.76921828268155403E-08
 -1.83682299864415138E-08 -1.90701098403061422E-08 -1.97988094802961257E-08
 -2.05553537153149543E-08 -2.13408065124079724E-08 -2.21562724929593687E-08
 -2.30028984860440502E-08 -2.38818751411352220E-08 -2.47944386024254303E-08
 -2.57418722471144198E-08 -2.67255084901189614E-08 -2.77467306577223808E-08
 -2.88069749328188290E-08 -2.99077323744730008E-08 -3.10505510146346816E-08
 -3.22370380349700116E-08 -3.34688620268480286E-08 -3.47477553376755268E-08
 -3.60755165068788386E-08 -3.74540127949398747E-08 -3.88851828090635826E-08
 -4.03710392291579749E-08 -4.19136716379469918E-08 -4.35152494592178266E-08
 -4.51780250083189825E-08 -4.69043366591891262E-08 -4.86966121323874095E-08
 -5.05573719087381359E-08 -5.24892327733785775E-08 -5.44949114952027123E-08
 -5.65772286468770940E-08 -5.87391125707837229E-08 -6.09836034964636404E-08
 -6.33138578153678955E-08 -6.57331525189077815E-08 -6.82448898060386910E-08
 -7.08526018668581912E-08 -7.35599558489510803E-08 -7.63707590134477485E-08
 -7.92889640880403179E-08 -8.23186748244827790E-08 -8.54641517683952111E-08
 -8.87298182494679213E-08 -9.21202666004812100E-08 -9.56402646138798158E-08
 -9.92947622449871544E-08 -1.03088898571267850E-07 -1.07028009017416443E-07
 -1.11117632856421809E-07 -1.15363520997146289E-07 -1.19771644069372211E-07
 -1.24348200817664231E-07 -1.29099626815840169E-07 -1.34032603514292395E-07
 -1.39154067632869198E-07 -1.44471220912513439E-07 -1.49991540239360377E-07
 -1.55722788155510110E-07 -1.61673023771235567E-07 -1.67850614093958600E-07
 -1.74264245789903242E-07 -1.80922937394941256E-07 -1.87836051991791766E-07
 -1.95013310371368560E-07 -2.02464804696759228E-07 -2.10201012689025920E-07
 -2.18232812354742877E-07 -2.26571497275960079E-07 -2.35228792484050300E-07
 -2.44216870939734219E-07 -2.53548370642423199E-07 -2.63236412392896313E-07
 -2.73294618234249242E-07 -2.83737130596999452E-07 -2.94578632175226813E-07
 -3.05834366561647525E-07 -3.17520159670580362E-07 -3.29652441978883106E-07
 -3.42248271616059939E-07 -3.55325358335956496E-07 -3.68902088403674917E-07
 -3.82997550432628359E-07 -3.97631562208000001E-07 -4.12824698534224536E-07
 -4.28598320145577018E-07 -4.44974603720420595E-07 -4.61976573041207433E-07
 -4.79628131343965797E-07 -4.97954094902614889E-07 -5.16980227895240601E-07
 -5.36733278601209582E-07 -5.57241016979882718E-07 -5.78532273683636711E-07
 -6.00636980559869840E-07 -6.23586212698797640E-07 -6.47412232085975163E-07
 -6.72148532920728376E-07 -6.97829888664034457E-07 -7.24492400881769949E-07
 -7.52173549951789483E-07 -7.80912247705887898E-07 -8.10748892080391508E-07
 -8.41725423851970647E-07 -8.73885385538122083E-07 -9.07273982544853774E-07
 -9.41938146647198314E-07 -9.77926601891453924E-07 -1.01528993301145702E-06
 -1.05408065645464358E-06 -1.09435329411736789E-06 -1.13616444989268222E-06
 -1.17957288913769888E-06 -1.22463962117178965E-06 -1.27142798492100951E-06
 -1.32000373782861905E-06 -1.37043514815606588E-06 -1.42279309080351037E-06
 -1.47715114678395127E-06 -1.53358570648999802E-06 -1.59217607689771857E-06
 -1.65300459285741061E-06 -1.71615673262683057E-06 -1.78172123780836619E-06
 -1.84979023785773596E-06 -1.92045937933811629E-06 -1.99382796010032392E-06
 -2.06999906857633952E-06 -2.14907972838076719E-06 -2.23118104842204580E-06
 -2.31641837873293245E-06 -2.40491147223777628E-06 -2.49678465268221154E-06
 -2.59216698895954352E-06 -2.69119247607702069E-06 -2.79400022301428174E-06
 -2.90073464773591030E-06 -3.01154567962979069E-06 -3.12658896965344734E-06
 -3.24602610848110601E-06 -3.37002485295524085E-06 -3.49875936115805014E-06
 -3.63241043642993730E-06 -3.77116578067462866E-06 -3.91522025730335841E-06
 -4.06477616418414746E-06 -4.22004351697544836E-06 -4.38124034323797221E-06
 -4.54859298773360256E-06 -4.72233642933547628E-06 -4.90271460998935188E-06
 -5.08998077618308375E-06 -5.28439783339758355E-06 -5.48623871403212428E-06
 -5.69578675931402528E-06 -5.91333611572171911E-06 -6.13919214647101354E-06
 -6.37367185863448342E-06 -6.61710434648574801E-06 -6.86983125168202821E-06
 -7.13220724092118484E-06 -7.40460050173670799E-06 -7.68739325711389446E-06
 -7.98098229963880744E-06 -8.28577954591808139E-06 -8.60221261203503328E-06
 -8.93072541083612354E-06 -9.27177877187023325E-06 -9.62585108484073911E-06
 -9.99343896745319260E-06 -1.03750579585784017E-05 -1.07712432376861563E-05
 -1.11825503715389323E-05 -1.16095560891701258E-05 -1.20528590862157675E-05
 -1.25130808597069022E-05 -1.29908665744626999E-05 -1.34868859622746548E-05
 -1.40018342551150582E-05 -1.45364331536446943E-05 -1.50914318323483087E-05
 -1.56676079826827984E-05 -1.62657688956513121E-05 -1.68867525852860219E-05
 -1.75314289545736084E-05 -1.82007010054066616E-05 -1.88955060942204539E-05
 -1.96168172350332739E-05 -2.03656444516460217E-05 -2.11430361808455856E-05
 -2.19500807285161688E-05 -2.27879077806232179E-05 -2.36576899711523158E-05
 -2.45606445091099529E-05 -2.54980348667785509E-05 -2.64711725315141959E-05
 -2.74814188234391122E-05 -2.85301867814959296E-05 -2.96189431204369818E-05
 -3.07492102613353405E-05 -3.19225684383615365E-05 -3.31406578846457181E-05
 -3.44051811001455204E-05 -3.57179052046401711E-05 -3.70806643789231506E-05
 -3.84953623974650133E-05 -3.99639752559214273E-05 -4.14885538969558284E-05
 -4.30712270381311421E-05 -4.47142041055312561E-05 -4.64197782770013482E-05
 -4.81903296390366728E-05 -5.00283284614496041E-05 -5.19363385943219923E-05
 -5.39170209915817086E-05 -5.59731373658339863E-05 -5.81075539792370066E-05
 -6.03232455753536433E-05 -6.26232994573786125E-05 -6.50109197178375087E-05
 -6.74894316252961095E-05 -7.00622861737250786E-05 -7.27330648004838228E-05
 -7.55054842792899988E-05 -7.83834017941690739E-05 -8.13708202010015469E-05
 -8.44718934832789519E-05 -8.76909324094092535E-05 -9.10324103988281264E-05
 -9.45009696040979320E-05 -9.81014272168040759E-05 -1.01838782005074502E-04
 -1.05718221091733266E-04 -1.09745126981096049E-04 -1.13925084843222106E-04
 -1.18263890064584050E-04 -1.22767556074953362E-04 -1.27442322460710603E-04
 -1.32294663373860432E-04 -1.37331296247310839E-04 -1.42559190826815993E-04
 -1.47985578532049199E-04 -1.53617962157328436E-04 -1.59464125923678552E-04
 -1.65532145894080102E-04 -1.71830400765417339E-04 -1.78367583050622317E-04
 -1.85152710663089254E-04 -1.92195138917303291E-04 -1.99504572959704590E-04
 -2.07091080646866314E-04 -2.14965105883872185E-04 -2.23137482438652112E-04
 -2.31619448247445800E-04 -2.40422660231014211E-04 -2.49559209637200069E-04
 -2.59041637926331553E-04 -2.68882953216801029E-04 -2.79096647311697461E-04
 -2.89696713326685791E-04 -3.00697663935575895E-04 -3.12114550253659532E-04
 -3.23962981380239348E-04 -3.36259144626177239E-04 -3.49019826442860273E-04
 -3.62262434075335702E-04 -3.76005017961552116E-04 -3.90266294909204594E-04
 -4.05065672067497383E-04 -4.20423271718390148E-04 -4.36359956910388317E-04
 -4.52897357971205857E-04 -4.70057899919220647E-04 -4.87864830798743945E-04
 -5.06342250963885535E-04 -5.25515143351405452E-04 -5.45409404766553671E-04
 -5.66051878206025295E-04 -5.87470386244817147E-04 -6.09693765530928164E-04
 -6.32751902417072031E-04 -6.56675769751265126E-04 -6.81497464854992374E-04
 -7.07250248736255964E-04 -7.33968586572407065E-04 -7.61688189480916149E-04
 -7.90446057608153911E-04 -8.20280524587035215E-04 -8.51231303404141040E-04
 -8.83339533689007504E-04 -9.16647830456059532E-04 -9.51200334354214373E-04
 -9.87042763469597045E-04 -1.02422246668651342E-03 -1.06278847863597314E-03
 -1.10279157629226379E-03 -1.14428433726572508E-03 -1.18732119978673389E-03
 -1.23195852440674677E-03 -1.27825465748470572E-03 -1.32626999650544775E-03
 -1.37606705721209587E-03 -1.42771054257165016E-03 -1.48126741365368561E-03
 -1.53680696245986738E-03 -1.59440088667030504E-03 -1.65412336631500932E-03
 -1.71605114246771938E-03 -1.78026359797871453E-03 -1.84684284019418529E-03
 -1.91587378565403837E-03 -1.98744424689059097E-03 -2.06164502130501458E-03
 -2.13856998204923349E-03 -2.21831617088272476E-03 -2.30098389316073801E-03
 -2.38667681486489768E-03 -2.47550206158343201E-03 -2.56757031938381576E-03
 -2.66299593777439983E-03 -2.76189703456740420E-03 -2.86439560252889965E-03
 -2.97061761773443050E-03 -3.08069314986097933E-03 -3.19475647409578258E-03
 -3.31294618451879802E-03 -3.43540530887339636E-03 -3.56228142495390457E-03
 -3.69372677813870932E-03 -3.82989839987645702E-03 -3.97095822707990362E-03
 -4.11707322257485932E-03 -4.26841549598282709E-03 -4.42516242476185054E-03
 -4.58749677546526659E-03 -4.75560682515868954E-03 -4.92968648224759165E-03
 -5.10993540631992423E-03 -5.29655912723927223E-03 -5.48976916305378860E-03
 -5.68978313588890464E-03 -5.89682488528988757E-03 -6.11112457946135727E-03
 -6.33291882341442246E-03 -6.56245076314125510E-03 -6.79997018519544645E-03
 -7.04573361224919426E-03 -7.30000439297308779E-03 -7.56305278528611024E-03
 -7.83515603246164906E-03 -8.11659843244192519E-03 -8.40767139812312672E-03
 -8.70867350746616295E-03 -9.01991054332584342E-03 -9.34169552258443114E-03
 -9.67434871199370633E-03 -1.00181976292631793E-02 -1.03735770299543551E-02
 -1.07408288783806399E-02 -1.11203022998241190E-02 -1.15123535123223802E-02
 -1.19173457392201358E-02 -1.23356490988478576E-02 -1.27676404686809814E-02
 -1.32137033223936502E-02 -1.36742275408715409E-02 -1.41496091918722772E-02
 -1.46402502755374146E-02 -1.51465584352047239E-02 -1.56689466329158165E-02
 -1.62078327834810701E-02 -1.67636393438264884E-02 -1.73367928588548104E-02
 -1.79277234599430520E-02 -1.85368643100477411E-02 -1.91646509918260328E-02
 -1.98115208415984879E-02 -2.04779122211522363E-02 -2.11642637219368636E-02
 -2.18710132990717100E-02 -2.25985973373371563E-02 -2.33474496381309744E-02
 -2.41180003221049197E-02 -2.49106746480121342E-02 -2.57258917456227275E-02
 -2.65640632512729943E-02 -2.74255918405119509E-02 -2.83108696625705598E-02
 -2.92202766674506120E-02 -3.01541788159966143E-02 -3.11129261684773457E-02
 -3.20968508585306386E-02 -3.31062649366747203E-02 -3.41414580760750971E-02
 -3.52026951409093528E-02 -3.62902136200267053E-02 -3.74042209086515448E-02
 -3.85448914322544384E-02 -3.97123636208075517E-02 -4.09067367264774259E-02
 -4.21280674716215733E-02 -4.33763665237707693E-02 -4.46515948121501763E-02
 -4.59536596690964388E-02 -4.72824107901373275E-02 -4.86376360171240710E-02
 -5.00190569568273596E-02 -5.14263244171870026E-02 -5.28590136613997716E-02
 -5.43166194967740143E-02 -5.57985512008805917E-02 -5.73041272768088777E-02
 -5.88325700451667113E-02 -6.03830001004883182E-02 -6.19544306267532721E-02
 -6.35457615793747349E-02 -6.51557737541765269E-02 -6.67831227722697623E-02
 -6.84263329819442268E-02 -7.00837913012888752E-02 -7.17537410379470164E-02
 -7.34342757118111727E-02 -7.51233329038536735E-02 -7.68186881724353260E-02
 -7.85179490833479710E-02 -8.02185493890223422E-02 -8.19177434089539136E-02
 -8.36126006711512548E-02 -8.53000008646452174E-02 -8.69766291707307765E-02
 -8.86389720552149957E-02 -9.02833135881833948E-02 -9.19057323625728506E-02
 -9.35020991220155001E-02 -9.50680752103095633E-02 -9.65991118959291517E-02
 -9.80904507052720587E-02 -9.95371249130717201E-02 -1.00933962310818040E-01
 -1.02275589308359338E-01 -1.03556436587167608E-01 -1.04770746487986954E-01
 -1.05912582203309499E-01 -1.06975838913008992E-01 -1.07954257133564255E-01
 -1.08841438484523823E-01 -1.09630863848152391E-01 -1.10315914230604120E-01
 -1.10889894597430691E-01 -1.11346060814266137E-01 -1.11677649664443004E-01
 -1.11877912385745876E-01 -1.11940151978003166E-01 -1.11857764180972083E-01
 -1.11624282296285252E-01 -1.11233426261380663E-01 -1.10679156139413051E-01
 -1.09955729647900319E-01 -1.09057764196004936E-01 -1.07980303656694837E-01
 -1.06718889697236474E-01 -1.05269637294500437E-01 -1.03629314936436748E-01
 -1.01795429490752362E-01 -9.97663149592369208E-02 -9.75412250761212157E-02
 -9.51204298600575870E-02 -9.25053156694277817E-02 -8.96984874758003786E-02
 -8.67038735343864109E-02 -8.35268319183194441E-02 -8.01742576355759518E-02
 -7.66546890927145286E-02 -7.29784135960233199E-02 -6.91575706425154174E-02
 -6.52062507965111837E-02 -6.11405891360388629E-02 -5.69788518900860297E-02
 -5.27415141196842380E-02 -4.84513258621490639E-02 -4.41333652937807158E-02
 -3.98150763832669577E-02 -3.55262880803026218E-02 -3.12992125370886720E-02
 -2.71684197196868857E-02 -2.31707850178102318E-02 -1.93454069998992041E-02
 -1.57334923280394202E-02 -1.23782041623467336E-02 -9.32447073178645919E-03
 -6.61875209654697386E-03 -4.30876114356500920E-03 -2.44313583114599310E-03
 -1.07107017232453521E-03 -2.41832614249112306E-04  2.78631352242223834E-06
  1.94019890806908584E-07  5.65749743629063151E-09 -1.47578054746979220E-10
 -2.31064531271401410E-11 -1.19793584905280961E-12 -1.69242312352747775E-14
  1.93889262153304877E-15  1.69750370002602925E-16  6.43149260977279663E-18
 -3.84650592950340836E-20 -1.79870411372749262E-20 -1.12334300050103876E-21
  0.00000000000000000E+00  0.00000000000000000E+00  0.00000000000000000E+00
  0.00000000000000000E+00  0.00000000000000000E+00  0.00000000000000000E+00
  0.00000000000000000E+00  0.00000000000000000E+00  0.00000000000000000E+00
  0.00000000000000000E+00  0.00000000000000000E+00  0.00000000000000000E+00
  0.00000000000000000E+00  0.00000000000000000E+00  0.00000000000000000E+00
  0.00000000000000000E+00  0.00000000000000000E+00  0.00000000000000000E+00
  0.00000000000000000E+00  0.00000000000000000E+00  0.00000000000000000E+00
  0.00000000000000000E+00  0.00000000000000000E+00  0.00000000000000000E+00
  0.00000000000000000E+00  0.00000000000000000E+00  0.00000000000000000E+00
  0.00000000000000000E+00  0.00000000000000000E+00  0.00000000000000000E+00
  0.00000000000000000E+00  0.00000000000000000E+00  0.00000000000000000E+00
  0.00000000000000000E+00  0.00000000000000000E+00  0.00000000000000000E+00
  0.00000000000000000E+00  0.00000000000000000E+00  0.00000000000000000E+00
  0.00000000000000000E+00  0.00000000000000000E+00  0.00000000000000000E+00
  0.00000000000000000E+00  0.00000000000000000E+00  0.00000000000000000E+00
  0.00000000000000000E+00  0.00000000000000000E+00  0.00000000000000000E+00
  0.00000000000000000E+00  0.00000000000000000E+00  0.00000000000000000E+00
  0.00000000000000000E+00  0.00000000000000000E+00  0.00000000000000000E+00
  0.00000000000000000E+00  0.00000000000000000E+00  0.00000000000000000E+00
  0.00000000000000000E+00  0.00000000000000000E+00  0.00000000000000000E+00
  0.00000000000000000E+00  0.00000000000000000E+00  0.00000000000000000E+00
  0.00000000000000000E+00  0.00000000000000000E+00  0.00000000000000000E+00
  0.00000000000000000E+00  0.00000000000000000E+00  0.00000000000000000E+00
  0.00000000000000000E+00  0.00000000000000000E+00  0.00000000000000000E+00
  0.00000000000000000E+00  0.00000000000000000E+00  0.00000000000000000E+00
  0.00000000000000000E+00  0.00000000000000000E+00  0.00000000000000000E+00
  0.00000000000000000E+00  0.00000000000000000E+00  0.00000000000000000E+00
  0.00000000000000000E+00  0.00000000000000000E+00  0.00000000000000000E+00
  0.00000000000000000E+00  0.00000000000000000E+00  0.00000000000000000E+00
  0.00000000000000000E+00  0.00000000000000000E+00  0.00000000000000000E+00
  0.00000000000000000E+00  0.00000000000000000E+00  0.00000000000000000E+00
  0.00000000000000000E+00  0.00000000000000000E+00  0.00000000000000000E+00
  0.00000000000000000E+00  0.00000000000000000E+00  0.00000000000000000E+00
  0.00000000000000000E+00  0.00000000000000000E+00  0.00000000000000000E+00
  0.00000000000000000E+00  0.00000000000000000E+00  0.00000000000000000E+00
  0.00000000000000000E+00  0.00000000000000000E+00  0.00000000000000000E+00
  0.00000000000000000E+00  0.00000000000000000E+00  0.00000000000000000E+00
  0.00000000000000000E+00  0.00000000000000000E+00  0.00000000000000000E+00
  0.00000000000000000E+00  0.00000000000000000E+00  0.00000000000000000E+00
  0.00000000000000000E+00  0.00000000000000000E+00  0.00000000000000000E+00
  0.00000000000000000E+00  0.00000000000000000E+00  0.00000000000000000E+00
  0.00000000000000000E+00  0.00000000000000000E+00  0.00000000000000000E+00
  0.00000000000000000E+00  0.00000000000000000E+00  0.00000000000000000E+00
  0.00000000000000000E+00  0.00000000000000000E+00  0.00000000000000000E+00
  0.00000000000000000E+00  0.00000000000000000E+00  0.00000000000000000E+00
  0.00000000000000000E+00  0.00000000000000000E+00  0.00000000000000000E+00
  0.00000000000000000E+00  0.00000000000000000E+00  0.00000000000000000E+00
  0.00000000000000000E+00  0.00000000000000000E+00  0.00000000000000000E+00
  0.00000000000000000E+00  0.00000000000000000E+00  0.00000000000000000E+00
  0.00000000000000000E+00  0.00000000000000000E+00  0.00000000000000000E+00
  0.00000000000000000E+00  0.00000000000000000E+00  0.00000000000000000E+00
  0.00000000000000000E+00  0.00000000000000000E+00  0.00000000000000000E+00
  0.00000000000000000E+00  0.00000000000000000E+00  0.00000000000000000E+00
  0.00000000000000000E+00  0.00000000000000000E+00  0.00000000000000000E+00
  0.00000000000000000E+00  0.00000000000000000E+00  0.00000000000000000E+00
  0.00000000000000000E+00  0.00000000000000000E+00  0.00000000000000000E+00
  0.00000000000000000E+00  0.00000000000000000E+00  0.00000000000000000E+00
  0.00000000000000000E+00  0.00000000000000000E+00  0.00000000000000000E+00
  0.00000000000000000E+00  0.00000000000000000E+00  0.00000000000000000E+00
                       </PP_QIJL.2.4.1>
 <PP_QIJL.3.3.0 type="real" size="   888" columns="3" first_index=" 3" second_index=" 3" composite_index=" 6" angular_momentum="0">
  3.52906737223974760E-09  3.61840613012862250E-09  3.71000650903186622E-09
  3.80392576213706728E-09  3.90022259200219249E-09  3.99895718724618143E-09
  4.10019126016905660E-09  4.20398808532399147E-09  4.31041253906555180E-09
  4.41953114009984861E-09  4.53141209106061447E-09  4.64612532113774950E-09
  4.76374252978564507E-09  4.88433723153723946E-09  5.00798480195287850E-09
  5.13476252473265620E-09  5.26474964002065562E-09  5.39802739393279504E-09
  5.53467908933814719E-09  5.67479013792544158E-09  5.81844811358847324E-09
  5.96574280716201448E-09  6.11676628254400363E-09  6.27161293423845282E-09
  6.43037954635440880E-09  6.59316535309953805E-09  6.76007210080394971E-09
  6.93120411151509267E-09  7.10666834820207798E-09  7.28657448161055674E-09
  7.47103495881066624E-09  7.66016507347914873E-09  7.85408303796210628E-09
  8.05291005716047705E-09  8.25677040428737342E-09  8.46579149854198586E-09
  8.68010398475066637E-09  8.89984181502369549E-09  9.12514233247917695E-09
  9.35614635708683254E-09  9.59299827368410219E-09  9.83584612222144791E-09
  1.00848416902910187E-08  1.03401406079988998E-08  1.06019024452378525E-08
  1.08702908114236231E-08  1.11454734577549583E-08  1.14276223820634787E-08
  1.17169139363166739E-08  1.20135289368433835E-08  1.23176527773487111E-08
  1.26294755447905062E-08  1.29491921381891313E-08  1.32770023904444008E-08
  1.36131111932374179E-08  1.39577286250925796E-08  1.43110700826835090E-08
  1.46733564154608655E-08  1.50448140636901149E-08  1.54256751999824416E-08
  1.58161778744088082E-08  1.62165661632881722E-08  1.66270903217409084E-08
  1.70480069401058375E-08  1.74795791043152903E-08  1.79220765603309171E-08
  1.83757758827423770E-08  1.88409606476328188E-08  1.93179216098220612E-08
  1.98069568845955721E-08  2.03083721340336416E-08  2.08224807580587704E-08
  2.13496040903178216E-08  2.18900715990235918E-08  2.24442210928813118E-08
  2.30123989322264547E-08  2.35949602455087222E-08  2.41922691512562969E-08
  2.48046989856580674E-08  2.54326325359077653E-08  2.60764622794551578E-08
  2.67365906293134760E-08  2.74134301855764485E-08  2.81074039933032098E-08
  2.88189458069311589E-08  2.95485003613814601E-08  3.02965236500285024E-08
  3.10634832097058595E-08  3.18498584129267801E-08  3.26561407675019563E-08
  3.34828342237421544E-08  3.43304554894378250E-08  3.51995343528119811E-08
  3.60906140136480679E-08  3.70042514228007926E-08  3.79410176303009901E-08
  3.89014981422730589E-08  3.98862932868871026E-08  4.08960185895747586E-08
  4.19313051577440390E-08  4.29928000752321849E-08  4.40811668067446021E-08
  4.51970856125312488E-08  4.63412539735604218E-08  4.75143870274558968E-08
  4.87172180154683722E-08  4.99504987407630163E-08  5.12150000383072891E-08
  5.25115122566537927E-08  5.38408457519193851E-08  5.52038313942679875E-08
  5.66013210872154536E-08  5.80341883000797146E-08  5.95033286139094149E-08
  6.10096602812325666E-08  6.25541247999736813E-08  6.41376875018999806E-08
  6.57613381559631154E-08  6.74260915869135466E-08  6.91329883095750149E-08
  7.08830951791739785E-08  7.26775060581323662E-08  7.45173424997384552E-08
  7.64037544491245244E-08  7.83379209619891328E-08  8.03210509415113639E-08
  8.23543838939207841E-08  8.44391907031924793E-08  8.65767744253525986E-08
  8.87684711028911492E-08  9.10156505997886226E-08  9.33197174576819681E-08
  9.56821117737017068E-08  9.81043101005305048E-08  1.00587826369244761E-07
  1.03134212835517247E-07  1.05745061049769030E-07  1.08422002851881387E-07
  1.11166711391085120E-07  1.13980902171666972E-07  1.16866334125146527E-07
  1.19824810709591265E-07  1.22858181036760246E-07  1.25968341027777969E-07
  1.29157234598061269E-07  1.32426854872241096E-07  1.35779245429834892E-07
  1.39216501582452027E-07  1.42740771683327165E-07  1.46354258470001825E-07
  1.50059220440993157E-07  1.53857973267306269E-07  1.57752891239678453E-07
  1.61746408752453112E-07  1.65841021825015179E-07  1.70039289661738687E-07
  1.74343836251415793E-07  1.78757352007172566E-07  1.83282595447892283E-07
  1.87922394922199558E-07  1.92679650376082764E-07  1.97557335165253188E-07
  2.02558497913378586E-07  2.07686264417353570E-07  2.12943839600793510E-07
  2.18334509516972684E-07  2.23861643402454389E-07  2.29528695782709552E-07
  2.35339208631023691E-07  2.41296813582044622E-07  2.47405234201363911E-07
  2.53668288312537004E-07  2.60089890382999254E-07  2.66674053970373627E-07
  2.73424894230695975E-07  2.80346630490115548E-07  2.87443588881690072E-07
  2.94720205048921431E-07  3.02181026917700839E-07  3.09830717538429380E-07
  3.17674058000058778E-07  3.25715950417879741E-07  3.33961420996943985E-07
  3.42415623172997714E-07  3.51083840832922011E-07  3.59971491616675371E-07
  3.69084130302788252E-07  3.78427452279564868E-07  3.88007297104099535E-07
  3.97829652151398475E-07  4.07900656355821750E-07  4.18226604047231215E-07
  4.28813948884207967E-07  4.39669307886812996E-07  4.50799465571404090E-07
  4.62211378190085658E-07  4.73912178077448404E-07  4.85909178107298875E-07
  4.98209876262185059E-07  5.10821960318535296E-07  5.23753312650382084E-07
  5.37012015154614396E-07  5.50606354300888378E-07  5.64544826309309362E-07
  5.78836142459130286E-07  5.93489234531800666E-07  6.08513260391704571E-07
  6.23917609708165813E-07  6.39711909822174746E-07  6.55906031761623125E-07
  6.72510096408685041E-07  6.89534480823280297E-07  7.06989824726523350E-07
  7.24887037148195640E-07  7.43237303242450410E-07  7.62052091275904187E-07
  7.81343159792575404E-07  8.01122564960079711E-07  8.21402668101661238E-07
  8.42196143418830101E-07  8.63515985909321990E-07  8.85375519485384662E-07
  9.07788405297478384E-07  9.30768650268477723E-07  9.54330615843820896E-07
  9.78489026963010005E-07  1.00325898125799285E-06  1.02865595848429861E-06
  1.05469583019071641E-06  1.08139486963352755E-06  1.10876976194155841E-06
  1.13683761453833955E-06  1.16561596782784353E-06  1.19512280615050858E-06
  1.22537656901638985E-06  1.25639616262239431E-06  1.28820097166075667E-06
  1.32081087142621773E-06  1.35424624022937791E-06  1.38852797212393845E-06
  1.42367748995580447E-06  1.45971675874219228E-06  1.49666829938904868E-06
  1.53455520275531327E-06  1.57340114407279503E-06  1.61323039773068737E-06
  1.65406785243389647E-06  1.69593902674458457E-06  1.73887008501664038E-06
  1.78288785373303692E-06  1.82801983825619112E-06  1.87429424000177799E-06
  1.92173997404665766E-06  1.97038668718189853E-06  2.02026477642215410E-06
  2.07140540798287629E-06  2.12384053673718757E-06  2.17760292616448272E-06
  2.23272616880320818E-06  2.28924470722052641E-06  2.34719385551190224E-06
  2.40660982134400201E-06  2.46752972855454817E-06  2.52999164032324861E-06
  2.59403458292815450E-06  2.65969857010220408E-06  2.72702462800514814E-06
  2.79605482082630289E-06  2.86683227703406333E-06  2.93940121628848792E-06
  3.01380697703361244E-06  3.09009604478671183E-06  3.16831608114198010E-06
  3.24851595350667188E-06  3.33074576558818606E-06  3.41505688865094145E-06
  3.50150199356248259E-06  3.59013508364865194E-06  3.68101152837823355E-06
  3.77418809789793383E-06  3.86972299843907327E-06  3.96767590861800921E-06
  4.06810801665266464E-06  4.17108205851832709E-06  4.27666235706626741E-06
  4.38491486212940806E-06  4.49590719163991555E-06  4.60970867378405828E-06
  4.72639039022052275E-06  4.84602522038884431E-06  4.96868788693531481E-06
  5.09445500228458203E-06  5.22340511638552214E-06  5.35561876566107810E-06
  5.49117852319215891E-06  5.63016905016660298E-06  5.77267714862504120E-06
  5.91879181553605628E-06  6.06860429823415372E-06  6.22220815125460702E-06
  6.37969929460022223E-06  6.54117607347600718E-06  6.70673931952839916E-06
  6.87649241362687092E-06  7.05054135022652621E-06  7.22899480335117610E-06
  7.41196419423767222E-06  7.59956376068284820E-06  7.79191062813586060E-06
  7.98912488257950832E-06  8.19132964524521487E-06  8.39865114920769024E-06
  8.61121881790602773E-06  8.82916534563952350E-06  9.05262678008753206E-06
  9.28174260690373945E-06  9.51665583643687521E-06  9.75751309263063363E-06
  1.00044647041573918E-05  1.02576647978413241E-05  1.05172713944278282E-05
  1.07834465067580097E-05  1.10563562404077585E-05  1.13361708968530531E-05
  1.16230650792241976E-05  1.19172178007133129E-05  1.22188125957011907E-05
  1.25280376336709557E-05  1.28450858359776789E-05  1.31701549955450759E-05
  1.35034478995614723E-05  1.38451724552498643E-05  1.41955418187879394E-05
  1.45547745274560887E-05  1.49230946350935230E-05  1.53007318509439920E-05
  1.56879216819751335E-05  1.60849055787572903E-05  1.64919310849894718E-05
  1.69092519907628139E-05  1.73371284896532266E-05  1.77758273397379227E-05
  1.82256220286323943E-05  1.86867929426465415E-05  1.91596275401616476E-05
  1.96444205293313353E-05  2.01414740502130913E-05  2.06510978614388377E-05
  2.11736095315359236E-05  2.17093346350126269E-05  2.22586069533239748E-05
  2.28217686808379795E-05  2.33991706359240179E-05  2.39911724772881631E-05
  2.45981429256838586E-05  2.52204599911277813E-05  2.58585112057562731E-05
  2.65126938624587609E-05  2.71834152594280100E-05  2.78710929507710506E-05
  2.85761550033271991E-05  2.92990402598436412E-05  3.00401986086618893E-05
  3.08000912600713212E-05  3.15791910294933479E-05  3.23779826276579714E-05
  3.31969629579414527E-05  3.40366414210370634E-05  3.48975402271339434E-05
  3.57801947157846605E-05  3.66851536836427147E-05  3.76129797202628553E-05
  3.85642495521524399E-05  3.95395543952697451E-05  4.05395003161711551E-05
  4.15647086020106972E-05  4.26158161396005333E-05  4.36934758037488006E-05
  4.47983568550945537E-05  4.59311453476596261E-05  4.70925445463456739E-05
  4.82832753546102729E-05  4.95040767525572236E-05  5.07557062456853578E-05
  5.20389403245507333E-05  5.33545749355855133E-05  5.47034259633351013E-05
  5.60863297243769095E-05  5.75041434731844814E-05  5.89577459202195308E-05
  6.04480377625346709E-05  6.19759422271623972E-05  6.35424056275850238E-05
  6.51483979335804356E-05  6.67949133547404564E-05  6.84829709379895264E-05
  7.02136151794071305E-05  7.19879166506693101E-05  7.38069726404377320E-05
  7.56719078110221839E-05  7.75838748706619510E-05  7.95440552617881970E-05
  8.15536598655901442E-05  8.36139297232496142E-05  8.57261367742021517E-05
  8.78915846117871375E-05  9.01116092567042962E-05  9.23875799486180546E-05
  9.47208999563012684E-05  9.71130074067111257E-05  9.95653761333804502E-05
  1.02079516544592808E-04  1.04656976511703376E-04  1.07299342278023352E-04
  1.10008239388689869E-04  1.12785333641932141E-04  1.15632332062250262E-04
  1.18550983895883611E-04  1.21543081629011112E-04  1.24610462029131711E-04
  1.27755007210065294E-04  1.30978645721143376E-04  1.34283353660954134E-04
  1.37671155816125021E-04  1.41144126825591833E-04  1.44704392370860170E-04
  1.48354130392840225E-04  1.52095572335606900E-04  1.55931004417605030E-04
  1.59862768930732382E-04  1.63893265567924908E-04  1.68024952779738911E-04
  1.72260349160309749E-04  1.76602034863212022E-04  1.81052653047653159E-04
  1.85614911355761435E-04  1.90291583421257253E-04  1.95085510409993249E-04
  1.99999602592797242E-04  2.05036840951226509E-04  2.10200278816859994E-04
  2.15493043544334159E-04  2.20918338218645759E-04  2.26479443397078708E-04
  2.32179718886640375E-04  2.38022605557144717E-04  2.44011627190330032E-04
  2.50150392365333402E-04  2.56442596381207069E-04  2.62892023217006689E-04
  2.69502547529422160E-04  2.76278136688353480E-04  2.83222852850707068E-04
  2.90340855073398685E-04  2.97636401465189971E-04  3.05113851377676235E-04
  3.12777667635422726E-04  3.20632418806277584E-04  3.28682781511611510E-04
  3.36933542776338450E-04  3.45389602418638827E-04  3.54055975480029527E-04
  3.62937794696023260E-04  3.72040313006517917E-04  3.81368906105805010E-04
  3.90929075032226780E-04  4.00726448798314388E-04  4.10766787059787370E-04
  4.21055982823160516E-04  4.31600065191298785E-04  4.42405202148184250E-04
  4.53477703380691780E-04  4.64824023136661769E-04  4.76450763118020008E-04
  4.88364675410269192E-04  5.00572665445868131E-04  5.13081794999946925E-04
  5.25899285216563828E-04  5.39032519666593230E-04  5.52489047434651668E-04
  5.66276586232347060E-04  5.80403025535474186E-04  5.94876429745772972E-04
  6.09705041374619650E-04  6.24897284244458825E-04  6.40461766704912712E-04
  6.56407284863545857E-04  6.72742825828546542E-04  6.89477570957386160E-04
  7.06620899107494546E-04  7.24182389888212942E-04  7.42171826910984259E-04
  7.60599201029781295E-04  7.79474713566687561E-04  7.98808779521117712E-04
  8.18612030759013312E-04  8.38895319171651657E-04  8.59669719797511171E-04
  8.80946533904970329E-04  9.02737292031043255E-04  9.25053756963086188E-04
  9.47907926655047620E-04  9.71312037075496969E-04  9.95278564980740625E-04
  1.01982023059691966E-03  1.04495000020032565E-03  1.07068108859291727E-03
  1.09702696146335953E-03  1.12400133761414987E-03  1.15161819104119705E-03
  1.17989175286300606E-03  1.20883651308528327E-03  1.23846722217802211E-03
  1.26879889244795431E-03  1.29984679920426517E-03  1.33162648169678601E-03
  1.36415374380026953E-03  1.39744465442354256E-03  1.43151554764269200E-03
  1.46638302252838945E-03  1.50206394263758657E-03  1.53857543514407499E-03
  1.57593488960826550E-03  1.61415995634449621E-03  1.65326854435286514E-03
  1.69327881878617785E-03  1.73420919795225681E-03  1.77607834979603908E-03
  1.81890518782472214E-03  1.86270886644468122E-03  1.90750877570625013E-03
  1.95332453538665666E-03  2.00017598836914508E-03  2.04808319328881249E-03
  2.09706641642999755E-03  2.14714612279343249E-03  2.19834296628363974E-03
  2.25067777899348167E-03  2.30417155955003460E-03  2.35884546043171146E-03
  2.41472077419762308E-03  2.47181891861614905E-03  2.53016142062604957E-03
  2.58976989903649587E-03  2.65066604589745411E-03  2.71287160653749596E-03
  2.77640835816352592E-03  2.84129808692908971E-03  2.90756256339767035E-03
  2.97522351639975535E-03  3.04430260513895200E-03  3.11482138945365448E-03
  3.18680129816790655E-03  3.26026359551004341E-03  3.33522934542827571E-03
  3.41171937370400233E-03  3.48975422781813358E-03  3.56935413450231191E-03
  3.65053895479760691E-03  3.73332813651196206E-03  3.81774066406068754E-03
  3.90379500555514342E-03  3.99150905697374329E-03  4.08090008330212403E-03
  4.17198465664643092E-03  4.26477859111656834E-03  4.35929687433432751E-03
  4.45555359546874214E-03  4.55356186978682527E-03  4.65333375947835255E-03
  4.75488019062645425E-03  4.85821086626783433E-03  4.96333417546984679E-03
  5.07025709819551931E-03  5.17898510584029886E-03  5.28952205743368764E-03
  5.40187009135489980E-03  5.51602951238703426E-03  5.63199867401778000E-03
  5.74977385600431139E-03  5.86934913700578459E-03  5.99071626218034958E-03
  6.11386450570552704E-03  6.23878052821671188E-03  6.36544822900394699E-03
  6.49384859293893751E-03  6.62395953214920882E-03  6.75575572240516477E-03
  6.88920843417837377E-03  7.02428535843066439E-03  7.16095042717128979E-03
  7.29916362880604890E-03  7.43888081839570899E-03  7.58005352298570575E-03
  7.72262874202603311E-03  7.86654874311805419E-03  8.01175085338511582E-03
  8.15816724667825337E-03  8.30572472671411467E-03  8.45434450670227121E-03
  8.60394198598224240E-03  8.75442652378621670E-03  8.90570121060907209E-03
  9.05766263806156470E-03  9.21020066796638531E-03  9.36319820063305497E-03
  9.51653094356926486E-03  9.67006718180422539E-03  9.82366755059495105E-03
  9.97718481064402245E-03  1.01304636279715768E-02  1.02833403600209265E-02
  1.04356428482849494E-02  1.05871902187048613E-02  1.07377926925928072E-02
  1.08872514101067807E-02  1.10353582658051334E-02  1.11818957596383200E-02
  1.13266368664620854E-02  1.14693449259126237E-02  1.16097735523885501E-02
  1.17476665706260607E-02  1.18827579804213056E-02  1.20147719507898380E-02
  1.21434228459211240E-02  1.22684152893642023E-02  1.23894442705467581E-02
  1.25061952916591633E-02  1.26183445620116370E-02  1.27255592461842388E-02
  1.28274977690278416E-02  1.29238101756374724E-02  1.30141385575873719E-02
  1.30981175516826868E-02  1.31753749100915994E-02  1.32455321453733496E-02
  1.33082052623745214E-02  1.33630055831300762E-02  1.34095406581948885E-02
  1.34474152770182841E-02  1.34762325871811556E-02  1.34955953248147333E-02
  1.35051071496364167E-02  1.35043741033358759E-02  1.34930061987672198E-02
  1.34706191324115033E-02  1.34368361234641458E-02  1.33912898960324312E-02
  1.33336248087596310E-02  1.32634991136271543E-02  1.31805873613281416E-02
  1.30845829617376765E-02  1.29752008932073355E-02  1.28521805432736912E-02
  1.27152887024774269E-02  1.25643227114134882E-02  1.23991137356690741E-02
  1.22195301662304107E-02  1.20254811554783674E-02  1.18169202780529104E-02
  1.15938492754842099E-02  1.13563218961816158E-02  1.11044478212283682E-02
  1.08383966438664568E-02  1.05584018652657777E-02  1.02647649101618894E-02
  9.95785913362301663E-03  9.63813376139232431E-03  9.30611774025849950E-03
  8.96242347346961829E-03  8.60775039092548204E-03  8.24288828560148373E-03
  7.86872039007048378E-03  7.48622613541642581E-03  7.09648351992945518E-03
  6.70067102511369937E-03  6.30006902200826256E-03  5.89606058402081506E-03
  5.49013163069138246E-03  5.08387033143657251E-03  4.67896567642589294E-03
  4.27720511972179938E-03  3.88047123869203741E-03  3.49073730112422218E-03
  3.11006162785729253E-03  2.74058069222118169E-03  2.38450089537112480E-03
  2.04408888336335805E-03  1.72166030424607264E-03  1.41956704148333483E-03
  1.14018280545726556E-03  8.85886976974443086E-04  6.59046694143380842E-04
  4.61997289177988591E-04  2.97020928576170870E-04  1.66323480577833537E-04
  7.20103744542533001E-05  1.60569562197757749E-05 -1.82972210736260810E-07
 -1.27409381830392190E-08 -3.71517707832433960E-10  9.69118611954958882E-12
  1.51735932691135643E-12  7.86662982674196485E-14  1.11138390536823121E-15
 -1.27323600336877438E-16 -1.11472022881593524E-17 -4.22344582429125761E-19
  2.52593144263081280E-21  1.18117672509092553E-21  7.37679197128168827E-23
  0.00000000000000000E+00  0.00000000000000000E+00  0.00000000000000000E+00
  0.00000000000000000E+00  0.00000000000000000E+00  0.00000000000000000E+00
  0.00000000000000000E+00  0.00000000000000000E+00  0.00000000000000000E+00
  0.00000000000000000E+00  0.00000000000000000E+00  0.00000000000000000E+00
  0.00000000000000000E+00  0.00000000000000000E+00  0.00000000000000000E+00
  0.00000000000000000E+00  0.00000000000000000E+00  0.00000000000000000E+00
  0.00000000000000000E+00  0.00000000000000000E+00  0.00000000000000000E+00
  0.00000000000000000E+00  0.00000000000000000E+00  0.00000000000000000E+00
  0.00000000000000000E+00  0.00000000000000000E+00  0.00000000000000000E+00
  0.00000000000000000E+00  0.00000000000000000E+00  0.00000000000000000E+00
  0.00000000000000000E+00  0.00000000000000000E+00  0.00000000000000000E+00
  0.00000000000000000E+00  0.00000000000000000E+00  0.00000000000000000E+00
  0.00000000000000000E+00  0.00000000000000000E+00  0.00000000000000000E+00
  0.00000000000000000E+00  0.00000000000000000E+00  0.00000000000000000E+00
  0.00000000000000000E+00  0.00000000000000000E+00  0.00000000000000000E+00
  0.00000000000000000E+00  0.00000000000000000E+00  0.00000000000000000E+00
  0.00000000000000000E+00  0.00000000000000000E+00  0.00000000000000000E+00
  0.00000000000000000E+00  0.00000000000000000E+00  0.00000000000000000E+00
  0.00000000000000000E+00  0.00000000000000000E+00  0.00000000000000000E+00
  0.00000000000000000E+00  0.00000000000000000E+00  0.00000000000000000E+00
  0.00000000000000000E+00  0.00000000000000000E+00  0.00000000000000000E+00
  0.00000000000000000E+00  0.00000000000000000E+00  0.00000000000000000E+00
  0.00000000000000000E+00  0.00000000000000000E+00  0.00000000000000000E+00
  0.00000000000000000E+00  0.00000000000000000E+00  0.00000000000000000E+00
  0.00000000000000000E+00  0.00000000000000000E+00  0.00000000000000000E+00
  0.00000000000000000E+00  0.00000000000000000E+00  0.00000000000000000E+00
  0.00000000000000000E+00  0.00000000000000000E+00  0.00000000000000000E+00
  0.00000000000000000E+00  0.00000000000000000E+00  0.00000000000000000E+00
  0.00000000000000000E+00  0.00000000000000000E+00  0.00000000000000000E+00
  0.00000000000000000E+00  0.00000000000000000E+00  0.00000000000000000E+00
  0.00000000000000000E+00  0.00000000000000000E+00  0.00000000000000000E+00
  0.00000000000000000E+00  0.00000000000000000E+00  0.00000000000000000E+00
  0.00000000000000000E+00  0.00000000000000000E+00  0.00000000000000000E+00
  0.00000000000000000E+00  0.00000000000000000E+00  0.00000000000000000E+00
  0.00000000000000000E+00  0.00000000000000000E+00  0.00000000000000000E+00
  0.00000000000000000E+00  0.00000000000000000E+00  0.00000000000000000E+00
  0.00000000000000000E+00  0.00000000000000000E+00  0.00000000000000000E+00
  0.00000000000000000E+00  0.00000000000000000E+00  0.00000000000000000E+00
  0.00000000000000000E+00  0.00000000000000000E+00  0.00000000000000000E+00
  0.00000000000000000E+00  0.00000000000000000E+00  0.00000000000000000E+00
  0.00000000000000000E+00  0.00000000000000000E+00  0.00000000000000000E+00
  0.00000000000000000E+00  0.00000000000000000E+00  0.00000000000000000E+00
  0.00000000000000000E+00  0.00000000000000000E+00  0.00000000000000000E+00
  0.00000000000000000E+00  0.00000000000000000E+00  0.00000000000000000E+00
  0.00000000000000000E+00  0.00000000000000000E+00  0.00000000000000000E+00
  0.00000000000000000E+00  0.00000000000000000E+00  0.00000000000000000E+00
  0.00000000000000000E+00  0.00000000000000000E+00  0.00000000000000000E+00
  0.00000000000000000E+00  0.00000000000000000E+00  0.00000000000000000E+00
  0.00000000000000000E+00  0.00000000000000000E+00  0.00000000000000000E+00
  0.00000000000000000E+00  0.00000000000000000E+00  0.00000000000000000E+00
  0.00000000000000000E+00  0.00000000000000000E+00  0.00000000000000000E+00
  0.00000000000000000E+00  0.00000000000000000E+00  0.00000000000000000E+00
  0.00000000000000000E+00  0.00000000000000000E+00  0.00000000000000000E+00
  0.00000000000000000E+00  0.00000000000000000E+00  0.00000000000000000E+00
  0.00000000000000000E+00  0.00000000000000000E+00  0.00000000000000000E+00
  0.00000000000000000E+00  0.00000000000000000E+00  0.00000000000000000E+00
  0.00000000000000000E+00  0.00000000000000000E+00  0.00000000000000000E+00
  0.00000000000000000E+00  0.00000000000000000E+00  0.00000000000000000E+00
  0.00000000000000000E+00  0.00000000000000000E+00  0.00000000000000000E+00
                       </PP_QIJL.3.3.0>
 <PP_QIJL.3.3.2 type="real" size="   888" columns="3" first_index=" 3" second_index=" 3" composite_index=" 6" angular_momentum="2">
  2.27791018221285270E-16  2.39470087186423903E-16  2.51747983684856573E-16
  2.64655403552105500E-16  2.78224549067171715E-16  2.92489430184605630E-16
  3.07485707656603806E-16  3.23250807382194549E-16  3.39824240343797853E-16
  3.57247418642947787E-16  3.75563855089206490E-16  3.94819446460169235E-16
  4.15062272938334229E-16  4.36342947805814767E-16  4.58714760526928165E-16
  4.82233545816650208E-16  5.06958186461151035E-16  5.32950512213847233E-16
  5.60275434335845716E-16  5.89001396539249608E-16  6.19200130120883921E-16
  6.50947189281809860E-16  6.84321992394452266E-16  7.19407893179053611E-16
  7.56292755130686450E-16  7.95068688873264900E-16  8.35832734506648970E-16
  8.78686805014757388E-16  9.23738012151885998E-16  9.71099106545064651E-16
  1.02088837838089218E-15  1.07323047811784158E-15  1.12825614436702099E-15
  1.18610309135362252E-15  1.24691587824414305E-15  1.31084662038228279E-15
  1.37805516244042802E-15  1.44870954240135719E-15  1.52298648040553699E-15
  1.60107163550628097E-15  1.68316035224458109E-15  1.76945778955945192E-15
  1.86017985128465941E-15  1.95555326863742560E-15  2.05581664738853293E-15
  2.16122057810488389E-15  2.27202873802023147E-15  2.38851810527479650E-15
  2.51098004479779762E-15  2.63972072013557057E-15  2.77506207169056225E-15
  2.91734254191467677E-15  3.06691784129723417E-15  3.22416209847827581E-15
  3.38946834795983189E-15  3.56325012924473791E-15  3.74594179102464350E-15
  3.93800032847990175E-15  4.13990587857356969E-15  4.35216333362958955E-15
  4.57530352165651183E-15  4.80988424813897063E-15  5.05649228167303261E-15
  5.31574411018782455E-15  5.58828806397478009E-15  5.87480570836683043E-15
  6.17601331308936956E-15  6.49266424034334392E-15  6.82555019305779429E-15
  7.17550349884953088E-15  7.54339938675982836E-15  7.93015763525753143E-15
  8.33674536461136814E-15  8.76417937881730075E-15  9.21352832345326381E-15
  9.68591584736577668E-15  1.01825232794264877E-14  1.07045922538367176E-14
  1.12534282141659293E-14  1.18304036708046050E-14  1.24369612765608014E-14
  1.30746176450586824E-14  1.37449673950182868E-14  1.44496867572375611E-14
  1.51905377562300153E-14  1.59693729430119810E-14  1.67881399155065859E-14
  1.76488859801173993E-14  1.85537633255105513E-14  1.95050346756309740E-14
  2.05050787861877635E-14  2.15563962660126099E-14  2.26616158532403905E-14
  2.38235011634962352E-14  2.50449576019068475E-14  2.63290394652832690E-14
  2.76789575849313652E-14  2.90980873758257937E-14  3.05899774031520766E-14
  3.21583582293753666E-14  3.38071516418289567E-14  3.55404804655692865E-14
  3.73626788817372627E-14  3.92783032780839960E-14  4.12921437115115843E-14
  4.34092358627177111E-14  4.56348735742836552E-14  4.79746220921240511E-14
  5.04343319864943058E-14  5.30201537857359828E-14  5.57385533593577973E-14
  5.85963280889997694E-14  6.16006238773862754E-14  6.47589530237309042E-14
  6.80792129854058539E-14  7.15697061244156401E-14  7.52391604691460213E-14
  7.90967515401132676E-14  8.31521252943360514E-14  8.74154222457527764E-14
  9.18973028220446845E-14  9.66089740213252703E-14  1.01562217435396350E-13
  1.06769418709692427E-13  1.12243598513619679E-13  1.17998445098760309E-13
  1.24048348526385053E-13  1.30408436649864725E-13  1.37094612941951092E-13
  1.44123596261488891E-13  1.51512962658938076E-13  1.59281189325170495E-13
  1.67447700793310099E-13  1.76032917508993889E-13  1.85058306890296614E-13
  1.94546437004742600E-13  2.04521032997293165E-13  2.15007036410033403E-13
  2.26030667554793490E-13  2.37619491122187863E-13  2.49802485085615775E-13
  2.62610113146219499E-13  2.76074400899821418E-13  2.90229015905379950E-13
  3.05109351854152735E-13  3.20752617048846544E-13  3.37197927443963262E-13
  3.54486404669416462E-13  3.72661278779174233E-13  3.91767996217052403E-13
  4.11854333409504868E-13  4.32970516170965626E-13  4.55169345354778546E-13
  4.78506329383819499E-13  5.03039822680317925E-13  5.28831171327391944E-13
  5.55944866345348635E-13  5.84448705273956219E-13  6.14413962406005312E-13
  6.45915566113481154E-13  6.79032285862236402E-13  7.13846929436861071E-13
  7.50446551362468176E-13  7.88922669260226106E-13  8.29371491992626297E-13
  8.71894161317488277E-13  9.16597005907964291E-13  9.63591804963320324E-13
  1.01299606766654847E-12  1.06493332994485267E-12  1.11953346103040030E-12
  1.17693298683237681E-12  1.23727543509929845E-12  1.30071169234409385E-12
  1.36740037871533567E-12  1.43750824959208283E-12  1.51121060948623421E-12
  1.58869174839463849E-12  1.67014540879242774E-12  1.75577526382616390E-12
  1.84579542868047415E-12  1.94043099955960288E-12  2.03991860871365755E-12
  2.14450702493817432E-12  2.25445776932143094E-12  2.37004577038366572E-12
  2.49156005600573269E-12  2.61930446685438144E-12  2.75359842832965864E-12
  2.89477773637140032E-12  3.04319540862285056E-12  3.19922255825609498E-12
  3.36324932746896959E-12  3.53568586087018751E-12  3.71696332995468530E-12
  3.90753501501147875E-12  4.10787743250319235E-12  4.31849153415837025E-12
  4.53990395096338504E-12  4.77266831884620431E-12  5.01736665450884857E-12
  5.27461081791822319E-12  5.54504403716941965E-12  5.82934251857415174E-12
  6.12821713999779169E-12  6.44241522043274082E-12  6.77272240237407946E-12
  7.11996459665773889E-12  7.48501007140834207E-12  7.86877159804658826E-12
  8.27220875516054844E-12  8.69633031437222693E-12  9.14219676374710534E-12
  9.61092297181385225E-12  1.01036809520957846E-11  1.06217028197891801E-11
  1.11662838535335239E-11  1.17387857362599515E-11  1.23406399759750228E-11
  1.29733514591306465E-11  1.36385022339128208E-11  1.43377554633927285E-11
  1.50728595660657674E-11  1.58456526130366960E-11  1.66580669107526300E-11
  1.75121338210391097E-11  1.84099888655701008E-11  1.93538770502778748E-11
  2.03461584678552753E-11  2.13893142223749883E-11  2.24859526232090993E-11
  2.36388156917675172E-11  2.48507860344264443E-11  2.61248940550148395E-11
  2.74643255111423722E-11  2.88724294830865020E-11  3.03527267685591761E-11
  3.19089186682202077E-11  3.35448962317237178E-11  3.52647499963164920E-11
  3.70727802274703418E-11  3.89735076509635647E-11  4.09716847523042021E-11
  4.30723076673845954E-11  4.52806286868998651E-11  4.76021693701978338E-11
  5.00427343466812537E-11  5.26084258302440648E-11  5.53056588918830889E-11
  5.81411774895397101E-11  6.11220713195977907E-11  6.42557935416272936E-11
  6.75501794146015688E-11  7.10134658995676135E-11  7.46543122423108409E-11
  7.84818216156457479E-11  8.25055638775229141E-11  8.67355994958651037E-11
  9.11825047070546393E-11  9.58573979611533135E-11  1.00771967706625691E-10
  1.05938501609723585E-10  1.11369917272827453E-10  1.17079794527397998E-10
  1.23082409383459262E-10  1.29392769726360422E-10  1.36026652829287003E-10
  1.43000644789463536E-10  1.50332181990545266E-10  1.58039594690297436E-10
  1.66142152842452030E-10  1.74660114267249954E-10  1.83614775291316025E-10
  1.93028523987319249E-10  2.02924896136590956E-10  2.13328634057245372E-10
  2.24265748451657720E-10  2.35763583424031060E-10  2.47850884830382624E-10
  2.60557872131717077E-10  2.73916313929901872E-10  2.87959607374972648E-10
  3.02722861642240224E-10  3.18242985687759051E-10  3.34558780501393382E-10
  3.51711036088781628E-10  3.69742633423156982E-10  3.88698651620146704E-10
  4.08626480606760605E-10  4.29575939564712682E-10  4.51599401443749964E-10
  4.74751923856024033E-10  4.99091386678404623E-10  5.24678636706451488E-10
  5.51577639721309621E-10  5.79855640349307947E-10  6.09583330113524981E-10
  6.40835024096968681E-10  6.73688846658575401E-10  7.08226926665779415E-10
  7.44535602731158000E-10  7.82705638965657581E-10  8.22832451787084315E-10
  8.65016348350187598E-10  9.09362777193624882E-10  9.55982591729561869E-10
  1.00499232723375965E-09  1.05651449202758703E-09  1.11067787357888621E-09
  1.16761786028576105E-09  1.22747677974649655E-09  1.29040425435995105E-09
  1.35655757514391823E-09  1.42610209470445105E-09  1.49921164033685659E-09
  1.57606894828921120E-09  1.65686612027212399E-09  1.74180510335376584E-09
  1.83109819443762672E-09  1.92496857058162239E-09  2.02365084648157775E-09
  2.12739166051119181E-09  2.23645029078484832E-09  2.35109930276593818E-09
  2.47162523004474646E-09  2.59832928998520588E-09  2.73152813602352273E-09
  2.87155464849466313E-09  3.01875876595861941E-09  3.17350835909939291E-09
  3.33619014937530894E-09  3.50721067471102832E-09  3.68699730463841834E-09
  3.87599930741662714E-09  4.07468897179113624E-09  4.28356278618964406E-09
  4.50314267833470528E-09  4.73397731828601009E-09  4.97664348815153870E-09
  5.23174752195010680E-09  5.49992681918313676E-09  5.78185143588477733E-09
  6.07822575711292598E-09  6.38979025504607118E-09  6.71732333706400318E-09
  7.06164328841405116E-09  7.42361031438739544E-09  7.80412868703092594E-09
  8.20414900148258697E-09  8.62467054787113109E-09  9.06674380459872099E-09
  9.53147305919360018E-09  1.00200191632526031E-08  1.05336024283259920E-08
  1.10735056699727399E-08  1.16410774078468484E-08  1.22377352291229814E-08
  1.28649693237653819E-08  1.35243462008179397E-08  1.42175125947574836E-08
  1.49461995716119433E-08  1.57122268450453460E-08  1.65175073133164361E-08
  1.73640518287198655E-08  1.82539742097316716E-08  1.91894965096374599E-08
  2.01729545546768719E-08  2.12068037652596645E-08  2.22936252746975532E-08
  2.34361323609537247E-08  2.46371772079615483E-08  2.58997580104382113E-08
  2.72270264421484171E-08  2.86222955060562489E-08  3.00890477854850492E-08
  3.16309441167756968E-08  3.32518327063575085E-08  3.49557587125408651E-08
  3.67469743145080811E-08  3.86299492967984615E-08  4.06093821742489238E-08
  4.26902118848427823E-08  4.48776300811551344E-08  4.71770940492635186E-08
  4.95943402824989906E-08  5.21353987499741793E-08  5.48066078933668269E-08
  5.76146303887757726E-08  6.05664697157708406E-08  6.36694875698935398E-08
  6.69314221576786915E-08  7.03604074277596952E-08  7.39649932825631787E-08
  7.77541668210177887E-08  8.17373746698143775E-08  8.59245464432691671E-08
  9.03261193975380054E-08  9.49530643439192363E-08  9.98169128819678399E-08
  1.04929786025388468E-07  1.10304424284301416E-07  1.15954219265824357E-07
  1.21893246889939862E-07  1.28136302296262175E-07  1.34698936531200924E-07
  1.41597495109158952E-07  1.48849158511787844E-07  1.56471984753558409E-07
  1.64484954114068549E-07  1.72908016147897280E-07  1.81762139097526220E-07
  1.91069361785617779E-07  2.00852848148291656E-07  2.11136944543359170E-07
  2.21947239973270783E-07  2.33310629383927101E-07  2.45255380133117617E-07
  2.57811201837947903E-07  2.71009319772302943E-07  2.84882551995884783E-07
  2.99465390412775064E-07  3.14794085878717032E-07  3.30906737636293332E-07
  3.47843387286471546E-07  3.65646117540845352E-07  3.84359155975355356E-07
  4.04028983964240141E-07  4.24704451154256331E-07  4.46436895732558382E-07
  4.69280270819707404E-07  4.93291277198670008E-07  5.18529502699406928E-07
  5.45057568657233197E-07  5.72941283777912507E-07  6.02249805821822881E-07
  6.33055811309818742E-07  6.65435673801375048E-07  6.99469651177850297E-07
  7.35242082419082620E-07  7.72841594254662615E-07  8.12361318081386545E-07
  8.53899117856658593E-07  8.97557829471029951E-07  9.43445512244274528E-07
  9.91675712835643484E-07  1.04236774241366405E-06  1.09564696777094329E-06
  1.15164511714289614E-06  1.21050060125384185E-06  1.27235885025313485E-06
  1.33737266761550999E-06  1.40570260180412285E-06  1.47751733660517437E-06
  1.55299410058392163E-06  1.63231909707380023E-06  1.71568795566438848E-06
  1.80330620639641737E-06  1.89538977719429387E-06  1.99216551597596080E-06
  2.09387173883682509E-06  2.20075880568332025E-06  2.31308972423065673E-06
  2.43114078358453927E-06  2.55520221941692170E-06  2.68557891225042351E-06
  2.82259112031525662E-06  2.96657524792943760E-06  3.11788465204731320E-06
  3.27689048872932981E-06  3.44398260158218339E-06  3.61957045298149435E-06
  3.80408410123984496E-06  3.99797522591651073E-06  4.20171820385264963E-06
  4.41581123685198452E-06  4.64077753449562241E-06  4.87716655498254899E-06
  5.12555530707470352E-06  5.38654971439064115E-06  5.66078604573783533E-06
  5.94893241528459912E-06  6.25169035616144868E-06  6.56979646921194456E-06
  6.90402415075251257E-06  7.25518540422299201E-06  7.62413273989504346E-06
  8.01176116493122997E-06  8.41901026787009116E-06  8.84686640364651076E-06
  9.29636498399507416E-06  9.76859287614977908E-06  1.02646909142481925E-05
  1.07858565309103995E-05  1.13333465146508944E-05  1.19084798966551058E-05
  1.25126409718497646E-05  1.31472824632229940E-05  1.38139288360080290E-05
  1.45141797658223505E-05  1.52497137664852618E-05  1.60222919880584978E-05
  1.68337621928342747E-05  1.76860629137960903E-05  1.85812278024476992E-05
  1.95213901782002197E-05  2.05087877883082516E-05  2.15457677831074751E-05
  2.26347919151312055E-05  2.37784419759120236E-05  2.49794254808666199E-05
  2.62405816069620129E-05  2.75648873940724077E-05  2.89554642252892992E-05
  3.04155845980812635E-05  3.19486791906320328E-05  3.35583442373474009E-05
  3.52483492299339443E-05  3.70226449574100890E-05  3.88853718887653655E-05
  4.08408689160659661E-05  4.28936824750794922E-05  4.50485760579659022E-05
  4.73105401211582408E-05  4.96848024104757318E-05  5.21768387206724796E-05
  5.47923841044358525E-05  5.75374445339527608E-05  6.04183090410374132E-05
  6.34415623526946346E-05  6.66140980362534278E-05  6.99431321586168318E-05
  7.34362174880196926E-05  7.71012582545300040E-05  8.09465254808129772E-05
  8.49806728909442748E-05  8.92127534253255857E-05  9.36522363767689517E-05
  9.83090251552075849E-05  1.03193475693166091E-04  1.08316415516250447E-04
  1.13689163491271928E-04  1.19323550255013289E-04  1.25231939339139872E-04
  1.31427249008094757E-04  1.37922974817741839E-04  1.44733212894525927E-04
  1.51872683949408094E-04  1.59356758032742245E-04  1.67201480029764569E-04
  1.75423595895342582E-04  1.84040579632001447E-04  1.93070661003651520E-04
  2.02532853974542859E-04  2.12446985870088045E-04  2.22833727241953885E-04
  2.33714622411565178E-04  2.45112120673911585E-04  2.57049608145775571E-04
  2.69551440209708890E-04  2.82642974502212482E-04  2.96350604428166501E-04
  3.10701793148830229E-04  3.25725107957990491E-04  3.41450254961972791E-04
  3.57908114052062543E-04  3.75130774044327598E-04  3.93151567859483832E-04
  4.12005107631027582E-04  4.31727319719676700E-04  4.52355479407003233E-04
  4.73928245084676925E-04  4.96485691830418109E-04  5.20069344273203760E-04
  5.44722208414036985E-04  5.70488802137890253E-04  5.97415184355493773E-04
  6.25548982494086598E-04  6.54939417911099822E-04  6.85637328877318508E-04
  7.17695191129827316E-04  7.51167135415267175E-04  7.86108961511210809E-04
  8.22578148348440219E-04  8.60633860178184836E-04  9.00336947877447709E-04
  9.41749944752724374E-04  9.84937056596081519E-04  1.02996414559487120E-03
  1.07689870695325198E-03  1.12580983740605571E-03  1.17676819564829045E-03
  1.22984595359813516E-03  1.28511673723785322E-03  1.34265555612001603E-03
  1.40253872172352366E-03  1.46484375272095129E-03  1.52964926580883144E-03
  1.59703485147822018E-03  1.66708093444334999E-03  1.73986861621099379E-03
  1.81547949823529877E-03  1.89399548578736724E-03  1.97549857095143675E-03
  2.06007059213064291E-03  2.14779296840390127E-03  2.23874640963603495E-03
  2.33301059895490775E-03  2.43066384518482404E-03  2.53178270425261391E-03
  2.63644157010527180E-03  2.74471223058222287E-03  2.85666338595258473E-03
  2.97236013093253896E-03  3.09186339859389555E-03  3.21522936181935096E-03
  3.34250879030257003E-03  3.47374636601242110E-03  3.60897995248747952E-03
  3.74823981488369481E-03  3.89154779051291335E-03  4.03891641300955888E-03
  4.19034798392958589E-03  4.34583359017003297E-03  4.50535207083776427E-03
  4.66886893389409276E-03  4.83633521806768867E-03  5.00768630031641921E-03
  5.18284065688409939E-03  5.36169857462397148E-03  5.54414081223534964E-03
  5.73002721600439618E-03  5.91919529953791480E-03  6.11145878418739227E-03
  6.30660610479389597E-03  6.50439889251128080E-03  6.70457044207546562E-03
  6.90682416638901519E-03  7.11083204900937391E-03  7.31623311308266053E-03
  7.52263191361699900E-03  7.72959706607572513E-03  7.93665983042503125E-03
  8.14331277212452034E-03  8.34900851439083352E-03  8.55315860612171353E-03
  8.75513253320116085E-03  8.95425689802332482E-03  9.14981479653976734E-03
  9.34104542931857990E-03  9.52714397797684714E-03  9.70726178495823905E-03
  9.88050688292296288E-03  1.00459449186957768E-02  1.02026005063384443E-02
  1.03494590705312268E-02  1.04854692424238317E-02  1.06095458465255942E-02
  1.07205735331548906E-02  1.08174111374016758E-02  1.08988968358899301E-02
  1.09638541188214582E-02  1.10110986736230536E-02  1.10394462680310102E-02
  1.10477216807560175E-02  1.10347686968064324E-02  1.09994612935429559E-02
  1.09407160985828446E-02  1.08575060924318983E-02  1.07488756219040766E-02
  1.06139568294820481E-02  1.04519875336371443E-02  1.02623304422200402E-02
  1.00444938223712178E-02  9.79815365864094602E-03  9.52317718815930830E-03
  9.21964768331394631E-03  8.88789055633043036E-03  8.52850069947118199E-03
  8.14237071704291410E-03  7.73071997097104537E-03  7.29512432225183031E-03
  6.83754626005370243E-03  6.36036489269417409E-03  5.86640566954166678E-03
  5.35896943371216850E-03  4.84186014585786390E-03  4.31941071507472608E-03
  3.79650650088664450E-03  3.27860575622257585E-03  2.77175604057034765E-03
  2.28260595913680345E-03  1.81841134511907571E-03  1.38703480689244857E-03
  9.96937587797967024E-04  6.57162773112874264E-04  3.77308694583893629E-04
  1.67492715671203901E-04  3.82932025255443908E-05 -4.46084301336268605E-07
 -3.10622716142506256E-08 -9.05756215469060393E-10  2.36270085597336478E-11
  3.69930588091857983E-12  1.91787597472461399E-13  2.70954212635693883E-15
 -3.10413581774789269E-16 -2.71767604739454066E-17 -1.02967159448939431E-18
  6.15819395893640114E-21  2.87969627762948311E-21  1.79845402718307757E-22
  0.00000000000000000E+00  0.00000000000000000E+00  0.00000000000000000E+00
  0.00000000000000000E+00  0.00000000000000000E+00  0.00000000000000000E+00
  0.00000000000000000E+00  0.00000000000000000E+00  0.00000000000000000E+00
  0.00000000000000000E+00  0.00000000000000000E+00  0.00000000000000000E+00
  0.00000000000000000E+00  0.00000000000000000E+00  0.00000000000000000E+00
  0.00000000000000000E+00  0.00000000000000000E+00  0.00000000000000000E+00
  0.00000000000000000E+00  0.00000000000000000E+00  0.00000000000000000E+00
  0.00000000000000000E+00  0.00000000000000000E+00  0.00000000000000000E+00
  0.00000000000000000E+00  0.00000000000000000E+00  0.00000000000000000E+00
  0.00000000000000000E+00  0.00000000000000000E+00  0.00000000000000000E+00
  0.00000000000000000E+00  0.00000000000000000E+00  0.00000000000000000E+00
  0.00000000000000000E+00  0.00000000000000000E+00  0.00000000000000000E+00
  0.00000000000000000E+00  0.00000000000000000E+00  0.00000000000000000E+00
  0.00000000000000000E+00  0.00000000000000000E+00  0.00000000000000000E+00
  0.00000000000000000E+00  0.00000000000000000E+00  0.00000000000000000E+00
  0.00000000000000000E+00  0.00000000000000000E+00  0.00000000000000000E+00
  0.00000000000000000E+00  0.00000000000000000E+00  0.00000000000000000E+00
  0.00000000000000000E+00  0.00000000000000000E+00  0.00000000000000000E+00
  0.00000000000000000E+00  0.00000000000000000E+00  0.00000000000000000E+00
  0.00000000000000000E+00  0.00000000000000000E+00  0.00000000000000000E+00
  0.00000000000000000E+00  0.00000000000000000E+00  0.00000000000000000E+00
  0.00000000000000000E+00  0.00000000000000000E+00  0.00000000000000000E+00
  0.00000000000000000E+00  0.00000000000000000E+00  0.00000000000000000E+00
  0.00000000000000000E+00  0.00000000000000000E+00  0.00000000000000000E+00
  0.00000000000000000E+00  0.00000000000000000E+00  0.00000000000000000E+00
  0.00000000000000000E+00  0.00000000000000000E+00  0.00000000000000000E+00
  0.00000000000000000E+00  0.00000000000000000E+00  0.00000000000000000E+00
  0.00000000000000000E+00  0.00000000000000000E+00  0.00000000000000000E+00
  0.00000000000000000E+00  0.00000000000000000E+00  0.00000000000000000E+00
  0.00000000000000000E+00  0.00000000000000000E+00  0.00000000000000000E+00
  0.00000000000000000E+00  0.00000000000000000E+00  0.00000000000000000E+00
  0.00000000000000000E+00  0.00000000000000000E+00  0.00000000000000000E+00
  0.00000000000000000E+00  0.00000000000000000E+00  0.00000000000000000E+00
  0.00000000000000000E+00  0.00000000000000000E+00  0.00000000000000000E+00
  0.00000000000000000E+00  0.00000000000000000E+00  0.00000000000000000E+00
  0.00000000000000000E+00  0.00000000000000000E+00  0.00000000000000000E+00
  0.00000000000000000E+00  0.00000000000000000E+00  0.00000000000000000E+00
  0.00000000000000000E+00  0.00000000000000000E+00  0.00000000000000000E+00
  0.00000000000000000E+00  0.00000000000000000E+00  0.00000000000000000E+00
  0.00000000000000000E+00  0.00000000000000000E+00  0.00000000000000000E+00
  0.00000000000000000E+00  0.00000000000000000E+00  0.00000000000000000E+00
  0.00000000000000000E+00  0.00000000000000000E+00  0.00000000000000000E+00
  0.00000000000000000E+00  0.00000000000000000E+00  0.00000000000000000E+00
  0.00000000000000000E+00  0.00000000000000000E+00  0.00000000000000000E+00
  0.00000000000000000E+00  0.00000000000000000E+00  0.00000000000000000E+00
  0.00000000000000000E+00  0.00000000000000000E+00  0.00000000000000000E+00
  0.00000000000000000E+00  0.00000000000000000E+00  0.00000000000000000E+00
  0.00000000000000000E+00  0.00000000000000000E+00  0.00000000000000000E+00
  0.00000000000000000E+00  0.00000000000000000E+00  0.00000000000000000E+00
  0.00000000000000000E+00  0.00000000000000000E+00  0.00000000000000000E+00
  0.00000000000000000E+00  0.00000000000000000E+00  0.00000000000000000E+00
  0.00000000000000000E+00  0.00000000000000000E+00  0.00000000000000000E+00
  0.00000000000000000E+00  0.00000000000000000E+00  0.00000000000000000E+00
  0.00000000000000000E+00  0.00000000000000000E+00  0.00000000000000000E+00
  0.00000000000000000E+00  0.00000000000000000E+00  0.00000000000000000E+00
  0.00000000000000000E+00  0.00000000000000000E+00  0.00000000000000000E+00
  0.00000000000000000E+00  0.00000000000000000E+00  0.00000000000000000E+00
  0.00000000000000000E+00  0.00000000000000000E+00  0.00000000000000000E+00
  0.00000000000000000E+00  0.00000000000000000E+00  0.00000000000000000E+00
                       </PP_QIJL.3.3.2>
 <PP_QIJL.3.4.0 type="real" size="   888" columns="3" first_index=" 3" second_index=" 4" composite_index=" 9" angular_momentum="0">
  8.05189554969945868E-08  8.25573023778719986E-08  8.46472502463756235E-08
  8.67901053872479211E-08  8.89872071539650311E-08  9.12399288058668072E-08
  9.35496783664945437E-08  9.59178995036487847E-08  9.83460724317190439E-08
  1.00835714836873434E-07  1.03388382825655432E-07  1.06005671897593800E-07
  1.08689217942448768E-07  1.11440698262686280E-07  1.14261832621844084E-07
  1.17154384319443634E-07  1.20120161293096185E-07  1.23161017248526755E-07
  1.26278852818197174E-07  1.29475616749251726E-07  1.32753307121555051E-07
  1.36113972596542701E-07  1.39559713697701176E-07  1.43092684123462981E-07
  1.46715092093322692E-07  1.50429201728054561E-07  1.54237334464843397E-07
  1.58141870508261742E-07  1.62145250317966805E-07  1.66249976134056902E-07
  1.70458613541056513E-07  1.74773793071468290E-07  1.79198211849951808E-07
  1.83734635279089491E-07  1.88385898767860676E-07  1.93154909503844127E-07
  1.98044648270303345E-07  2.03058171309261684E-07  2.08198612231741034E-07
  2.13469183976367592E-07  2.18873180817541505E-07  2.24413980424466944E-07
  2.30095045972280057E-07  2.35919928306647488E-07  2.41892268163134336E-07
  2.48015798442780991E-07  2.54294346545260438E-07  2.60731836761125723E-07
  2.67332292724590631E-07  2.74099839928426988E-07  2.81038708302504588E-07
  2.88153234857621310E-07  2.95447866396258268E-07  3.02927162291946636E-07
  3.10595797339019526E-07  3.18458564674465323E-07  3.26520378773795179E-07
  3.34786278522701272E-07  3.43261430366517473E-07  3.51951131539378244E-07
  3.60860813375131570E-07  3.69996044702079776E-07  3.79362535323628486E-07
  3.88966139587086151E-07  3.98812860042770883E-07  4.08908851195765819E-07
  4.19260423352655559E-07  4.29874046565612587E-07  4.40756354676365860E-07
  4.51914149462515979E-07  4.63354404888808736E-07  4.75084271466059310E-07
  4.87111080720385559E-07  4.99442349775595593E-07  5.12085786051592183E-07
  5.25049292081678255E-07  5.38340970451840792E-07  5.51969128865071571E-07
  5.65942285333867487E-07  5.80269173504193568E-07  5.94958748114222274E-07
  6.10020190591250550E-07  6.25462914790294789E-07  6.41296572877974595E-07
  6.57531061365339044E-07  6.74176527293390105E-07  6.91243374575214937E-07
  7.08742270498661962E-07  7.26684152393622636E-07  7.45080234468091107E-07
  7.63942014817275883E-07  7.83281282610154838E-07  8.03110125457944207E-07
  8.23440936969089099E-07  8.44286424495519882E-07  8.65659617074987798E-07
  8.87573873574468300E-07  9.10042891039700031E-07  9.33080713256083081E-07
  9.56701739526304920E-07  9.80920733670151435E-07  1.00575283325215522E-06
  1.03121355904282464E-06  1.05731882471937864E-06  1.08408494681205890E-06
  1.11152865490219813E-06  1.13966710207847798E-06  1.16851787565785582E-06
  1.19809900817788985E-06  1.22842898866733097E-06  1.25952677420200010E-06
  1.29141180175321131E-06  1.32410400033611862E-06  1.35762380346558329E-06
  1.39199216192736324E-06  1.42723055687256290E-06  1.46336101324358483E-06
  1.50040611353992835E-06  1.53838901193245560E-06  1.57733344873495282E-06
  1.61726376524199934E-06  1.65820491894246678E-06  1.70018249911810708E-06
  1.74322274283700684E-06  1.78735255135190700E-06  1.83259950691358723E-06
  1.87899189000989498E-06  1.92655869704113647E-06  1.97532965844289550E-06
  2.02533525726761773E-06  2.07660674823652217E-06  2.12917617727382390E-06
  2.18307640153540376E-06  2.23834110994448257E-06  2.29500484424711026E-06
  2.35310302060065977E-06  2.41267195170874698E-06  2.47374886951650529E-06
  2.53637194848031286E-06  2.60058032942655461E-06  2.66641414401433779E-06
  2.73391453981738605E-06  2.80312370604087285E-06  2.87408489988919370E-06
  2.94684247360117794E-06  3.02144190216965959E-06  3.09792981176264798E-06
  3.17635400886396282E-06  3.25676351015145402E-06  3.33920857313152962E-06
  3.42374072754913566E-06  3.51041280759272683E-06  3.59927898491448260E-06
  3.69039480248627807E-06  3.78381720931264425E-06  3.87960459602242714E-06
  3.97781683136124348E-06  4.07851529960769247E-06  4.18176293893658673E-06
  4.28762428075325562E-06  4.39616549002349871E-06  4.50745440662423748E-06
  4.62156058774085504E-06  4.73855535133770459E-06  4.85851182072888820E-06
  4.98150497027716242E-06  5.10761167224941310E-06  5.23691074485830675E-06
  5.36948300151975854E-06  5.50541130135708375E-06  5.64478060098361412E-06
  5.78767800759582164E-06  5.93419283341021257E-06  6.08441665147811884E-06
  6.23844335291318875E-06  6.39636920556712187E-06  6.55829291419061109E-06
  6.72431568211701767E-06  6.89454127450688254E-06  7.06907608319354826E-06
  7.24802919316971260E-06  7.43151245075660029E-06  7.61964053349878068E-06
  7.81253102182749860E-06  8.01030447253800178E-06  8.21308449412645022E-06
  8.42099782403311060E-06  8.63417440784106166E-06  8.85274748047845782E-06
  9.07685364947664341E-06  9.30663298033462943E-06  9.54222908404438191E-06
  9.78378920683082354E-06  1.00314643221630441E-05  1.02854092250939704E-05
  1.05457826289873753E-05  1.08127472646927757E-05  1.10864699822298748E-05
  1.13671218550465302E-05  1.16548782869145679E-05  1.19499191215311972E-05
  1.22524287548932332E-05  1.25625962505155114E-05  1.28806154575645005E-05
  1.32066851319812289E-05  1.35410090606694778E-05  1.38837961888255345E-05
  1.42352607504910437E-05  1.45956224024078652E-05  1.49651063612612171E-05
  1.53439435443942533E-05  1.57323707140837163E-05  1.61306306254659026E-05
  1.65389721782048956E-05  1.69576505719992200E-05  1.73869274660216762E-05
  1.78270711423940292E-05  1.82783566737973393E-05  1.87410660953222414E-05
  1.92154885806681054E-05  1.97019206227986503E-05  2.02006662191682046E-05
  2.07120370616346798E-05  2.12363527311753276E-05  2.17739408975295189E-05
  2.23251375238918958E-05  2.28902870767819895E-05  2.34697427412243679E-05
  2.40638666413713406E-05  2.46730300667053908E-05  2.52976137039643344E-05
  2.59380078749325461E-05  2.65946127802460229E-05  2.72678387493642622E-05
  2.79581064968650670E-05  2.86658473852209565E-05  2.93915036942205290E-05
  3.01355288972050157E-05  3.08983879442904899E-05  3.16805575527517042E-05
  3.24825265047495393E-05  3.33047959525877330E-05  3.41478797316886572E-05
  3.50123046814824256E-05  3.58986109744099206E-05  3.68073524532451597E-05
  3.77390969769467153E-05  3.86944267752524593E-05  3.96739388122393583E-05
  4.06782451590754533E-05  4.17079733761949119E-05  4.27637669051346089E-05
  4.38462854702753347E-05  4.49562054907382978E-05  4.60942205026938182E-05
  4.72610415923440915E-05  4.84573978398498026E-05  4.96840367744760567E-05
  5.09417248412416063E-05  5.22312478793611769E-05  5.35534116127785772E-05
  5.49090421530959406E-05  5.62989865152104863E-05  5.77241131459807217E-05
  5.91853124662499331E-05  6.06834974265633878E-05  6.22196040769260218E-05
  6.37945921509530336E-05  6.54094456647770923E-05  6.70651735310837989E-05
  6.87628101886561440E-05  7.05034162478202956E-05  7.22880791521915249E-05
  7.41179138571319715E-05  7.59940635253417840E-05  7.79177002400138476E-05
  7.98900257359954973E-05  8.19122721494098307E-05  8.39857027862022157E-05
  8.61116129100879604E-05  8.82913305503890071E-05  9.05262173302617584E-05
  9.28176693158268453E-05  9.51671178867292196E-05  9.75760306286658249E-05
  1.00045912248433622E-04  1.02578305512065874E-04  1.05174792206634378E-04
  1.07836994126315463E-04  1.10566574083328332E-04  1.13365236944369029E-04
  1.16234730693185197E-04  1.19176847519942287E-04  1.22193424938059797E-04
  1.25286346929203633E-04  1.28457545117141998E-04  1.31708999971191402E-04
  1.35042742039991721E-04  1.38460853216375020E-04  1.41965468034105531E-04
  1.45558774997290089E-04  1.49243017943279967E-04  1.53020497439901169E-04
  1.56893572217874962E-04  1.60864660639310411E-04  1.64936242203169705E-04
  1.69110859088636477E-04  1.73391117737330960E-04  1.77779690475347613E-04
  1.82279317176110470E-04  1.86892806965064892E-04  1.91623039967256099E-04
  1.96472969098860864E-04  2.01445621903774673E-04  2.06544102436379061E-04
  2.11771593191638607E-04  2.17131357083714531E-04  2.22626739474299251E-04
  2.28261170251916977E-04  2.34038165963458848E-04  2.39961331999251701E-04
  2.46034364832999812E-04  2.52261054317959841E-04  2.58645286040752554E-04
  2.65191043734244215E-04  2.71902411750964839E-04  2.78783577598570051E-04
  2.85838834538887929E-04  2.93072584252126024E-04  3.00489339567862898E-04
  3.08093727264470766E-04  3.15890490938676633E-04  3.23884493946992172E-04
  3.32080722420793710E-04  3.40484288356879825E-04  3.49100432785365137E-04
  3.57934529016828951E-04  3.66992085970676391E-04  3.76278751586711668E-04
  3.85800316321987212E-04  3.95562716735017926E-04  4.05572039159524025E-04
  4.15834523469902479E-04  4.26356566940681164E-04  4.37144728202276895E-04
  4.48205731295407120E-04  4.59546469826590902E-04  4.71174011227210878E-04
  4.83095601118680178E-04  4.95318667786315519E-04  5.07850826764559603E-04
  5.20699885536291766E-04  5.33873848349006308E-04  5.47380921150703980E-04
  5.61229516648427927E-04  5.75428259492404242E-04  5.89985991588878617E-04
  6.04911777544759450E-04  6.20214910247259736E-04  6.35904916581818652E-04
  6.51991563291642699E-04  6.68484862982302811E-04  6.85395080274881245E-04
  7.02732738111233883E-04  7.20508624215102154E-04  7.38733797712759228E-04
  7.57419595917047540E-04  7.76577641278723457E-04  7.96219848509110550E-04
  8.16358431878173407E-04  8.37005912692155075E-04  8.58175126955173346E-04
  8.79879233219072496E-04  9.02131720626000630E-04  9.24946417148318116E-04
  9.48337498030481490E-04  9.72319494437662172E-04  9.96907302316033320E-04
  1.02211619146974782E-03  1.04796181485960864E-03  1.07446021812865637E-03
  1.10162784935999487E-03  1.12948156907222955E-03  1.15803866045809047E-03
  1.18731683987205049E-03  1.21733426757249805E-03  1.24810955872442530E-03
  1.27966179466864369E-03  1.31201053446354651E-03  1.34517582670585795E-03
  1.37917822163683085E-03  1.41403878354017030E-03  1.44977910343841343E-03
  1.48642131209448971E-03  1.52398809332523707E-03  1.56250269763434473E-03
  1.60198895617165156E-03  1.64247129502599382E-03  1.68397474985908951E-03
  1.72652498088790899E-03  1.77014828822339636E-03  1.81487162757381693E-03
  1.86072262632009169E-03  1.90772959997143293E-03  1.95592156900945913E-03
  2.00532827612905432E-03  2.05598020388549985E-03  2.10790859275566175E-03
  2.16114545962217729E-03  2.21572361668958976E-03  2.27167669084118616E-03
  2.32903914344722001E-03  2.38784629063278032E-03  2.44813432401483171E-03
  2.50994033191806595E-03  2.57330232107891863E-03  2.63825923884955385E-03
  2.70485099591039925E-03  2.77311848950133289E-03  2.84310362718174928E-03
  2.91484935112954402E-03  2.98839966299201164E-03  3.06379964929698063E-03
  3.14109550743518979E-03  3.22033457222417781E-03  3.30156534306520234E-03
  3.38483751170645837E-03  3.47020199062062070E-03  3.55771094200857743E-03
  3.64741780743921534E-03  3.73937733813951064E-03  3.83364562594621728E-03
  3.93028013492780111E-03  4.02933973368860797E-03  4.13088472836511782E-03
  4.23497689633164313E-03  4.34167952062206822E-03  4.45105742507870446E-03
  4.56317701023817041E-03  4.67810628996816018E-03  4.79591492886942763E-03
  4.91667428044765577E-03  5.04045742606715631E-03  5.16733921469454856E-03
  5.29739630345262610E-03  5.43070719898753902E-03  5.56735229965812754E-03
  5.70741393855477876E-03  5.85097642736342842E-03  5.99812610108679811E-03
  6.14895136362220152E-03  6.30354273420509394E-03  6.46199289472467603E-03
  6.62439673793401452E-03  6.79085141654619650E-03  6.96145639322375172E-03
  7.13631349146129617E-03  7.31552694738481744E-03  7.49920346246196138E-03
  7.68745225711992431E-03  7.88038512526922051E-03  8.07811648974799019E-03
  8.28076345869238617E-03  8.48844588281344806E-03  8.70128641357791402E-03
  8.91941056229366043E-03  9.14294676011874301E-03  9.37202641895711584E-03
  9.60678399323519269E-03  9.84735704254423479E-03  1.00938862951774119E-02
  1.03465157125112242E-02  1.06053925542150974E-02  1.08706674442606115E-02
  1.11424944377605667E-02  1.14210310885812308E-02  1.17064385176923868E-02
  1.19988814822141830E-02  1.22985284451857003E-02  1.26055516459960340E-02
  1.29201271714159890E-02  1.32424350271760777E-02  1.35726592101050193E-02
  1.39109877807685918E-02  1.42576129365132864E-02  1.46127310848448242E-02
  1.49765429171410912E-02  1.53492534826368838E-02  1.57310722625451267E-02
  1.61222132442240609E-02  1.65228949953735507E-02  1.69333407381912077E-02
  1.73537784233057969E-02  1.77844408033718190E-02  1.82255655062909111E-02
  1.86773951079762801E-02  1.91401772044238819E-02  1.96141644829406700E-02
  2.00996147924792645E-02  2.05967912129694994E-02  2.11059621233488579E-02
  2.16274012680994186E-02  2.21613878222282831E-02  2.27082064545387971E-02
  2.32681473888251000E-02  2.38415064627444488E-02  2.44285851842984160E-02
  2.50296907857021980E-02  2.56451362741985586E-02  2.62752404795053990E-02
  2.69203280978318645E-02  2.75807297321394550E-02  2.82567819281247141E-02
  2.89488272055330072E-02  2.96572140847553289E-02  3.03822971082341048E-02
  3.11244368560755491E-02  3.18839999553848438E-02  3.26613590833049472E-02
  3.34568929630767731E-02  3.42709863524418151E-02  3.51040300238050496E-02
  3.59564207361662558E-02  3.68285611978687102E-02  3.77208600194119253E-02
  3.86337316556578103E-02  3.95675963374354719E-02  4.05228799912770860E-02
  4.15000141464462458E-02  4.24994358285454149E-02  4.35215874396132144E-02
  4.45669166231210875E-02  4.56358761129118315E-02  4.67289235654074625E-02
  4.78465213747406512E-02  4.89891364689435185E-02  5.01572400860638493E-02
  5.13513075296822205E-02  5.25718179030122343E-02  5.38192538195288728E-02
  5.50941010887785604E-02  5.63968483770737258E-02  5.77279868415505534E-02
  5.90880097354541597E-02  6.04774119830865167E-02  6.18966897243505773E-02
  6.33463398264831196E-02  6.48268593608467836E-02  6.63387450431025677E-02
  6.78824926367342374E-02  6.94585963166235443E-02  7.10675479905424207E-02
  7.27098365770485894E-02  7.43859472392954246E-02  7.60963605708590285E-02
  7.78415517313180289E-02  7.96219895305665115E-02  8.14381354603056079E-02
  8.32904426686657817E-02  8.51793548754792573E-02  8.71053052278441681E-02
  8.90687150929036914E-02  9.10699927840555590E-02  9.31095322180101742E-02
  9.51877115027877363E-02  9.73048914520189268E-02  9.94614140222392362E-02
  1.01657600670948534E-01  1.03893750635166010E-01  1.06170139124973917E-01
  1.08487015429124325E-01  1.10844600931427215E-01  1.13243087036259418E-01
  1.15682632997971380E-01  1.18163363651540843E-01  1.20685367044316191E-01
  1.23248691965408802E-01  1.25853345368728609E-01  1.28499289687565327E-01
  1.31186440041117625E-01  1.33914661328485035E-01  1.36683765207770563E-01
  1.39493506959355112E-01  1.42343582233224492E-01  1.45233623676701118E-01
  1.48163197441941480E-01  1.51131799573584857E-01  1.54138852275771648E-01
  1.57183700057581088E-01  1.60265605758247387E-01  1.63383746453004436E-01
  1.66537209240104289E-01  1.69724986911686443E-01  1.72945973512193901E-01
  1.76198959784767295E-01  1.79482628511018066E-01  1.82795549750955549E-01
  1.86136175987886371E-01  1.89502837180505007E-01  1.92893735734885580E-01
  1.96306941408247893E-01  1.99740386147143290E-01  2.03191858871049041E-01
  2.06659000221354777E-01  2.10139297293073846E-01  2.13630078347820135E-01
  2.17128507536741261E-01  2.20631579660232835E-01  2.24136114982020462E-01
  2.27638754100543933E-01  2.31135952926531885E-01  2.34623977802802614E-01
  2.38098900772841987E-01  2.41556595026715948E-01  2.44992730587093394E-01
  2.48402770281662272E-01  2.51781965991152823E-01  2.55125355249575247E-01
  2.58427758267042118E-01  2.61683775417167475E-01  2.64887785183221591E-01
  2.68033942688218674E-01  2.71116178890024651E-01  2.74128200448099768E-01
  2.77063490315674621E-01  2.79915309204206209E-01  2.82676698013709149E-01
  2.85340481184052031E-01  2.87899271129396728E-01  2.90345473899971562E-01
  2.92671296140951942E-01  2.94868753305587372E-01  2.96929679380150691E-01
  2.98845738263422034E-01  3.00608436774783883E-01  3.02209139371135360E-01
  3.03639084845787055E-01  3.04889405149345649E-01  3.05951146182590616E-01
  3.06815290849109468E-01  3.07472784591733772E-01  3.07914563465688351E-01
  3.08131584598675845E-01  3.08114859465312030E-01  3.07855490146024480E-01
  3.07344708398477329E-01  3.06573917618062020E-01  3.05534738063577449E-01
  3.04219055446585618E-01  3.02619072468084394E-01  3.00727363699343830E-01
  2.98536934001416454E-01  2.96041280340213098E-01  2.93234456599909876E-01
  2.90111141889717594E-01  2.86666712346758168E-01  2.82897315856821985E-01
  2.78799949637812683E-01  2.74372540916776153E-01  2.69614030455929798E-01
  2.64524457989904649E-01  2.59105049838666890E-01  2.53358308478176475E-01
  2.47288103336036902E-01  2.40899761958685787E-01  2.34200161631906628E-01
  2.27197820798945876E-01  2.19902988963087576E-01  2.12327734537441165E-01
  2.04486030071883540E-01  1.96393833710319377E-01  1.88069165314295655E-01
  1.79532176656710479E-01  1.70805214368994207E-01  1.61912873985092381E-01
  1.52882043656965921E-01  1.43741936241112894E-01  1.34524107844123136E-01
  1.25262461102782968E-01  1.15993231579944872E-01  1.06754955157741166E-01
  9.75884142636312540E-02  8.85365616517862358E-02  7.96444192626838132E-02
  7.09589496012998644E-02  6.25288982944043475E-02  5.44046064371615581E-02
  4.66377896682031237E-02  3.92812816521979705E-02  3.23887427985412243E-02
  2.60143315180708760E-02  2.02123355976346064E-02  1.50367634955333087E-02
  1.05408979889906902E-02  6.77680882995508604E-03  3.79482495463167539E-03
  1.64298369070921724E-03  3.66354395341785455E-04 -4.17468122296272821E-06
 -2.90696358652684837E-07 -8.47652215954149969E-09  2.21113427873683822E-10
  3.46199647752785940E-11  1.79484478509336384E-12  2.53572578184091801E-14
 -2.90500640194229832E-15 -2.54333791419418323E-16 -9.63618459214195689E-18
  5.76314759580714938E-20  2.69496459347336144E-20  1.68308372098107151E-21
  0.00000000000000000E+00  0.00000000000000000E+00  0.00000000000000000E+00
  0.00000000000000000E+00  0.00000000000000000E+00  0.00000000000000000E+00
  0.00000000000000000E+00  0.00000000000000000E+00  0.00000000000000000E+00
  0.00000000000000000E+00  0.00000000000000000E+00  0.00000000000000000E+00
  0.00000000000000000E+00  0.00000000000000000E+00  0.00000000000000000E+00
  0.00000000000000000E+00  0.00000000000000000E+00  0.00000000000000000E+00
  0.00000000000000000E+00  0.00000000000000000E+00  0.00000000000000000E+00
  0.00000000000000000E+00  0.00000000000000000E+00  0.00000000000000000E+00
  0.00000000000000000E+00  0.00000000000000000E+00  0.00000000000000000E+00
  0.00000000000000000E+00  0.00000000000000000E+00  0.00000000000000000E+00
  0.00000000000000000E+00  0.00000000000000000E+00  0.00000000000000000E+00
  0.00000000000000000E+00  0.00000000000000000E+00  0.00000000000000000E+00
  0.00000000000000000E+00  0.00000000000000000E+00  0.00000000000000000E+00
  0.00000000000000000E+00  0.00000000000000000E+00  0.00000000000000000E+00
  0.00000000000000000E+00  0.00000000000000000E+00  0.00000000000000000E+00
  0.00000000000000000E+00  0.00000000000000000E+00  0.00000000000000000E+00
  0.00000000000000000E+00  0.00000000000000000E+00  0.00000000000000000E+00
  0.00000000000000000E+00  0.00000000000000000E+00  0.00000000000000000E+00
  0.00000000000000000E+00  0.00000000000000000E+00  0.00000000000000000E+00
  0.00000000000000000E+00  0.00000000000000000E+00  0.00000000000000000E+00
  0.00000000000000000E+00  0.00000000000000000E+00  0.00000000000000000E+00
  0.00000000000000000E+00  0.00000000000000000E+00  0.00000000000000000E+00
  0.00000000000000000E+00  0.00000000000000000E+00  0.00000000000000000E+00
  0.00000000000000000E+00  0.00000000000000000E+00  0.00000000000000000E+00
  0.00000000000000000E+00  0.00000000000000000E+00  0.00000000000000000E+00
  0.00000000000000000E+00  0.00000000000000000E+00  0.00000000000000000E+00
  0.00000000000000000E+00  0.00000000000000000E+00  0.00000000000000000E+00
  0.00000000000000000E+00  0.00000000000000000E+00  0.00000000000000000E+00
  0.00000000000000000E+00  0.00000000000000000E+00  0.00000000000000000E+00
  0.00000000000000000E+00  0.00000000000000000E+00  0.00000000000000000E+00
  0.00000000000000000E+00  0.00000000000000000E+00  0.00000000000000000E+00
  0.00000000000000000E+00  0.00000000000000000E+00  0.00000000000000000E+00
  0.00000000000000000E+00  0.00000000000000000E+00  0.00000000000000000E+00
  0.00000000000000000E+00  0.00000000000000000E+00  0.00000000000000000E+00
  0.00000000000000000E+00  0.00000000000000000E+00  0.00000000000000000E+00
  0.00000000000000000E+00  0.00000000000000000E+00  0.00000000000000000E+00
  0.00000000000000000E+00  0.00000000000000000E+00  0.00000000000000000E+00
  0.00000000000000000E+00  0.00000000000000000E+00  0.00000000000000000E+00
  0.00000000000000000E+00  0.00000000000000000E+00  0.00000000000000000E+00
  0.00000000000000000E+00  0.00000000000000000E+00  0.00000000000000000E+00
  0.00000000000000000E+00  0.00000000000000000E+00  0.00000000000000000E+00
  0.00000000000000000E+00  0.00000000000000000E+00  0.00000000000000000E+00
  0.00000000000000000E+00  0.00000000000000000E+00  0.00000000000000000E+00
  0.00000000000000000E+00  0.00000000000000000E+00  0.00000000000000000E+00
  0.00000000000000000E+00  0.00000000000000000E+00  0.00000000000000000E+00
  0.00000000000000000E+00  0.00000000000000000E+00  0.00000000000000000E+00
  0.00000000000000000E+00  0.00000000000000000E+00  0.00000000000000000E+00
  0.00000000000000000E+00  0.00000000000000000E+00  0.00000000000000000E+00
  0.00000000000000000E+00  0.00000000000000000E+00  0.00000000000000000E+00
  0.00000000000000000E+00  0.00000000000000000E+00  0.00000000000000000E+00
  0.00000000000000000E+00  0.00000000000000000E+00  0.00000000000000000E+00
  0.00000000000000000E+00  0.00000000000000000E+00  0.00000000000000000E+00
  0.00000000000000000E+00  0.00000000000000000E+00  0.00000000000000000E+00
  0.00000000000000000E+00  0.00000000000000000E+00  0.00000000000000000E+00
  0.00000000000000000E+00  0.00000000000000000E+00  0.00000000000000000E+00
  0.00000000000000000E+00  0.00000000000000000E+00  0.00000000000000000E+00
  0.00000000000000000E+00  0.00000000000000000E+00  0.00000000000000000E+00
  0.00000000000000000E+00  0.00000000000000000E+00  0.00000000000000000E+00
  0.00000000000000000E+00  0.00000000000000000E+00  0.00000000000000000E+00
                       </PP_QIJL.3.4.0>
 <PP_QIJL.3.4.2 type="real" size="   888" columns="3" first_index=" 3" second_index=" 4" composite_index=" 9" angular_momentum="2">
  5.00232191343055576E-15  5.25879586516479791E-15  5.52842015142738541E-15
  5.81186885696442825E-15  6.10984914822685587E-15  6.42310788846788613E-15
  6.75242819268281288E-15  7.09863193873275923E-15  7.46258679319529394E-15
  7.84520217148373077E-15  8.24743362084698036E-15  8.67028904079799838E-15
  9.11482427872001253E-15  9.58215080921023621E-15  1.00734388761930843E-14
  1.05899146176455264E-14  1.11328711076048175E-14  1.17036661359119865E-14
  1.23037251627383762E-14  1.29345512213623053E-14  1.35977195408722140E-14
  1.42948893018563901E-14  1.50278045426347522E-14  1.57982957223034931E-14
  1.66082923352308431E-14  1.74598171433152514E-14  1.83550011604210980E-14
  1.92960824096131147E-14  2.02854130796645261E-14  2.13254691897649754E-14
  2.24188484085898462E-14  2.35682880772547260E-14  2.47766592335397040E-14
  2.60469861006641451E-14  2.73824432176946150E-14  2.87863710583824595E-14
  3.02622798335940597E-14  3.18138596804125284E-14  3.34449913972912202E-14
  3.51597520824321267E-14  3.69624315286712461E-14  3.88575350543674164E-14
  4.08498039372377039E-14  4.29442172258206504E-14  4.51460147354749835E-14
  4.74606994693213106E-14  4.98940618154740085E-14  5.24521842517726047E-14
  5.51414651919105347E-14  5.79686280292370774E-14  6.09407426190193629E-14
  6.40652412037874635E-14  6.73499352345347500E-14  7.08030406273633385E-14
  7.44331884736902219E-14  7.82494601575544212E-14  8.22613940356271636E-14
  8.64790257845689275E-14  9.09128992777531691E-14  9.55741020196640651E-14
  1.00474291065966799E-13  1.05625715901390861E-13  1.11041262044553854E-13
  1.16734467654691905E-13  1.22719570153672271E-13  1.29011536809418720E-13
  1.35626097003059809E-13  1.42579794671560125E-13  1.49890015719516709E-13
  1.57575038175225993E-13  1.65654082188133017E-13  1.74147346219204938E-13
  1.83076068361808810E-13  1.92462577770756741E-13  2.02330342049090911E-13
  2.12704036679154055E-13  2.23609603804529168E-13  2.35074309882086344E-13
  2.47126822631146893E-13  2.59797282567593813E-13  2.73117370544393045E-13
  2.87120391604147197E-13  3.01841363792032522E-13  3.17317097365617659E-13
  3.33586286624198215E-13  3.50689613841452715E-13  3.68669848534131393E-13
  3.87571949830851559E-13  4.07443180089060540E-13  4.28333229036044932E-13
  4.50294334472501310E-13  4.73381410110363417E-13  4.97652183398585942E-13
  5.23167343714256208E-13  5.49990694151307359E-13  5.78189307485423514E-13
  6.07833694011202935E-13  6.38997978303119640E-13  6.71760087337958738E-13
  7.06201944777656468E-13  7.42409673608405619E-13  7.80473811632293985E-13
  8.20489538059929589E-13  8.62556911789470380E-13  9.06781123125587066E-13
  9.53272756305093351E-13  1.00214806483507414E-12  1.05352926227693168E-12
  1.10754482795361468E-12  1.16432982830866535E-12  1.22402625472078462E-12
  1.28678337862041467E-12  1.35275812500867541E-12  1.42211546500369841E-12
  1.49502882784945391E-12  1.57168053455101401E-12  1.65226225380539751E-12
  1.73697548129800955E-12  1.82603204356418669E-12  1.91965462767685910E-12
  2.01807733808585460E-12  2.12154628200244320E-12  2.23032018479387523E-12
  2.34467103692778462E-12  2.46488477408507142E-12  2.59126199214252124E-12
  2.72411869881366222E-12  2.86378710382744204E-12  3.01061644962049042E-12
  3.16497388461955053E-12  3.32724538129647029E-12  3.49783670128978347E-12
  3.67717441000344279E-12  3.86570694321638909E-12  4.06390572836548464E-12
  4.27226636330002931E-12  4.49130985544808666E-12  4.72158392448491771E-12
  4.96366437204426837E-12  5.21815652250185201E-12  5.48569673611661765E-12
  5.76695399993194427E-12  6.06263160041199582E-12  6.37346888175596419E-12
  6.70024309426439658E-12  7.04377133735343994E-12  7.40491260273355453E-12
  7.78456992702154235E-12  8.18369264811479899E-12  8.60327877613489318E-12
  9.04437748794077987E-12  9.50809174928644194E-12  9.99558107413249466E-12
  1.05080644350367665E-11  1.10468233030921189E-11  1.16132048466736767E-11
  1.22086252974073368E-11  1.28345734985385830E-11  1.34926146432847544E-11
  1.41843941689420449E-11  1.49116418637532925E-11  1.56761761979931053E-11
  1.64799089009387660E-11  1.73248497120673206E-11  1.82131113911568517E-11
  1.91469150250414932E-11  2.01285956059254465E-11  2.11606078203118075E-11
  2.22455321859299519E-11  2.33860815686363608E-11  2.45851079145306901E-11
  2.58456093512502805E-11  2.71707377677817878E-11  2.85638066525847533E-11
  3.00282993258151396E-11  3.15678777584029709E-11  3.31863916614046429E-11
  3.48878880683549463E-11  3.66766215905045007E-11  3.85570649180066646E-11
  4.05339200495988051E-11  4.26121301287108839E-11  4.47968916319176673E-11
  4.70936675559914451E-11  4.95082009397970462E-11  5.20465292512388859E-11
  5.47149995821086989E-11  5.75202843150023532E-11  6.04693980753903142E-11
  6.35697149880357148E-11  6.68289873686637946E-11  7.02553649132879663E-11
  7.38574151979295780E-11  7.76441450542883657E-11  8.16250230673613074E-11
  8.58100033342869829E-11  9.02095502217542394E-11  9.48346646982333668E-11
  9.96969116522085154E-11  1.04808449004374584E-10  1.10182057921106008E-10
  1.15831174930955624E-10  1.21769925410861165E-10  1.28013158943907591E-10
  1.34576486505240021E-10  1.41476319322136817E-10  1.48729910211236492E-10
  1.56355396287449782E-10  1.64371844837540043E-10  1.72799300446738817E-10
  1.81658835592074507E-10  1.90972603036328659E-10  2.00763891242454331E-10
  2.11057182875813412E-10  2.21878215513665509E-10  2.33254046574228231E-10
  2.45213120553570220E-10  2.57785340195086587E-10  2.71002141610378186E-10
  2.84896572311740984E-10  2.99503374293704638E-10  3.14859070844770742E-10
  3.31002057474216531E-10  3.47972698474881838E-10  3.65813427560612609E-10
  3.84568853714912015E-10  4.04285873285799790E-10  4.25013786910581578E-10
  4.46804422547564437E-10  4.69712265581507022E-10  4.93794594842939293E-10
  5.19111625497028821E-10  5.45726659974029989E-10  5.73706246356472393E-10
  6.03120344317156995E-10  6.34042500117005510E-10  6.66550030955285834E-10
  7.00724217900687277E-10  7.36650508935763622E-10  7.74418732817887773E-10
  8.14123323964935253E-10  8.55863558133264306E-10  8.99743800554593694E-10
  9.45873767056403348E-10  9.94368798660675454E-10  1.04535014956583085E-09
  1.09894529022740986E-09  1.15528822609707838E-09  1.21451983301126864E-09
  1.27678820920869398E-09  1.34224904539154985E-09  1.41106601396330581E-09
  1.48341117828258676E-09  1.55946542314049383E-09  1.63941890675873456E-09
  1.72347153605728960E-09  1.81183346642555207E-09  1.90472562711500130E-09
  2.00238027372302706E-09  2.10504156893357370E-09  2.21296619267346702E-09
  2.32642398377408874E-09  2.44569861455035834E-09  2.57108829995836793E-09
  2.70290654313066647E-09  2.84148291928204256E-09  2.98716389948938870E-09
  3.14031371671611397E-09  3.30131527633193416E-09  3.47057111330426490E-09
  3.64850439845247176E-09  3.83555999627955578E-09  4.03220557703074072E-09
  4.23893278584368644E-09  4.45625847169524513E-09  4.68472597927502923E-09
  4.92490650716448780E-09  5.17740053563157177E-09  5.44283932760577773E-09
  5.72188650658366129E-09  6.01523971540698493E-09  6.32363236005801615E-09
  6.64783544282820085E-09  6.98865948944025654E-09  7.34695657493813203E-09
  7.72362245342418839E-09  8.11959879693514238E-09  8.53587554901530799E-09
  8.97349339894298606E-09  9.43354638276201724E-09  9.91718461761150872E-09
  1.04256171761841307E-08  1.09601151084917407E-08  1.15220146184864066E-08
  1.21127204034701873E-08  1.27337091646338201E-08  1.33865332974920722E-08
  1.40728247714313125E-08  1.47942992080582771E-08  1.55527601685339800E-08
  1.63501036605985113E-08  1.71883228765413863E-08  1.80695131739470328E-08
  1.89958773116520093E-08  1.99697309539866521E-08  2.09935084570427139E-08
  2.20697689514135822E-08  2.32012027365910794E-08  2.43906380029823007E-08
  2.56410478983257052E-08  2.69555579561447117E-08  2.83374539047809997E-08
  2.97901898764968442E-08  3.13173970371352141E-08  3.29228926578741401E-08
  3.46106896517128421E-08  3.63850065984886451E-08  3.82502782834373786E-08
  4.02111667755939587E-08  4.22725730736724941E-08  4.44396493484797871E-08
  4.67178118124332175E-08  4.91127542483841785E-08  5.16304622311854815E-08
  5.42772280776668830E-08  5.70596665623356136E-08  5.99847314379570960E-08
  6.30597328022127721E-08  6.62923553537385740E-08  6.96906775830661586E-08
  7.32631919463093151E-08  7.70188260718928351E-08  8.09669650531846612E-08
  8.51174748825987946E-08  8.94807270855774142E-08  9.40676246158938736E-08
  9.88896290777156153E-08  1.03958789340591009E-07  1.09287771618493527E-07
  1.14889891089400152E-07  1.20779145133534528E-07  1.26970248273045178E-07
  1.33478668900137056E-07  1.40320667885118658E-07  1.47513339160507229E-07
  1.55074652382244858E-07  1.63023497776169873E-07  1.71379733280102468E-07
  1.80164234093277862E-07  1.89398944763588869E-07  1.99106933940413227E-07
  2.09312451928896336E-07  2.20040991188865794E-07  2.31319349928858292E-07
  2.43175698953990070E-07  2.55639651940290146E-07  2.68742339295986952E-07
  2.82516485796497558E-07  2.96996492194665541E-07  3.12218521004813855E-07
  3.28220586673660833E-07  3.45042650362137292E-07  3.62726719577618266E-07
  3.81316952911503573E-07  4.00859770106618489E-07  4.21403967757008478E-07
  4.43000840926349866E-07  4.65704310982650451E-07  4.89571059966438109E-07
  5.14660671832859416E-07  5.41035780931163089E-07  5.68762228027379653E-07
  5.97909224308412772E-07  6.28549523772448907E-07  6.60759604425555588E-07
  6.94619858734444186E-07  7.30214793838593106E-07  7.67633241967724716E-07
  8.06968581558221520E-07  8.48318969689866071E-07  8.91787586391058222E-07
  9.37482891415373740E-07  9.85518894163385308E-07  1.03601543738370857E-06
  1.08909849525443093E-06  1.14490048672194027E-06  1.20356060483234141E-06
  1.26522516286396935E-06  1.33004795818599200E-06  1.39819065463930552E-06
  1.46982318429771167E-06  1.54512416978561982E-06  1.62428136812962529E-06
  1.70749213725130062E-06  1.79496392636472177E-06  1.88691479115827326E-06
  1.98357393520456306E-06  2.08518227902010025E-06  2.19199305810820291E-06
  2.30427245158752685E-06  2.42230024280273938E-06  2.54637051327761458E-06
  2.67679237214003001E-06  2.81389072267933639E-06  2.95800706800148962E-06
  3.10950035783823139E-06  3.26874787791627881E-06  3.43614618470307064E-06
  3.61211208773436954E-06  3.79708368195708330E-06  3.99152143284377997E-06
  4.19590931595421305E-06  4.41075601449352976E-06  4.63659617780893828E-06
  4.87399174389387096E-06  5.12353332943852530E-06  5.38584168948587768E-06
  5.66156925129072932E-06  5.95140172613804436E-06  6.25605980310716332E-06
  6.57630092912892214E-06  6.91292117795320045E-06  7.26675721415766888E-06
  7.63868835677576691E-06  8.02963874790943070E-06  8.44057963117499747E-06
  8.87253174390765660E-06  9.32656783103099175E-06  9.80381528615605293E-06
  1.03054589271891387E-05  1.08327439110787362E-05  1.13869787947201732E-05
  1.19695387512012203E-05  1.25818689487006210E-05  1.32254881010944710E-05
  1.39019921947201587E-05  1.46130584033888083E-05  1.53604492011513212E-05
  1.61460166835393674E-05  1.69717071056555708E-05  1.78395656457104769E-05
  1.87517414095928046E-05  1.97104926875231638E-05  2.07181924769422627E-05
  2.17773342780161918E-05  2.28905381803231173E-05  2.40605572557741755E-05
  2.52902842744345654E-05  2.65827587547397638E-05  2.79411743626589910E-05
  2.93688866833952292E-05  3.08694213831563874E-05  3.24464827809570853E-05
  3.41039628403286003E-05  3.58459506119388293E-05  3.76767421483297190E-05
  3.96008509173045612E-05  4.16230187256141695E-05  4.37482271845608927E-05
  4.59817097481925898E-05  4.83289643542944398E-05  5.07957666882620417E-05
  5.33881840966427199E-05  5.61125901944859354E-05  5.89756801997646743E-05
  6.19844870270137648E-05  6.51463981610643294E-05  6.84691733689598653E-05
  7.19609632885480582E-05  7.56303289387479365E-05  7.94862621693272946E-05
  8.35382071196463159E-05  8.77960827345995645E-05  9.22703063944958573E-05
  9.69718186790803692E-05  1.01912109342309671E-04  1.07103244561378833E-04
  1.12557895527613233E-04  1.18289368406544060E-04  1.24311635748201204E-04
  1.30639369431093837E-04  1.37287975218711573E-04  1.44273628966318500E-04
  1.51613314562794934E-04  1.59324863714731512E-04  1.67426997664285419E-04
  1.75939370891149970E-04  1.84882616888132166E-04  1.94278396144498402E-04
  2.04149446443545882E-04  2.14519635538375924E-04  2.25414016302672896E-04
  2.36858884520537951E-04  2.48881839439631038E-04  2.61511847165178148E-04
  2.74779307003090328E-04  2.88716120948864698E-04  3.03355766467512992E-04
  3.18733372654370929E-04  3.34885799902468254E-04  3.51851723308020171E-04
  3.69671719983668515E-04  3.88388360378849628E-04  4.08046303758713511E-04
  4.28692398109286579E-04  4.50375784666319967E-04  4.73148007172187652E-04
  4.97063126049196750E-04  5.22177837792495506E-04  5.48551599810920970E-04
  5.76246760818962286E-04  6.05328697019404680E-04  6.35865954411825827E-04
  6.67930397488190864E-04  7.01597364410603023E-04  7.36945828978443967E-04
  7.74058569745115447E-04  8.13022346577782365E-04  8.53928084741716140E-04
  8.96871066900088482E-04  9.41951133404138113E-04  9.89272891193165513E-04
  1.03894593137294805E-03  1.09108505595663569E-03  1.14581051414591284E-03
  1.20324824848213447E-03  1.26353015093591818E-03  1.32679432950600740E-03
  1.39318538569797325E-03  1.46285470319314193E-03  1.53596074780759325E-03
  1.61266937936469976E-03  1.69315417583775787E-03  1.77759677001566255E-03
  1.86618719886262065E-03  1.95912426618795711E-03  2.05661591895686929E-03
  2.15887963740590653E-03  2.26614283922961382E-03  2.37864329837109882E-03
  2.49662957869353427E-03  2.62036148259865839E-03  2.75011051493271068E-03
  2.88616036254959714E-03  3.02880738970177574E-03  3.17836114925379746E-03
  3.33514491003160905E-03  3.49949620044303147E-03  3.67176736836219170E-03
  3.85232615724820067E-03  4.04155629858629975E-03  4.23985812048511060E-03
  4.44764917219996492E-03  4.66536486450855759E-03  4.89345912555245142E-03
  5.13240507157659235E-03  5.38269569216917685E-03  5.64484454965309343E-03
  5.91938649156008474E-03  6.20687837505568604E-03  6.50789980292069796E-03
  6.82305386993230754E-03  7.15296791776900889E-03  7.49829429658839617E-03
  7.85971113302630885E-03  8.23792310187215077E-03  8.63366219862353630E-03
  9.04768851046569393E-03  9.48079098519336375E-03  9.93378819308773572E-03
  1.04075290777168993E-02  1.09028936932683632E-02  1.14207939262734835E-02
  1.19621741943958942E-02  1.25280121164779747E-02  1.31193191524984955E-02
  1.37371412072732797E-02  1.43825591885431547E-02  1.50566895116873295E-02
  1.57606845510689063E-02  1.64957330252871737E-02  1.72630603050889647E-02
  1.80639286356552090E-02  1.88996372720343676E-02  1.97715225078075492E-02
  2.06809575829376042E-02  2.16293524653992826E-02  2.26181534978343139E-02
  2.36488428841568343E-02  2.47229379981136095E-02  2.58419905143104749E-02
  2.70075853379410612E-02  2.82213393056451566E-02  2.94848996374557290E-02
  3.07999421438859798E-02  3.21681691455873095E-02  3.35913070759673998E-02
  3.50711037530948427E-02  3.66093253146932834E-02  3.82077527609430909E-02
  3.98681780709373920E-02  4.15923998956311478E-02  4.33822187924076605E-02
  4.52394319437922493E-02  4.71658273238929684E-02  4.91631773323794111E-02
  5.12332318216371582E-02  5.33777104641576378E-02  5.55982944385640249E-02
  5.78966174461066491E-02  6.02742559575571574E-02  6.27327186402209941E-02
  6.52734349829680455E-02  6.78977430843886454E-02  7.06068765086690919E-02
  7.34019501652257156E-02  7.62839452762056752E-02  7.92536933300943686E-02
  8.23118589538556489E-02  8.54589216978441646E-02  8.86951568023859466E-02
  9.20206148099645960E-02  9.54350999876200506E-02  9.89381476392450360E-02
  1.02529000314952809E-01  1.06206582818528836E-01  1.09969476019129889E-01
  1.13815889643920753E-01  1.17743633978561579E-01  1.21750090467781596E-01
  1.25832181316857111E-01  1.29986338302371496E-01  1.34208470719727413E-01
  1.38493932569100503E-01  1.42837489238029525E-01  1.47233283842439888E-01
  1.51674803289109927E-01  1.56154844292100775E-01  1.60665479750333018E-01
  1.65198025637703000E-01  1.69743008690788261E-01  1.74290135314340316E-01
  1.78828262176453978E-01  1.83345368808106063E-01  1.87828532742612825E-01
  1.92263907803756184E-01  1.96636706088016117E-01  2.00931184284443148E-01
  2.05130635133463801E-01  2.09217384713320020E-01  2.13172796388010399E-01
  2.16977282432765178E-01  2.20610324324071516E-01  2.24050502453329414E-01
  2.27275536607761508E-01  2.30262338583627379E-01  2.32987077778740642E-01
  2.35425260961554722E-01  2.37551827994576303E-01  2.39341265077574084E-01
  2.40767735894477114E-01  2.41805232779208151E-01  2.42427749829297490E-01
  2.42609479024505581E-01  2.42325029725488972E-01  2.41549674321090868E-01
  2.40259621805621409E-01  2.38432318690530165E-01  2.36046778701154009E-01
  2.33083943567721857E-01  2.29527075679626269E-01  2.25362180014110403E-01
  2.20578458050328496E-01  2.15168794364691301E-01  2.09130273466418437E-01
  2.02464724028531079E-01  1.95179292148006889E-01  1.87287041740287791E-01
  1.78807574518024037E-01  1.69767667835860891E-01  1.60201927816794931E-01
  1.50153450991360127E-01  1.39674482903582031E-01  1.28827070808006983E-01
  1.17683701670894009E-01  1.06327910988404523E-01  9.48548500368660980E-02
  8.33718019795577359E-02  7.19986307972841633E-02  6.08681417234780489E-02
  5.01263390377621604E-02  3.99325618294721213E-02  3.04594740538399189E-02
  2.18928857718164935E-02  1.44313843728459505E-02  8.28575053477909051E-03
  3.67816294287834269E-03  8.40923964538763786E-04 -9.79607226499180896E-06
 -6.82131732805865787E-07 -1.98905303652724218E-08  5.18852339262791309E-10
  8.12372630716498794E-11  4.21168186986507920E-12  5.95019156588150784E-14
 -6.81672470874183391E-15 -5.96805376772170376E-16 -2.26117290355480177E-17
  1.35234781548839499E-19  6.32385240914837568E-20  3.94942963981829617E-21
  0.00000000000000000E+00  0.00000000000000000E+00  0.00000000000000000E+00
  0.00000000000000000E+00  0.00000000000000000E+00  0.00000000000000000E+00
  0.00000000000000000E+00  0.00000000000000000E+00  0.00000000000000000E+00
  0.00000000000000000E+00  0.00000000000000000E+00  0.00000000000000000E+00
  0.00000000000000000E+00  0.00000000000000000E+00  0.00000000000000000E+00
  0.00000000000000000E+00  0.00000000000000000E+00  0.00000000000000000E+00
  0.00000000000000000E+00  0.00000000000000000E+00  0.00000000000000000E+00
  0.00000000000000000E+00  0.00000000000000000E+00  0.00000000000000000E+00
  0.00000000000000000E+00  0.00000000000000000E+00  0.00000000000000000E+00
  0.00000000000000000E+00  0.00000000000000000E+00  0.00000000000000000E+00
  0.00000000000000000E+00  0.00000000000000000E+00  0.00000000000000000E+00
  0.00000000000000000E+00  0.00000000000000000E+00  0.00000000000000000E+00
  0.00000000000000000E+00  0.00000000000000000E+00  0.00000000000000000E+00
  0.00000000000000000E+00  0.00000000000000000E+00  0.00000000000000000E+00
  0.00000000000000000E+00  0.00000000000000000E+00  0.00000000000000000E+00
  0.00000000000000000E+00  0.00000000000000000E+00  0.00000000000000000E+00
  0.00000000000000000E+00  0.00000000000000000E+00  0.00000000000000000E+00
  0.00000000000000000E+00  0.00000000000000000E+00  0.00000000000000000E+00
  0.00000000000000000E+00  0.00000000000000000E+00  0.00000000000000000E+00
  0.00000000000000000E+00  0.00000000000000000E+00  0.00000000000000000E+00
  0.00000000000000000E+00  0.00000000000000000E+00  0.00000000000000000E+00
  0.00000000000000000E+00  0.00000000000000000E+00  0.00000000000000000E+00
  0.00000000000000000E+00  0.00000000000000000E+00  0.00000000000000000E+00
  0.00000000000000000E+00  0.00000000000000000E+00  0.00000000000000000E+00
  0.00000000000000000E+00  0.00000000000000000E+00  0.00000000000000000E+00
  0.00000000000000000E+00  0.00000000000000000E+00  0.00000000000000000E+00
  0.00000000000000000E+00  0.00000000000000000E+00  0.00000000000000000E+00
  0.00000000000000000E+00  0.00000000000000000E+00  0.00000000000000000E+00
  0.00000000000000000E+00  0.00000000000000000E+00  0.00000000000000000E+00
  0.00000000000000000E+00  0.00000000000000000E+00  0.00000000000000000E+00
  0.00000000000000000E+00  0.00000000000000000E+00  0.00000000000000000E+00
  0.00000000000000000E+00  0.00000000000000000E+00  0.00000000000000000E+00
  0.00000000000000000E+00  0.00000000000000000E+00  0.00000000000000000E+00
  0.00000000000000000E+00  0.00000000000000000E+00  0.00000000000000000E+00
  0.00000000000000000E+00  0.00000000000000000E+00  0.00000000000000000E+00
  0.00000000000000000E+00  0.00000000000000000E+00  0.00000000000000000E+00
  0.00000000000000000E+00  0.00000000000000000E+00  0.00000000000000000E+00
  0.00000000000000000E+00  0.00000000000000000E+00  0.00000000000000000E+00
  0.00000000000000000E+00  0.00000000000000000E+00  0.00000000000000000E+00
  0.00000000000000000E+00  0.00000000000000000E+00  0.00000000000000000E+00
  0.00000000000000000E+00  0.00000000000000000E+00  0.00000000000000000E+00
  0.00000000000000000E+00  0.00000000000000000E+00  0.00000000000000000E+00
  0.00000000000000000E+00  0.00000000000000000E+00  0.00000000000000000E+00
  0.00000000000000000E+00  0.00000000000000000E+00  0.00000000000000000E+00
  0.00000000000000000E+00  0.00000000000000000E+00  0.00000000000000000E+00
  0.00000000000000000E+00  0.00000000000000000E+00  0.00000000000000000E+00
  0.00000000000000000E+00  0.00000000000000000E+00  0.00000000000000000E+00
  0.00000000000000000E+00  0.00000000000000000E+00  0.00000000000000000E+00
  0.00000000000000000E+00  0.00000000000000000E+00  0.00000000000000000E+00
  0.00000000000000000E+00  0.00000000000000000E+00  0.00000000000000000E+00
  0.00000000000000000E+00  0.00000000000000000E+00  0.00000000000000000E+00
  0.00000000000000000E+00  0.00000000000000000E+00  0.00000000000000000E+00
  0.00000000000000000E+00  0.00000000000000000E+00  0.00000000000000000E+00
  0.00000000000000000E+00  0.00000000000000000E+00  0.00000000000000000E+00
  0.00000000000000000E+00  0.00000000000000000E+00  0.00000000000000000E+00
  0.00000000000000000E+00  0.00000000000000000E+00  0.00000000000000000E+00
  0.00000000000000000E+00  0.00000000000000000E+00  0.00000000000000000E+00
  0.00000000000000000E+00  0.00000000000000000E+00  0.00000000000000000E+00
  0.00000000000000000E+00  0.00000000000000000E+00  0.00000000000000000E+00
                       </PP_QIJL.3.4.2>
 <PP_QIJL.4.4.0 type="real" size="   888" columns="3" first_index=" 4" second_index=" 4" composite_index="10" angular_momentum="0">
  1.77801023058414972E-06  1.82302076984548691E-06  1.86917075612698659E-06
  1.91648903465673008E-06  1.96500518088273663E-06  2.01474951895837480E-06
  2.06575314069607435E-06  2.11804792500065982E-06  2.17166655779449363E-06
  2.22664255244740342E-06  2.28301027072348618E-06  2.34080494425816996E-06
  2.40006269657928445E-06  2.46082056568522230E-06  2.52311652719483532E-06
  2.58698951808351518E-06  2.65247946101977181E-06  2.71962728931829081E-06
  2.78847497252451532E-06  2.85906554264672153E-06  2.93144312105259147E-06
  3.00565294604618539E-06  3.08174140114335504E-06  3.15975604406293668E-06
  3.23974563645153382E-06  3.32176017436131700E-06  3.40585091949878617E-06
  3.49207043126507429E-06  3.58047259960710291E-06  3.67111267870032295E-06
  3.76404732148445277E-06  3.85933461507292735E-06  3.95703411705946295E-06
  4.05720689274294096E-06  4.15991555329537877E-06  4.26522429489549475E-06
  4.37319893885337476E-06  4.48390697275068449E-06  4.59741759262233511E-06
  4.71380174620619054E-06  4.83313217728723277E-06  4.95548347116483187E-06
  5.08093210127042057E-06  5.20955647696591417E-06  5.34143699255153253E-06
  5.47665607751482433E-06  5.61529824805117502E-06  5.75745015988913946E-06
  5.90320066245246271E-06  6.05264085439374204E-06  6.20586414053345467E-06
  6.36296629024070242E-06  6.52404549729179682E-06  6.68920244124391257E-06
  6.85854035036297278E-06  7.03216506614368590E-06  7.21018510946393275E-06
  7.39271174841277717E-06  7.57985906783648390E-06  7.77174404064443637E-06
  7.96848660092032640E-06  8.17020971888443287E-06  8.37703947775289747E-06
  8.58910515254355852E-06  8.80653929087590607E-06  9.02947779581691980E-06
  9.25806001082425361E-06  9.49242880683909333E-06  9.73273067158460010E-06
  9.97911580112436130E-06  1.02317381937385269E-05  1.04907557461770576E-05
  1.07563303523488241E-05  1.10286280045093473E-05  1.13078188970104251E-05
  1.15940775326753257E-05  1.18875828318674545E-05  1.21885182443201174E-05
  1.24970718637967085E-05  1.28134365456538340E-05  1.31378100273805692E-05
  1.34703950521889274E-05  1.38113994957328444E-05  1.41610364960354253E-05
  1.45195245867051055E-05  1.48870878335236675E-05  1.52639559744924680E-05
  1.56503645634237685E-05  1.60465551171668997E-05  1.64527752665613068E-05
  1.68692789112109610E-05  1.72963263781770295E-05  1.77341845846875548E-05
  1.81831272049658687E-05  1.86434348412825335E-05  1.91153951993370742E-05
  1.95993032680796686E-05  2.00954615040846900E-05  2.06041800205914898E-05
  2.11257767813308796E-05  2.16605777992579387E-05  2.22089173403158864E-05
  2.27711381323577988E-05  2.33475915793571581E-05  2.39386379810411212E-05
  2.45446467580831185E-05  2.51659966829966941E-05  2.58030761168737938E-05
  2.64562832521159953E-05  2.71260263613104098E-05  2.78127240524052351E-05
  2.85168055303452665E-05  2.92387108653302336E-05  2.99788912678638906E-05
  3.07378093707658641E-05  3.15159395183218502E-05  3.23137680627538331E-05
  3.31317936681949451E-05  3.39705276223589724E-05  3.48304941560997441E-05
  3.57122307710592101E-05  3.66162885756101680E-05  3.75432326293024819E-05
  3.84936422960286588E-05  3.94681116061296950E-05  4.04672496276662117E-05
  4.14916808470887360E-05  4.25420455595436326E-05  4.36190002690590707E-05
  4.47232180988614114E-05  4.58553892120773290E-05  4.70162212430862142E-05
  4.82064397397909526E-05  4.94267886170843116E-05  5.06780306217938088E-05
  5.19609478093962862E-05  5.32763420327986794E-05  5.46250354434924603E-05
  5.60078710053929743E-05  5.74257130216859310E-05  5.88794476750102450E-05
  6.03699835813134328E-05  6.18982523577278366E-05  6.34652092048206793E-05
  6.50718335035824523E-05  6.67191294275272447E-05  6.84081265702858273E-05
  7.01398805890856593E-05  7.19154738645183625E-05  7.37360161770077586E-05
  7.56026454004014018E-05  7.75165282131170391E-05  7.94788608272911634E-05
  8.14908697363826121E-05  8.35538124817001958E-05  8.56689784383334811E-05
  8.78376896209750774E-05  9.00613015101410226E-05  9.23412038993031380E-05
  9.46788217634646933E-05  9.70756161497215910E-05  9.95330850903628400E-05
  1.02052764539083563E-04  1.04636229330895669E-04  1.07285094166334832E-04
  1.10001014620578192E-04  1.12785688178101634E-04  1.15640855293529940E-04
  1.18568300479334523E-04  1.21569853421060086E-04  1.24647390120782522E-04
  1.27802834069505025E-04  1.31038157449227282E-04  1.34355382365441186E-04
  1.37756582110821704E-04  1.41243882460897639E-04  1.44819463002518538E-04
  1.48485558495946388E-04  1.52244460271413676E-04  1.56098517661036943E-04
  1.60050139466964955E-04  1.64101795466682561E-04  1.68256017956419971E-04
  1.72515403333613941E-04  1.76882613719425897E-04  1.81360378622322525E-04
  1.85951496643751117E-04  1.90658837226996298E-04  1.95485342450278871E-04
  2.00434028865251917E-04  2.05507989382009082E-04  2.10710395201808094E-04
  2.16044497798698970E-04  2.21513630951304663E-04  2.27121212826019147E-04
  2.32870748112921504E-04  2.38765830215744969E-04  2.44810143497260714E-04
  2.51007465581490222E-04  2.57361669714166236E-04  2.63876727182938721E-04
  2.70556709798809060E-04  2.77405792440369879E-04  2.84428255662417812E-04
  2.91628488370575907E-04  2.99010990563602767E-04  3.06580376145073404E-04
  3.14341375806232370E-04  3.22298839981760901E-04  3.30457741880364362E-04
  3.38823180592014790E-04  3.47400384273829758E-04  3.56194713416555539E-04
  3.65211664193688327E-04  3.74456871895353504E-04  3.83936114449037627E-04
  3.93655316029417938E-04  4.03620550759513775E-04  4.13838046505464712E-04
  4.24314188767339776E-04  4.35055524668354174E-04  4.46068767045013645E-04
  4.57360798640750943E-04  4.68938676405616483E-04  4.80809635904767059E-04
  4.92981095838476127E-04  5.05460662676450608E-04  5.18256135409414075E-04
  5.31375510420870880E-04  5.44826986482082969E-04  5.58618969873413878E-04
  5.72760079635206915E-04  5.87259152951460765E-04  6.02125250669678603E-04
  6.17367662960341314E-04  6.32995915119504717E-04  6.49019773518131411E-04
  6.65449251701914443E-04  6.82294616645356586E-04  6.99566395163992989E-04
  7.17275380488774459E-04  7.35432639006710015E-04  7.54049517171963041E-04
  7.73137648591686781E-04  7.92708961291030108E-04  8.12775685161852665E-04
  8.33350359599773632E-04  8.54445841334294126E-04  8.76075312456879953E-04
  8.98252288652029679E-04  9.20990627636418427E-04  9.44304537811388391E-04
  9.68208587134150784E-04  9.92717712213238420E-04  1.01784722763387475E-03
  1.04361283551905105E-03  1.07003063533226165E-03  1.09711713392798339E-03
  1.12488925585616981E-03  1.15336435392715910E-03  1.18256022004356977E-03
  1.21249509630592467E-03  1.24318768639888303E-03  1.27465716726518630E-03
  1.30692320107455738E-03  1.34000594749498331E-03  1.37392607627403909E-03
  1.40870478013803272E-03  1.44436378801700467E-03  1.48092537860378863E-03
  1.51841239425553774E-03  1.55684825524638392E-03  1.59625697438003553E-03
  1.63666317197140262E-03  1.67809209120655853E-03  1.72056961389054140E-03
  1.76412227659278223E-03  1.80877728720015376E-03  1.85456254188792811E-03
  1.90150664251914387E-03  1.94963891448316157E-03  1.99898942498449731E-03
  2.04958900179320501E-03  2.10146925246848483E-03  2.15466258406737292E-03
  2.20920222335073153E-03  2.26512223749905954E-03  2.32245755535090068E-03
  2.38124398917703792E-03  2.44151825700391571E-03  2.50331800550005704E-03
  2.56668183343971342E-03  2.63164931575812387E-03  2.69826102821336348E-03
  2.76655857266993200E-03  2.83658460301970195E-03  2.90838285175627547E-03
  2.98199815721906158E-03  3.05747649152396210E-03  3.13486498919783281E-03
  3.21421197653437140E-03  3.29556700168956006E-03  3.37898086553513680E-03
  3.46450565328914467E-03  3.55219476694300981E-03  3.64210295850505607E-03
  3.73428636408098050E-03  3.82880253881214818E-03  3.92571049269323843E-03
  4.02507072729122155E-03  4.12694527338816793E-03  4.23139772957106808E-03
  4.33849330179223586E-03  4.44829884392460625E-03  4.56088289933678868E-03
  4.67631574351324436E-03  4.79466942774580025E-03  4.91601782392309897E-03
  5.04043667044547488E-03  5.16800361929325991E-03  5.29879828427722542E-03
  5.43290229050071190E-03  5.57039932506349887E-03  5.71137518903839722E-03
  5.85591785075222863E-03  6.00411750040354391E-03  6.15606660605041208E-03
  6.31185997100226250E-03  6.47159479265059599E-03  6.63537072277442519E-03
  6.80328992935680214E-03  6.97545715995012867E-03  7.15197980662847423E-03
  7.33296797256622387E-03  7.51853454028340341E-03  7.70879524159875148E-03
  7.90386872933287847E-03  8.10387665080473940E-03  8.30894372316562206E-03
  8.51919781061613417E-03  8.73477000355243720E-03  8.95579469968937891E-03
  9.18240968720922084E-03  9.41475622998564667E-03  9.65297915493435604E-03
  9.89722694154210152E-03  1.01476518136279937E-02  1.04044098333916091E-02
  1.06676609978040970E-02  1.09375693373997222E-02  1.12143030175262184E-02
  1.14980344421144257E-02  1.17889403600285724E-02  1.20872019740600658E-02
  1.23930050526294810E-02  1.27065400442621726E-02  1.30280021949057048E-02
  1.33575916681578227E-02  1.36955136684754758E-02  1.40419785674372744E-02
  1.43972020331332214E-02  1.47614051627575089E-02  1.51348146184816026E-02
  1.55176627666863218E-02  1.59101878206353367E-02  1.63126339866715465E-02
  1.67252516140213650E-02  1.71482973482935466E-02  1.75820342887607547E-02
  1.80267321495148278E-02  1.84826674245870404E-02  1.89501235571306256E-02
  1.94293911127602879E-02  1.99207679571474471E-02  2.04245594379729410E-02
  2.09410785713397447E-02  2.14706462327507418E-02  2.20135913527605732E-02
  2.25702511174123710E-02  2.31409711735699915E-02  2.37261058392608561E-02
  2.43260183191471614E-02  2.49410809252439969E-02  2.55716753030074059E-02
  2.62181926629207786E-02  2.68810340177022405E-02  2.75606104252647394E-02
  2.82573432375615823E-02  2.89716643554502572E-02  2.97040164897168744E-02
  3.04548534284038025E-02  3.12246403105791888E-02  3.20138539066969138E-02
  3.28229829056956024E-02  3.36525282089860586E-02  3.45030032314924059E-02
  3.53749342098996292E-02  3.62688605182666240E-02  3.71853349911699105E-02
  3.81249242545426067E-02  3.90882090643822969E-02  4.00757846535105267E-02
  4.10882610865464862E-02  4.21262636232783982E-02  4.31904330906133643E-02
  4.42814262632880151E-02  4.53999162535503806E-02  4.65465929099849879E-02
  4.77221632256784670E-02  4.89273517559234913E-02  5.01629010456542124E-02
  5.14295720668491371E-02  5.27281446660838246E-02  5.40594180224438364E-02
  5.54242111160106882E-02  5.68233632071274627E-02  5.82577343267045578E-02
  5.97282057777553180E-02  6.12356806483843677E-02  6.27810843364546289E-02
  6.43653650861547022E-02  6.59894945367534846E-02  6.76544682837259409E-02
  6.93613064524928741E-02  7.11110542850017097E-02  7.29047827394023601E-02
  7.47435891031114352E-02  7.66285976194418655E-02  7.85609601280599229E-02
  8.05418567194875479E-02  8.25724964039646486E-02  8.46541177949206164E-02
  8.67879898072462658E-02  8.89754123706307243E-02  9.12177171581808749E-02
  9.35162683307066145E-02  9.58724632968178531E-02  9.82877334890773086E-02
  1.00763545156428366E-01  1.03301400173204092E-01  1.05902836865033337E-01
  1.08569430851747598E-01  1.11302795907552030E-01  1.14104584838640929E-01
  1.16976490378703293E-01  1.19920246102388217E-01  1.22937627356924928E-01
  1.26030452212060107E-01  1.29200582428657756E-01  1.32449924446228218E-01
  1.35780430389372209E-01  1.39194099093341767E-01  1.42692977148857925E-01
  1.46279159966681088E-01  1.49954792861746428E-01  1.53722072157024742E-01
  1.57583246307106906E-01  1.61540617042029766E-01  1.65596540531218528E-01
  1.69753428567470888E-01  1.74013749770944443E-01  1.78380030813471618E-01
  1.82854857663323822E-01  1.87440876849992805E-01  1.92140796748932724E-01
  1.96957388886277673E-01  2.01893489263954784E-01  2.06951999704375944E-01
  2.12135889214581014E-01  2.17448195369499636E-01  2.22892025714969216E-01
  2.28470559189398043E-01  2.34187047563716083E-01  2.40044816898982910E-01
  2.46047269022320353E-01  2.52197883019918356E-01  2.58500216746332612E-01
  2.64957908349169158E-01  2.71574677809705844E-01  2.78354328498143344E-01
  2.85300748742118582E-01  2.92417913407282015E-01  2.99709885490251571E-01
  3.07180817722615129E-01  3.14834954183872306E-01  3.22676631921770207E-01
  3.30710282580023829E-01  3.38940434032038829E-01  3.47371712017647494E-01
  3.56008841780860008E-01  3.64856649708258651E-01  3.73920064966504817E-01
  3.83204121134927855E-01  3.92713957830632232E-01  4.02454822325363726E-01
  4.12432071152285418E-01  4.22651171697444983E-01  4.33117703772628759E-01
  4.43837361168483546E-01  4.54815953185488009E-01  4.66059406136192733E-01
  4.77573764814481327E-01  4.89365193930460518E-01  5.01439979507608435E-01
  5.13804530234065138E-01  5.26465378762644209E-01  5.39429182958044984E-01
  5.52702727086386791E-01  5.66292922937278509E-01  5.80206810871548684E-01
  5.94451560793204381E-01  6.09034473038473356E-01  6.23962979170368470E-01
  6.39244642670155350E-01  6.54887159524660256E-01  6.70898358698949981E-01
  6.87286202481082409E-01  7.04058786688245175E-01  7.21224340733857550E-01
  7.38791227540572248E-01  7.56767943284183731E-01  7.75163116955587150E-01
  7.93985509740969375E-01  8.13244014199229759E-01  8.32947653219997086E-01
  8.53105578747432092E-01  8.73727070269933126E-01  8.94821533047751805E-01
  9.16398496060005563E-01  9.38467609655328827E-01  9.61038642904194718E-01
  9.84121480617788147E-01  1.00772612001228290E+00  1.03186266700367724E+00
  1.05654133212554413E+00  1.08177242602849977E+00  1.10756635453642516E+00
  1.13393361324782460E+00  1.16088478166425868E+00  1.18843051680047096E+00
  1.21658154624648551E+00  1.24534866067509986E+00  1.27474270576119397E+00
  1.30477457346568171E+00  1.33545519264956036E+00  1.36679551901658636E+00
  1.39880652433141828E+00  1.43149918486619843E+00  1.46488446903850478E+00
  1.49897332424005070E+00  1.53377666278322278E+00  1.56930534691835244E+00
  1.60557017288828829E+00  1.64258185400947831E+00  1.68035100269349358E+00
  1.71888811135900466E+00  1.75820353221168446E+00  1.79830745585771834E+00
  1.83920988866153312E+00  1.88092062879296695E+00  1.92344924095597203E+00
  1.96680502973090232E+00  2.01099701144681831E+00  2.05603388452680358E+00
  2.10192399830827759E+00  2.14867532023595942E+00  2.19629540135437962E+00
  2.24479134005074288E+00  2.29416974404217866E+00  2.34443669048578451E+00
  2.39559768414685026E+00  2.44765761359697676E+00  2.50062070540539905E+00
  2.55449047620820080E+00  2.60926968259687353E+00  2.66496026882274561E+00
  2.72156331224131165E+00  2.77907896640800400E+00  2.83750640177908586E+00
  2.89684374402655376E+00  2.95708800986800258E+00  3.01823504035952039E+00
  3.08027943163088036E+00  3.14321446306039043E+00  3.20703202280885780E+00
  3.27172253069855268E+00  3.33727485844568594E+00  3.40367624722914330E+00
  3.47091222257448573E+00  3.53896650658323475E+00  3.60782092752621031E+00
  3.67745532681296305E+00  3.74784746339640806E+00  3.81897291569428932E+00
  3.89080498103697892E+00  3.96331457276089338E+00  4.03647011509711096E+00
  4.11023743596160607E+00  4.18457965769608897E+00  4.25945708604011042E+00
  4.33482709759661411E+00  4.41064402584935600E+00  4.48685904597484253E+00
  4.56342005889005531E+00  4.64027157491872000E+00  4.71735459704386262E+00
  4.79460650438024327E+00  4.87196093645896777E+00  4.94934767871265446E+00
  5.02669254922592668E+00  5.10391728783080811E+00  5.18093944834272335E+00
  5.25767229408179304E+00  5.33402469730999229E+00  5.40990104397041449E+00
  5.48520114475063192E+00  5.55982015223197568E+00  5.63364848581638356E+00
  5.70657176598470794E+00  5.77847075881374916E+00  5.84922133062349392E+00
  5.91869441551867315E+00  5.98675599761523092E+00  6.05326710809774848E+00
  6.11808383829580738E+00  6.18105737202193062E+00  6.24203403923788969E+00
  6.30085539005762740E+00  6.35735829266803965E+00  6.41137505835158894E+00
  6.46273359515150592E+00  6.51125758923309839E+00  6.55676671962895963E+00
  6.59907690951940396E+00  6.63800061347571990E+00  6.67334714243735938E+00
  6.70492303245499954E+00  6.73253246029112162E+00  6.75597770256591712E+00
  6.77505964480289258E+00  6.78957834532148929E+00  6.79933365514510690E+00
  6.80412589061715067E+00  6.80375656816326213E+00  6.79802920495609619E+00
  6.78675018168600008E+00  6.76972966912769181E+00  6.74678262680849095E+00
  6.71772987595281723E+00  6.68239923750903042E+00  6.64062674402168085E+00
  6.59225792964435620E+00  6.53714919513301407E+00  6.47516923904811659E+00
  6.40620056609677491E+00  6.33014107267554138E+00  6.24690569684550390E+00
  6.15642813152089730E+00  6.05866260596990802E+00  5.95358573022675053E+00
  5.84119838170693573E+00  5.72152763986563606E+00  5.59462876408657372E+00
  5.46058719862101682E+00  5.31952058573110786E+00  5.17158078884336980E+00
  5.01695591123295248E+00  4.85587228124186243E+00  4.68859639216776714E+00
  4.51543678423545547E+00  4.33674584332659130E+00  4.15292148193254462E+00
  3.96440868916371825E+00  3.77170092074189878E+00  3.57534129239321619E+00
  3.37592354516874060E+00  3.17409275397533852E+00  2.97054573709645409E+00
  2.76603112862300193E+00  2.56134907804853951E+00  2.35735053024999486E+00
  2.15493603805748579E+00  1.95505407920369745E+00  1.75869882295319568E+00
  1.56690728989058270E+00  1.38075587528897414E+00  1.20135620536940624E+00
  1.02985025886223802E+00  8.67404702619029355E-01  7.15204459572435614E-01
  5.74445449465177838E-01  4.46326448906008477E-01  3.32040066403126943E-01
  2.32762886059406038E-01  1.49644706094366670E-01  8.37968842363211591E-02
  3.62801751802770134E-02  8.08979524034533423E-03 -9.21848262690434306E-05
 -6.41912325473875922E-06 -1.87177578576520311E-07  4.88260105278706513E-09
  7.64474044316258684E-10  3.96335542420906263E-11  5.59936024286539821E-13
 -6.41480142245344018E-14 -5.61616926518452249E-15 -2.12785109827527145E-16
  1.27261156363286888E-18  5.95098953865161235E-19  3.71656593948947126E-20
  0.00000000000000000E+00  0.00000000000000000E+00  0.00000000000000000E+00
  0.00000000000000000E+00  0.00000000000000000E+00  0.00000000000000000E+00
  0.00000000000000000E+00  0.00000000000000000E+00  0.00000000000000000E+00
  0.00000000000000000E+00  0.00000000000000000E+00  0.00000000000000000E+00
  0.00000000000000000E+00  0.00000000000000000E+00  0.00000000000000000E+00
  0.00000000000000000E+00  0.00000000000000000E+00  0.00000000000000000E+00
  0.00000000000000000E+00  0.00000000000000000E+00  0.00000000000000000E+00
  0.00000000000000000E+00  0.00000000000000000E+00  0.00000000000000000E+00
  0.00000000000000000E+00  0.00000000000000000E+00  0.00000000000000000E+00
  0.00000000000000000E+00  0.00000000000000000E+00  0.00000000000000000E+00
  0.00000000000000000E+00  0.00000000000000000E+00  0.00000000000000000E+00
  0.00000000000000000E+00  0.00000000000000000E+00  0.00000000000000000E+00
  0.00000000000000000E+00  0.00000000000000000E+00  0.00000000000000000E+00
  0.00000000000000000E+00  0.00000000000000000E+00  0.00000000000000000E+00
  0.00000000000000000E+00  0.00000000000000000E+00  0.00000000000000000E+00
  0.00000000000000000E+00  0.00000000000000000E+00  0.00000000000000000E+00
  0.00000000000000000E+00  0.00000000000000000E+00  0.00000000000000000E+00
  0.00000000000000000E+00  0.00000000000000000E+00  0.00000000000000000E+00
  0.00000000000000000E+00  0.00000000000000000E+00  0.00000000000000000E+00
  0.00000000000000000E+00  0.00000000000000000E+00  0.00000000000000000E+00
  0.00000000000000000E+00  0.00000000000000000E+00  0.00000000000000000E+00
  0.00000000000000000E+00  0.00000000000000000E+00  0.00000000000000000E+00
  0.00000000000000000E+00  0.00000000000000000E+00  0.00000000000000000E+00
  0.00000000000000000E+00  0.00000000000000000E+00  0.00000000000000000E+00
  0.00000000000000000E+00  0.00000000000000000E+00  0.00000000000000000E+00
  0.00000000000000000E+00  0.00000000000000000E+00  0.00000000000000000E+00
  0.00000000000000000E+00  0.00000000000000000E+00  0.00000000000000000E+00
  0.00000000000000000E+00  0.00000000000000000E+00  0.00000000000000000E+00
  0.00000000000000000E+00  0.00000000000000000E+00  0.00000000000000000E+00
  0.00000000000000000E+00  0.00000000000000000E+00  0.00000000000000000E+00
  0.00000000000000000E+00  0.00000000000000000E+00  0.00000000000000000E+00
  0.00000000000000000E+00  0.00000000000000000E+00  0.00000000000000000E+00
  0.00000000000000000E+00  0.00000000000000000E+00  0.00000000000000000E+00
  0.00000000000000000E+00  0.00000000000000000E+00  0.00000000000000000E+00
  0.00000000000000000E+00  0.00000000000000000E+00  0.00000000000000000E+00
  0.00000000000000000E+00  0.00000000000000000E+00  0.00000000000000000E+00
  0.00000000000000000E+00  0.00000000000000000E+00  0.00000000000000000E+00
  0.00000000000000000E+00  0.00000000000000000E+00  0.00000000000000000E+00
  0.00000000000000000E+00  0.00000000000000000E+00  0.00000000000000000E+00
  0.00000000000000000E+00  0.00000000000000000E+00  0.00000000000000000E+00
  0.00000000000000000E+00  0.00000000000000000E+00  0.00000000000000000E+00
  0.00000000000000000E+00  0.00000000000000000E+00  0.00000000000000000E+00
  0.00000000000000000E+00  0.00000000000000000E+00  0.00000000000000000E+00
  0.00000000000000000E+00  0.00000000000000000E+00  0.00000000000000000E+00
  0.00000000000000000E+00  0.00000000000000000E+00  0.00000000000000000E+00
  0.00000000000000000E+00  0.00000000000000000E+00  0.00000000000000000E+00
  0.00000000000000000E+00  0.00000000000000000E+00  0.00000000000000000E+00
  0.00000000000000000E+00  0.00000000000000000E+00  0.00000000000000000E+00
  0.00000000000000000E+00  0.00000000000000000E+00  0.00000000000000000E+00
  0.00000000000000000E+00  0.00000000000000000E+00  0.00000000000000000E+00
  0.00000000000000000E+00  0.00000000000000000E+00  0.00000000000000000E+00
  0.00000000000000000E+00  0.00000000000000000E+00  0.00000000000000000E+00
  0.00000000000000000E+00  0.00000000000000000E+00  0.00000000000000000E+00
  0.00000000000000000E+00  0.00000000000000000E+00  0.00000000000000000E+00
  0.00000000000000000E+00  0.00000000000000000E+00  0.00000000000000000E+00
  0.00000000000000000E+00  0.00000000000000000E+00  0.00000000000000000E+00
  0.00000000000000000E+00  0.00000000000000000E+00  0.00000000000000000E+00
  0.00000000000000000E+00  0.00000000000000000E+00  0.00000000000000000E+00
  0.00000000000000000E+00  0.00000000000000000E+00  0.00000000000000000E+00
                       </PP_QIJL.4.4.0>
 <PP_QIJL.4.4.2 type="real" size="   888" columns="3" first_index=" 4" second_index=" 4" composite_index="10" angular_momentum="2">
  1.03933958779660211E-13  1.09262754804569085E-13  1.14864777213237503E-13
  1.20754031560971337E-13  1.26945210746395067E-13  1.33453832454279367E-13
  1.40296167577031666E-13  1.47489292388673900E-13  1.55051234521947102E-13
  1.63000889031131402E-13  1.71358109458261639E-13  1.80143837075860108E-13
  1.89380009376216489E-13  1.99089719626211740E-13  2.09297282151454502E-13
  2.20028172596287865E-13  2.31309257345165548E-13  2.43168747392064115E-13
  2.55636259727104211E-13  2.68743023087959497E-13  2.82521766234989511E-13
  2.97006962200889014E-13  3.12234847119595292E-13  3.28243452701890601E-13
  3.45072868328587327E-13  3.62765121213329917E-13  3.81364487736361880E-13
  4.00917467623407294E-13  4.21472932637465217E-13  4.43082327383830467E-13
  4.65799623996584458E-13  4.89681696604101439E-13  5.14788197169500673E-13
  5.41181960411710998E-13  5.68928944183545409E-13  5.98098553986525793E-13
  6.28763721974521648E-13  6.61001118654174832E-13  6.94891375930721034E-13
  7.30519204257385667E-13  7.67973733274265289E-13  8.07348570626109515E-13
  8.48742226519046057E-13  8.92258151357611512E-13  9.38005213535909847E-13
  9.86097749737865053E-13  1.03665606768657319E-12  1.08980654389517969E-12
  1.14568211912131244E-12  1.20442248627144903E-12  1.26617453674095076E-12
  1.33109269129723972E-12  1.39933924957628495E-12  1.47108491484354529E-12
  1.54650901652145252E-12  1.62580023982673399E-12  1.70915676456193984E-12
  1.79678710341825664E-12  1.88891032796275745E-12  1.98575680486395487E-12
  2.08756873443681553E-12  2.19460062597981797E-12  2.30712020375861912E-12
  2.42540875204647306E-12  2.54976208379646100E-12  2.68049117607770395E-12
  2.81792284049452003E-12  2.96240081279448563E-12  3.11428632240725563E-12
  3.27395913454434698E-12  3.44181858900330379E-12  3.61828435210026963E-12
  3.80379769074264765E-12  3.99882254097773464E-12  4.20384649255474249E-12
  4.41938223150408861E-12  4.64596876145818251E-12  4.88417260149625347E-12
  5.13458938492815359E-12  5.39784534556881831E-12  5.67459872103734861E-12
  5.96554149497352362E-12  6.27140124231691870E-12  6.59294277506064587E-12
  6.93097005020259779E-12  7.28632832916911222E-12  7.65990624033475005E-12
  8.05263790595340618E-12  8.46550530279421859E-12  8.89954084143710824E-12
  9.35582987414813933E-12  9.83551335098437389E-12  1.03397906834199130E-11
  1.08699228233338452E-11  1.14272354167460856E-11  1.20131220443225344E-11
  1.26290477085518686E-11  1.32765525063333425E-11  1.39572555376235687E-11
  1.46728589420789123E-11  1.54251521093172057E-11  1.62160161562183779E-11
  1.70474286348718802E-11  1.79214684833342194E-11  1.88403212556298649E-11
  1.98062845762839092E-11  2.08217738610617703E-11  2.18893283586309413E-11
  2.30116175022838940E-11  2.41914475868610354E-11  2.54317687875722475E-11
  2.67356825383050653E-11  2.81064492922810277E-11  2.95474966780471273E-11
  3.10624280598422067E-11  3.26550315472989093E-11  3.43292894683841161E-11
  3.60893883278097805E-11  3.79397292758363248E-11  3.98849391136691404E-11
  4.19298818629884600E-11  4.40796709285679606E-11  4.63396818844151343E-11
  4.87155659154278719E-11  5.12132639481971878E-11  5.38390215063035030E-11
  5.65994043272663664E-11  5.95013147801999952E-11  6.25520091252253700E-11
  6.57591156577844280E-11  6.91306537831999689E-11  7.26750540691450897E-11
  7.64011793261063321E-11  8.03183467684833353E-11  8.44363513116451183E-11
  8.87654900630813380E-11  9.33165880687385429E-11  9.81010253787487024E-11
  1.03130765506116965E-10  1.08418385362086232E-10  1.13977106694890070E-10
  1.19820829144134632E-10  1.25964164993403769E-10  1.32422475703005843E-10
  1.39211910313745607E-10  1.46349445817209442E-10  1.53852929607182101E-10
  1.61741124204775027E-10  1.70033754139437541E-10  1.78751555210390755E-10
  1.87916326315486215E-10  1.97550983932150593E-10  2.07679619447997860E-10
  2.18327559630431675E-10  2.29521429787868250E-10  2.41289220230566040E-10
  2.53660356205835473E-10  2.66665771623005493E-10  2.80337986725704782E-10
  2.94711189000280095E-10  3.09821318504776287E-10  3.25706157856512828E-10
  3.42405427328463172E-10  3.59960883565557437E-10  3.78416423680274040E-10
  3.97818195511848197E-10  4.18214713527701755E-10  4.39656979100846194E-10
  4.62198608017701499E-10  4.85895965880678274E-10  5.10808307982317409E-10
  5.36997926849902759E-10  5.64530309732293179E-10  5.93474301453738540E-10
  6.23902275455966653E-10  6.55890317033423000E-10  6.89518412184044845E-10
  7.24870646703161447E-10  7.62035419258031145E-10  8.01105659572506379E-10
  8.42179061747727925E-10  8.85358330182649685E-10  9.30751432815254701E-10
  9.78471875111838553E-10  1.02863898101335858E-09  1.08137819185509278E-09
  1.13682138207216721E-09  1.19510718471333021E-09  1.25638134365654914E-09
  1.32079707214807887E-09  1.38851544116195388E-09  1.45970577809936595E-09
  1.53454609271427634E-09  1.61322352123878248E-09  1.69593479381936564E-09
  1.78288672815780378E-09  1.87429674389939722E-09  1.97039340974150518E-09
  2.07141701102837533E-09  2.17762015461942551E-09  2.28926839663881259E-09
  2.40664090976452938E-09  2.53003117897611055E-09  2.65974773618792771E-09
  2.79611493286622302E-09  2.93947374743041796E-09  3.09018264412259202E-09
  3.24861846037666875E-09  3.41517735994036319E-09  3.59027581203162288E-09
  3.77435164252346600E-09  3.96786512254070680E-09  4.17130011981327222E-09
  4.38516531418555671E-09  4.60999545898617150E-09  4.84635273006832458E-09
  5.09482812280038333E-09  5.35604293076424878E-09  5.63065030655262815E-09
  5.91933688306124171E-09  6.22282449968584509E-09  6.54187200602215082E-09
  6.87727715106504547E-09  7.22987858950744660E-09  7.60055797269888015E-09
  7.99024214787805939E-09  8.39990548718383111E-09  8.83057231701785883E-09
  9.28331947429218816E-09  9.75927900964882478E-09  1.02596410135526019E-08
  1.07856565851136552E-08  1.13386409679909305E-08  1.19199768412255264E-08
  1.25311177669581771E-08  1.31735918263846395E-08  1.38490054500267325E-08
  1.45590474262888935E-08  1.53054931201416895E-08  1.60902089165414542E-08
  1.69151568929123840E-08  1.77823997158616482E-08  1.86941057967548472E-08
  1.96525547170519803E-08  2.06601429336847916E-08  2.17193897624987339E-08
  2.28329436754036591E-08  2.40035889228597987E-08  2.52342525022955773E-08
  2.65280114720259492E-08  2.78881006400669483E-08  2.93179206513850480E-08
  3.08210464910236528E-08  3.24012364281920451E-08  3.40624414074952714E-08
  3.58088149236385013E-08  3.76447234052436022E-08  3.95747571310079065E-08
  4.16037417087397772E-08  4.37367501414901929E-08  4.59791155048579785E-08
  4.83364442788865105E-08  5.08146303638876867E-08  5.34198698147116713E-08
  5.61586763308403517E-08  5.90378975437099716E-08  6.20647321325033632E-08
  6.52467478176632550E-08  6.85919002788921799E-08  7.21085530428553479E-08
  7.58054983902691626E-08  7.96919793346216891E-08  8.37777127275731230E-08
  8.80729135505573463E-08  9.25883204487845164E-08  9.73352225726833058E-08
  1.02325487796982040E-07  1.07571592386202933E-07  1.13086652180635527E-07
  1.18884455380705500E-07  1.24979497011645829E-07  1.31387015154581460E-07
  1.38123029034537211E-07  1.45204379060529722E-07  1.52648768917773100E-07
  1.60474809817533312E-07  1.68702067014574422E-07  1.77351108707686822E-07
  1.86443557447043243E-07  1.96002144176203926E-07  2.06050765043676716E-07
  2.16614541125948942E-07  2.27719881211144583E-07  2.39394547800133903E-07
  2.51667726489929031E-07  2.64570098912648862E-07  2.78133919412222710E-07
  2.92393095650306200E-07  3.07383273342717211E-07  3.23141925337986755E-07
  3.39708445260458753E-07  3.57124245951778157E-07  3.75432862956553487E-07
  3.94680063310589831E-07  4.14913959903305755E-07  4.36185131699844518E-07
  4.58546750123039162E-07  4.82054711910709650E-07  5.06767778779970772E-07
  5.32747724247169937E-07  5.60059487969931756E-07  5.88771337996561768E-07
  6.18955041327740859E-07  6.50686043216209135E-07  6.84043655651904720E-07
  7.19111255502903880E-07  7.55976492806630432E-07  7.94731509731036594E-07
  8.35473170752117255E-07  8.78303304622029383E-07  9.23328958731470471E-07
  9.70662666501493659E-07  1.02042272847381104E-06  1.07273350779433608E-06
  1.12772574083096537E-06  1.18553686370093979E-06  1.24631135552131642E-06
  1.31020109923850376E-06  1.37736576093658913E-06  1.44797318857027222E-06
  1.52219983111643752E-06  1.60023117918939494E-06  1.68226222821809337E-06
  1.76849796533983048E-06  1.85915388122402901E-06  1.95445650810265264E-06
  2.05464398536690967E-06  2.15996665410492919E-06  2.27068768205837129E-06
  2.38708372058693476E-06  2.50944559526409637E-06  2.63807903182380820E-06
  2.77330541926614628E-06  2.91546261202223481E-06  3.06490577317601361E-06
  3.22200826084243242E-06  3.38716255994900912E-06  3.56078126171369722E-06
  3.74329809314055112E-06  3.93516899924382682E-06  4.13687328065531530E-06
  4.34891478943791704E-06  4.57182318608025303E-06  4.80615526079887293E-06
  5.05249632244602924E-06  5.31146165860955829E-06  5.58369807023942190E-06
  5.86988548468098546E-06  6.17073865130262600E-06  6.48700892384327738E-06
  6.81948613390646934E-06  7.16900056025571312E-06  7.53642499888765051E-06
  7.92267693917976142E-06  8.32872085077651789E-06  8.75557058750057593E-06
  9.20429191423592600E-06  9.67600516296776740E-06  1.01718880245695972E-05
  1.06931784834105352E-05  1.12411779023348141E-05  1.18172542643673298E-05
  1.24228455802501361E-05  1.30594634702226815E-05  1.37286969287694687E-05
  1.44322162816843990E-05  1.51717773459067120E-05  1.59492258013950405E-05
  1.67665017852948728E-05  1.76256447213099507E-05  1.85287983956667917E-05
  1.94782162921980011E-05  2.04762672005465992E-05  2.15254411106633039E-05
  2.26283554060870414E-05  2.37877613742306718E-05  2.50065510489470064E-05
  2.62877644021735955E-05  2.76345969038750011E-05  2.90504074668254729E-05
  3.05387267940584198E-05  3.21032661534217920E-05  3.37479265995459327E-05
  3.54768086662310414E-05  3.72942225555068595E-05  3.92046988416387657E-05
  4.12129997200791855E-05  4.33241308309019192E-05  4.55433536844253691E-05
  4.78761987223174580E-05  5.03284790431981927E-05  5.29063048210025706E-05
  5.56160984603481078E-05  5.84646105234071809E-05  6.14589364691190136E-05
  6.46065342474653158E-05  6.79152427780213086E-05  7.13933013713019771E-05
  7.50493701387232933E-05  7.88925514417369080E-05  8.29324124374097708E-05
  8.71790087552572071E-05  9.16429093790812753E-05  9.63352227949362458E-05
  1.01267624468986942E-04  1.06452385728788106E-04  1.11902404090766179E-04
  1.17631235129428486E-04  1.23653125966343737E-04  1.29983050461723469E-04
  1.36636746198923978E-04  1.43630753316252428E-04  1.50982455313458186E-04
  1.58710121928026625E-04  1.66832954192756334E-04  1.75371131775356183E-04
  1.84345862681619456E-04  1.93779435486451685E-04  2.03695274208364179E-04
  2.14117995978674124E-04  2.25073471601619821E-04  2.36588889151214169E-04
  2.48692820795640992E-04  2.61415293001112986E-04  2.74787860303329413E-04
  2.88843682738984054E-04  3.03617607188539089E-04  3.19146252827754741E-04
  3.35468100910731764E-04  3.52623589058461339E-04  3.70655210231514605E-04
  3.89607616710715683E-04  4.09527729315388813E-04  4.30464852153197375E-04
  4.52470793034187157E-04  4.75599989934747834E-04  4.99909643824245531E-04
  5.25459858200599491E-04  5.52313785573634052E-04  5.80537781198557667E-04
  6.10201564549687483E-04  6.41378388898737172E-04  6.74145219412370018E-04
  7.08582919974245140E-04  7.44776449375683853E-04  7.82815067315589157E-04
  8.22792550760885607E-04  8.64807420909510793E-04  9.08963181412911756E-04
  9.55368568495325852E-04  1.00413781359747693E-03  1.05539091896196795E-03
  1.10925394671691920E-03  1.16585932237498130E-03  1.22534615343880310E-03
  1.28786056378086102E-03  1.35355604423145629E-03  1.42259382058172994E-03
  1.49514323980149918E-03  1.57138217540687161E-03  1.65149745234819821E-03
  1.73568529286146495E-03  1.82415178428524090E-03  1.91711337002207984E-03
  2.01479736406415082E-03  2.11744249067486205E-03  2.22529945054579688E-03
  2.33863151483376837E-03  2.45771514764559851E-03  2.58284065865427336E-03
  2.71431288758074108E-03  2.85245192217929190E-03  2.99759385051129659E-03
  3.15009154926829214E-03  3.31031551037179505E-03  3.47865470775118217E-03
  3.65551750534576702E-03  3.84133260819052988E-03  4.03655005937296474E-03
  4.24164228507292480E-03  4.45710518901470433E-03  4.68345929834267528E-03
  4.92125096432893556E-03  5.17105362049461326E-03  5.43346909975623953E-03
  5.70912901284621657E-03  5.99869619209368946E-03  6.30286620358352576E-03
  6.62236892956036445E-03  6.95797022368897702E-03  7.31047364398209904E-03
  7.68072226692015272E-03  8.06960058482760791E-03  8.47803648965215345E-03
  8.90700334870858125E-03  9.35752217648961986E-03  9.83066390471218007E-03
  1.03275517545125400E-02  1.08493637170899229E-02  1.13973351475426601E-02
  1.19727614740406663E-02  1.25770010273117596E-02  1.32114779974056660E-02
  1.38776855231636867E-02  1.45771889163690393E-02  1.53116290269613448E-02
  1.60827257567993827E-02  1.68922817280681425E-02  1.77421861080256128E-02
  1.86344185982099779E-02  1.95710535958970935E-02  2.05542645344456050E-02
  2.15863284039548263E-02  2.26696304622928183E-02  2.38066691443439039E-02
  2.50000611763261001E-02  2.62525468966012081E-02  2.75669957948376336E-02
  2.89464122772250532E-02  3.03939416641900925E-02  3.19128764226873918E-02
  3.35066626460200079E-02  3.51789067885972737E-02  3.69333826608857704E-02
  3.87740386881060689E-02  4.07050054454752980E-02  4.27306034768695150E-02
  4.48553514003089196E-02  4.70839743058016555E-02  4.94214124566153476E-02
  5.18728302997320742E-02  5.44436257868591289E-02  5.71394400130691427E-02
  5.99661671807526150E-02  6.29299648924252913E-02  6.60372647722851369E-02
  6.92947834230242948E-02  7.27095337207096098E-02  7.62888364475816788E-02
  8.00403322621551228E-02  8.39719940084531491E-02  8.80921393609197245E-02
  9.24094438002302232E-02  9.69329539184681510E-02  1.01672101045637980E-01
  1.06636715185716102E-01  1.11837039253977685E-01  1.17283743608352836E-01
  1.22987940852604241E-01  1.28961200887807992E-01  1.35215566203945925E-01
  1.41763567387572953E-01  1.48618238806585118E-01  1.55793134433629965E-01
  1.63302343802935124E-01  1.71160508043516790E-01  1.79382835930658152E-01
  1.87985119904659076E-01  1.96983752046836463E-01  2.06395739909150278E-01
  2.16238722113692244E-01  2.26530983672349112E-01  2.37291470982174402E-01
  2.48539806344215908E-01  2.60296301885166836E-01  2.72581972853857768E-01
  2.85418550164431295E-01  2.98828491991815826E-01  3.12834994258227417E-01
  3.27462000010840248E-01  3.42734207426228621E-01  3.58677076207885137E-01
  3.75316832204700523E-01  3.92680470224883504E-01  4.10795754631539889E-01
  4.29691217428040118E-01  4.49396153720917346E-01  4.69940614378370092E-01
  4.91355395363389402E-01  5.13672023367615416E-01  5.36922737756549417E-01
  5.61140468332374520E-01  5.86358808341503113E-01  6.12611982310459213E-01
  6.39934808794269117E-01  6.68362657152896666E-01  6.97931397740496728E-01
  7.28677345223386008E-01  7.60637194897977653E-01  7.93847950860077312E-01
  8.28346845315932501E-01  8.64171249094019878E-01  9.01358572632951049E-01
  9.39946156251429521E-01  9.79971148943554748E-01  1.02147037611108793E+00
  1.06448019468764143E+00  1.10903633455484418E+00  1.15517372580171207E+00
  1.20292631207308642E+00  1.25232684792795701E+00  1.30340667916298525E+00
  1.35619550647313858E+00  1.41072113172445746E+00  1.46700918485670084E+00
  1.52508283050247795E+00  1.58496245565486071E+00  1.64666533626918921E+00
  1.71020528139507189E+00  1.77559225471890447E+00  1.84283197494835815E+00
  1.91192549221185248E+00  1.98286873973764521E+00  2.05565206246816690E+00
  2.13025972275864595E+00  2.20666938110335265E+00  2.28485155201752432E+00
  2.36476903874607780E+00  2.44637634528058356E+00  2.52961906552317739E+00
  2.61443325169211205E+00  2.70074476629845517E+00  2.78846861618695518E+00
  2.87750827075390703E+00  2.96775496970655173E+00  3.05908702372570618E+00
  3.15136910934076120E+00  3.24445156284817893E+00  3.33816968173359019E+00
  3.43234303674299701E+00  3.52677480052560099E+00  3.62125110157877517E+00
  3.71554041329968499E+00  3.80939298468197940E+00  3.90254032378474003E+00
  3.99469474662176749E+00  4.08554900280384370E+00  4.17477599130477017E+00
  4.26202858299973286E+00  4.34693956428527795E+00  4.42912171910624330E+00
  4.50816807049992274E+00  4.58365230216482455E+00  4.65512937582555963E+00
  4.72213637231049166E+00  4.78419358470403733E+00  4.84080588117178223E+00
  4.89146436233419735E+00  4.93564835012571379E+00  4.97282774066508448E+00
  5.00246572911327458E+00  5.02402195046763289E+00  5.03695607636822906E+00
  5.04073188988257037E+00  5.03482184606081695E+00  5.01871217578471196E+00
  4.99190856992191989E+00  4.95394243141093504E+00  4.90437772541762929E+00
  4.84281847554162947E+00  4.76891692205034268E+00  4.68238228835171810E+00
  4.58299021203168611E+00  4.47059285491532776E+00  4.34512964143317060E+00
  4.20663856618646115E+00  4.05526810465550103E+00  3.89128968768231243E+00
  3.71511058285779905E+00  3.52728714711422020E+00  3.32853839682503105E+00
  3.11975975477700551E+00  2.90203673412046603E+00  2.67665849954893043E+00
  2.44513112314124692E+00  2.20919023386431101E+00  1.97081280341302745E+00
  1.73222786943490470E+00  1.49592586302488684E+00  1.26466609753708870E+00
  1.04148212479855817E+00  8.29684555887429731E-01  6.32860854528824901E-01
  4.54871622969046874E-01  2.99842939838347089E-01  1.72154225466408017E-01
  7.64217182152162472E-02  1.74719976402441558E-02 -2.03534396348753818E-04
 -1.41727487008373360E-05 -4.13268397929246285E-07  1.07802693578924249E-08
  1.68787824885722127E-09  8.75067173666564548E-11  1.23627982293385627E-12
 -1.41632065499117065E-13 -1.23999107819072257E-14 -4.69807132405398281E-16
  2.80979242326175862E-18  1.31391587146045175E-18  8.20578652257385650E-20
  0.00000000000000000E+00  0.00000000000000000E+00  0.00000000000000000E+00
  0.00000000000000000E+00  0.00000000000000000E+00  0.00000000000000000E+00
  0.00000000000000000E+00  0.00000000000000000E+00  0.00000000000000000E+00
  0.00000000000000000E+00  0.00000000000000000E+00  0.00000000000000000E+00
  0.00000000000000000E+00  0.00000000000000000E+00  0.00000000000000000E+00
  0.00000000000000000E+00  0.00000000000000000E+00  0.00000000000000000E+00
  0.00000000000000000E+00  0.00000000000000000E+00  0.00000000000000000E+00
  0.00000000000000000E+00  0.00000000000000000E+00  0.00000000000000000E+00
  0.00000000000000000E+00  0.00000000000000000E+00  0.00000000000000000E+00
  0.00000000000000000E+00  0.00000000000000000E+00  0.00000000000000000E+00
  0.00000000000000000E+00  0.00000000000000000E+00  0.00000000000000000E+00
  0.00000000000000000E+00  0.00000000000000000E+00  0.00000000000000000E+00
  0.00000000000000000E+00  0.00000000000000000E+00  0.00000000000000000E+00
  0.00000000000000000E+00  0.00000000000000000E+00  0.00000000000000000E+00
  0.00000000000000000E+00  0.00000000000000000E+00  0.00000000000000000E+00
  0.00000000000000000E+00  0.00000000000000000E+00  0.00000000000000000E+00
  0.00000000000000000E+00  0.00000000000000000E+00  0.00000000000000000E+00
  0.00000000000000000E+00  0.00000000000000000E+00  0.00000000000000000E+00
  0.00000000000000000E+00  0.00000000000000000E+00  0.00000000000000000E+00
  0.00000000000000000E+00  0.00000000000000000E+00  0.00000000000000000E+00
  0.00000000000000000E+00  0.00000000000000000E+00  0.00000000000000000E+00
  0.00000000000000000E+00  0.00000000000000000E+00  0.00000000000000000E+00
  0.00000000000000000E+00  0.00000000000000000E+00  0.00000000000000000E+00
  0.00000000000000000E+00  0.00000000000000000E+00  0.00000000000000000E+00
  0.00000000000000000E+00  0.00000000000000000E+00  0.00000000000000000E+00
  0.00000000000000000E+00  0.00000000000000000E+00  0.00000000000000000E+00
  0.00000000000000000E+00  0.00000000000000000E+00  0.00000000000000000E+00
  0.00000000000000000E+00  0.00000000000000000E+00  0.00000000000000000E+00
  0.00000000000000000E+00  0.00000000000000000E+00  0.00000000000000000E+00
  0.00000000000000000E+00  0.00000000000000000E+00  0.00000000000000000E+00
  0.00000000000000000E+00  0.00000000000000000E+00  0.00000000000000000E+00
  0.00000000000000000E+00  0.00000000000000000E+00  0.00000000000000000E+00
  0.00000000000000000E+00  0.00000000000000000E+00  0.00000000000000000E+00
  0.00000000000000000E+00  0.00000000000000000E+00  0.00000000000000000E+00
  0.00000000000000000E+00  0.00000000000000000E+00  0.00000000000000000E+00
  0.00000000000000000E+00  0.00000000000000000E+00  0.00000000000000000E+00
  0.00000000000000000E+00  0.00000000000000000E+00  0.00000000000000000E+00
  0.00000000000000000E+00  0.00000000000000000E+00  0.00000000000000000E+00
  0.00000000000000000E+00  0.00000000000000000E+00  0.00000000000000000E+00
  0.00000000000000000E+00  0.00000000000000000E+00  0.00000000000000000E+00
  0.00000000000000000E+00  0.00000000000000000E+00  0.00000000000000000E+00
  0.00000000000000000E+00  0.00000000000000000E+00  0.00000000000000000E+00
  0.00000000000000000E+00  0.00000000000000000E+00  0.00000000000000000E+00
  0.00000000000000000E+00  0.00000000000000000E+00  0.00000000000000000E+00
  0.00000000000000000E+00  0.00000000000000000E+00  0.00000000000000000E+00
  0.00000000000000000E+00  0.00000000000000000E+00  0.00000000000000000E+00
  0.00000000000000000E+00  0.00000000000000000E+00  0.00000000000000000E+00
  0.00000000000000000E+00  0.00000000000000000E+00  0.00000000000000000E+00
  0.00000000000000000E+00  0.00000000000000000E+00  0.00000000000000000E+00
  0.00000000000000000E+00  0.00000000000000000E+00  0.00000000000000000E+00
  0.00000000000000000E+00  0.00000000000000000E+00  0.00000000000000000E+00
  0.00000000000000000E+00  0.00000000000000000E+00  0.00000000000000000E+00
  0.00000000000000000E+00  0.00000000000000000E+00  0.00000000000000000E+00
  0.00000000000000000E+00  0.00000000000000000E+00  0.00000000000000000E+00
  0.00000000000000000E+00  0.00000000000000000E+00  0.00000000000000000E+00
  0.00000000000000000E+00  0.00000000000000000E+00  0.00000000000000000E+00
  0.00000000000000000E+00  0.00000000000000000E+00  0.00000000000000000E+00
  0.00000000000000000E+00  0.00000000000000000E+00  0.00000000000000000E+00
  0.00000000000000000E+00  0.00000000000000000E+00  0.00000000000000000E+00
                       </PP_QIJL.4.4.2>
                                   </PP_AUGMENTATION> 
                                   </PP_NONLOCAL> 
<PP_PSWFC> 
 <PP_CHI.1 type="real" size="   888" l="0" occupation=" 2.0000" columns="3" label= "1S">
  4.07159135844123096E-04  4.12280566522452000E-04  4.17466416838535332E-04
  4.22717497090523771E-04  4.28034627768821506E-04  4.33418639684285173E-04
  4.38870374098038955E-04  4.44390682852920603E-04  4.49980428506580423E-04
  4.55640484466257091E-04  4.61371735125244394E-04  4.67175076001077622E-04
  4.73051413875457284E-04  4.79001666935932103E-04  4.85026764919366292E-04
  4.91127649257206973E-04  4.97305273222582982E-04  5.03560602079252567E-04
  5.09894613232422518E-04  5.16308296381469108E-04  5.22802653674573291E-04
  5.29378699865306170E-04  5.36037462471182177E-04  5.42779981934205348E-04
  5.49607311783438502E-04  5.56520518799611037E-04  5.63520683181803527E-04
  5.70608898716225038E-04  5.77786272947113533E-04  5.85053927349788523E-04
  5.92412997505876028E-04  5.99864633280740539E-04  6.07409999003147836E-04
  6.15050273647187065E-04  6.22786651016482757E-04  6.30620339930719996E-04
  6.38552564414518941E-04  6.46584563888684188E-04  6.54717593363858346E-04
  6.62952923636614313E-04  6.71291841488008147E-04  6.79735649884635035E-04
  6.88285668182211344E-04  6.96943232331716147E-04  7.05709695088130393E-04
  7.14586426221792905E-04  7.23574812732421992E-04  7.32676259065826656E-04
  7.41892187333341945E-04  7.51224037534027416E-04  7.60673267779654258E-04
  7.70241354522528915E-04  7.79929792786178020E-04  7.89740096398934338E-04
  7.99673798230465002E-04  8.09732450431266903E-04  8.19917624675180917E-04
  8.30230912404953184E-04  8.40673925080884189E-04  8.51248294432609348E-04
  8.61955672714037656E-04  8.72797732961505426E-04  8.83776169255171690E-04
  8.94892696983701328E-04  9.06149053112281365E-04  9.17546996453999703E-04
  9.29088307944644291E-04  9.40774790920954830E-04  9.52608271402373419E-04
  9.64590598376342812E-04  9.76723644087184716E-04  9.89009304328617974E-04
  1.00144949873995316E-03  1.01404617110600957E-03  1.02680128966081154E-03
  1.03971684739509202E-03  1.05279486236767306E-03  1.06603737802075894E-03
  1.07944646349919298E-03  1.09302421397373321E-03  1.10677275096838514E-03
  1.12069422269185995E-03  1.13479080437319576E-03  1.14906469860159930E-03
  1.16351813567056625E-03  1.17815337392631974E-03  1.19297270012063794E-03
  1.20797842976811624E-03  1.22317290750791974E-03  1.23855850747009054E-03
  1.25413763364645128E-03  1.26991272026618176E-03  1.28588623217611403E-03
  1.30206066522580788E-03  1.31843854665747635E-03  1.33502243550079943E-03
  1.35181492297271649E-03  1.36881863288223810E-03  1.38603622204034769E-03
  1.40347038067506458E-03  1.42112383285171147E-03  1.43899933689848030E-03
  1.45709968583734037E-03  1.47542770782036641E-03  1.49398626657155746E-03
  1.51277826183419777E-03  1.53180662982385554E-03  1.55107434368707028E-03
  1.57058441396580638E-03  1.59033988906775265E-03  1.61034385574252174E-03
  1.63059943956384771E-03  1.65110980541784027E-03  1.67187815799737811E-03
  1.69290774230272060E-03  1.71420184414840140E-03  1.73576379067650862E-03
  1.75759695087640729E-03  1.77970473611099790E-03  1.80209060064959506E-03
  1.82475804220749130E-03  1.84771060249231669E-03  1.87095186775725845E-03
  1.89448546936123608E-03  1.91831508433612150E-03  1.94244443596107538E-03
  1.96687729434411734E-03  1.99161747701099776E-03  2.01666884950146884E-03
  2.04203532597305908E-03  2.06772086981242033E-03  2.09372949425436997E-03
  2.12006526300871027E-03  2.14673229089491985E-03  2.17373474448482543E-03
  2.20107684275335381E-03  2.22876285773744359E-03  2.25679711520325758E-03
  2.28518399532176434E-03  2.31392793335281378E-03  2.34303342033781231E-03
  2.37250500380108620E-03  2.40234728846007006E-03  2.43256493694441389E-03
  2.46316267052412025E-03  2.49414526984684075E-03  2.52551757568441129E-03
  2.55728448968878860E-03  2.58945097515747135E-03  2.62202205780853216E-03
  2.65500282656540125E-03  2.68839843435147736E-03  2.72221409889474757E-03
  2.75645510354249586E-03  2.79112679808624694E-03  2.82623459959707810E-03
  2.86178399327139928E-03  2.89778053328737344E-03  2.93422984367208619E-03
  2.97113761917959041E-03  3.00850962618000404E-03  3.04635170355972793E-03
  3.08466976363300270E-03  3.12346979306488874E-03  3.16275785380583678E-03
  3.20254008403799903E-03  3.24282269913339161E-03  3.28361199262411189E-03
  3.32491433718471461E-03  3.36673618562692003E-03  3.40908407190681530E-03
  3.45196461214466446E-03  3.49538450565754777E-03  3.53935053600493632E-03
  3.58386957204738770E-03  3.62894856901853488E-03  3.67459456961049570E-03
  3.72081470507291826E-03  3.76761619632580338E-03  3.81500635508628212E-03
  3.86299258500953126E-03  3.91158238284397206E-03  3.96078333960097999E-03
  4.01060314173924248E-03  4.06104957236396932E-03  4.11213051244113757E-03
  4.16385394202694204E-03  4.21622794151267372E-03  4.26926069288518194E-03
  4.32296048100313385E-03  4.37733569488928369E-03  4.43239482903889058E-03
  4.48814648474456668E-03  4.54459937143769210E-03  4.60176230804664865E-03
  4.65964422437205317E-03  4.71825416247919922E-03  4.77760127810794924E-03
  4.83769484210026975E-03  4.89854424184562372E-03  4.96015898274448832E-03
  5.02254868969011833E-03  5.08572310856892067E-03  5.14969210777955350E-03
  5.21446567977104040E-03  5.28005394260013926E-03  5.34646714150813218E-03
  5.41371565051739639E-03  5.48180997404788036E-03  5.55076074855381189E-03
  5.62057874418086991E-03  5.69127486644400906E-03  5.76286015792630731E-03
  5.83534579999899893E-03  5.90874311456298946E-03  5.98306356581214047E-03
  6.05831876201851516E-03  6.13452045733995591E-03  6.21168055365019928E-03
  6.28981110239180529E-03  6.36892430645225483E-03  6.44903252206335993E-03
  6.53014826072443114E-03  6.61228419114937710E-03  6.69545314123807904E-03
  6.77966810007235837E-03  6.86494221993672396E-03  6.95128881836438485E-03
  7.03872138020866789E-03  7.12725355974023859E-03  7.21689918277044779E-03
  7.30767224880102522E-03  7.39958693320056857E-03  7.49265758940807335E-03
  7.58689875116383763E-03  7.68232513476813095E-03  7.77895164136783827E-03
  7.87679335927158296E-03  7.97586556629354196E-03  8.07618373212635327E-03
  8.17776352074348414E-03  8.28062079283133946E-03  8.38477160825155596E-03
  8.49023222853381547E-03  8.59701911939951026E-03  8.70514895331664894E-03
  8.81463861208643326E-03  8.92550518946177290E-03  9.03776599379821008E-03
  9.15143855073764084E-03  9.26654060592512624E-03  9.38309012775932413E-03
  9.50110531017682274E-03  9.62060457547085288E-03  9.74160657714475547E-03
  9.86413020280059970E-03  9.98819457706342714E-03  1.01138190645414378E-02
  1.02410232728226639E-02  1.03698270555084744E-02  1.05002505152843317E-02
  1.06323140070283487E-02  1.07660381409579037E-02  1.09014437858149446E-02
  1.10385520720903303E-02  1.11773843952876293E-02  1.13179624192269457E-02
  1.14603080793891175E-02  1.16044435863008385E-02  1.17503914289611398E-02
  1.18981743783096467E-02  1.20478154907372528E-02  1.21993381116394534E-02
  1.23527658790130654E-02  1.25081227270966815E-02  1.26654328900553288E-02
  1.28247209057100221E-02  1.29860116193124108E-02  1.31493301873653184E-02
  1.33147020814895576E-02  1.34821530923374417E-02  1.36517093335537295E-02
  1.38233972457843021E-02  1.39972436007332855E-02  1.41732755052690080E-02
  1.43515204055793665E-02  1.45320060913772409E-02  1.47147607001562909E-02
  1.48998127214978772E-02  1.50871910014295646E-02  1.52769247468357086E-02
  1.54690435299208312E-02  1.56635772927261399E-02  1.58605563516999309E-02
  1.60600114023223828E-02  1.62619735237851636E-02  1.64664741837267162E-02
  1.66735452430234639E-02  1.68832189606377449E-02  1.70955279985229927E-02
  1.73105054265865962E-02  1.75281847277112719E-02  1.77485998028353020E-02
  1.79717849760923296E-02  1.81977750000113167E-02  1.84266050607771077E-02
  1.86583107835524009E-02  1.88929282378614595E-02  1.91304939430363835E-02
  1.93710448737263868E-02  1.96146184654706381E-02  1.98612526203354282E-02
  2.01109857126160196E-02  2.03638565946038796E-02  2.06199046024199834E-02
  2.08791695619144416E-02  2.11416917946334569E-02  2.14075121238537537E-02
  2.16766718806853942E-02  2.19492129102434007E-02  2.22251775778886280E-02
  2.25046087755387501E-02  2.27875499280495927E-02  2.30740449996675416E-02
  2.33641385005536016E-02  2.36578754933794225E-02  2.39553015999960789E-02
  2.42564630081759901E-02  2.45614064784284297E-02  2.48701793508893237E-02
  2.51828295522856065E-02  2.54994056029747770E-02  2.58199566240600899E-02
  2.61445323445817189E-02  2.64731831087845829E-02  2.68059598834629806E-02
  2.71429142653826679E-02  2.74840984887807400E-02  2.78295654329434664E-02
  2.81793686298629741E-02  2.85335622719724430E-02  2.88922012199606879E-02
  2.92553410106662568E-02  2.96230378650511224E-02  2.99953486962547186E-02
  3.03723311177278472E-02  3.07540434514474437E-02  3.11405447362118060E-02
  3.15318947360166413E-02  3.19281539485121446E-02  3.23293836135409712E-02
  3.27356457217573768E-02  3.31470030233274732E-02  3.35635190367103917E-02
  3.39852580575206870E-02  3.44122851674714819E-02  3.48446662433983950E-02
  3.52824679663641810E-02  3.57257578308434603E-02  3.61746041539877730E-02
  3.66290760849700830E-02  3.70892436144086776E-02  3.75551775838700239E-02
  3.80269496954497299E-02  3.85046325214314158E-02  3.89882995140225855E-02
  3.94780250151668954E-02  3.99738842664321206E-02  4.04759534189725115E-02
  4.09843095435654045E-02  4.14990306407200804E-02  4.20201956508585162E-02
  4.25478844645665530E-02  4.30821779329139884E-02  4.36231578778425583E-02
  4.41709071026199843E-02  4.47255094023586014E-02  4.52870495745969839E-02
  4.58556134299422935E-02  4.64312878027720033E-02  4.70141605619922021E-02
  4.76043206218508611E-02  4.82018579528033786E-02  4.88068635924278141E-02
  4.94194296563874938E-02  5.00396493494376648E-02  5.06676169764737339E-02
  5.13034279536176141E-02  5.19471788193387671E-02  5.25989672456068508E-02
  5.32588920490716378E-02  5.39270532022667615E-02  5.46035518448331619E-02
  5.52884902947573600E-02  5.59819720596207993E-02  5.66841018478546135E-02
  5.73949855799953459E-02  5.81147303999361778E-02  5.88434446861677285E-02
  5.95812380630032223E-02  6.03282214117812354E-02  6.10845068820400072E-02
  6.18502079026563081E-02  6.26254391929418619E-02  6.34103167736900508E-02
  6.42049579781649449E-02  6.50094814630244461E-02  6.58240072191692699E-02
  6.66486565825086946E-02  6.74835522446338987E-02  6.83288182633890046E-02
  6.91845800733296157E-02  7.00509644960582989E-02  7.09280997504259381E-02
  7.18161154625872045E-02  7.27151426758981950E-02  7.36253138606432073E-02
  7.45467629235779389E-02  7.54796252172746512E-02  7.64240375492557800E-02
  7.73801381909002273E-02  7.83480668861068902E-02  7.93279648596989795E-02
  8.03199748255525314E-02  8.13242409944308908E-02  8.23409090815069994E-02
  8.33701263135537690E-02  8.44120414357826393E-02  8.54668047183097523E-02
  8.65345679622278457E-02  8.76154845052605213E-02  8.87097092269759496E-02
  8.98173985535348635E-02  9.09387104619480691E-02  9.20738044838164404E-02
  9.32228417085249200E-02  9.43859847858625478E-02  9.55633979280379464E-02
  9.67552469110605218E-02  9.79616990754529210E-02  9.91829233262615656E-02
  1.00419090132330704E-01  1.01670371524803307E-01  1.02936941094811857E-01
  1.04218973990316738E-01  1.05516646912054160E-01  1.06830138108549258E-01
  1.08159627370152570E-01  1.09505296022051474E-01  1.10867326916208694E-01
  1.12245904422180146E-01  1.13641214416760547E-01  1.15053444272403230E-01
  1.16482782844356550E-01  1.17929420456461348E-01  1.19393548885550066E-01
  1.20875361344386603E-01  1.22375052463078490E-01  1.23892818268897004E-01
  1.25428856164436636E-01  1.26983364904043605E-01  1.28556544568436182E-01
  1.30148596537437045E-01  1.31759723460743411E-01  1.33390129226650889E-01
  1.35040018928644284E-01  1.36709598829761025E-01  1.38399076324640713E-01
  1.40108659899166127E-01  1.41838559087596600E-01  1.43588984427081373E-01
  1.45360147409455326E-01  1.47152260430207321E-01  1.48965536734509629E-01
  1.50800190360177666E-01  1.52656436077444946E-01  1.54534489325431096E-01
  1.56434566145174647E-01  1.58356883109080221E-01  1.60301657246645218E-01
  1.62269105966329041E-01  1.64259446973418627E-01  1.66272898183718071E-01
  1.68309677632903804E-01  1.70370003381393464E-01  1.72454093414561083E-01
  1.74562165538102443E-01  1.76694437268364979E-01  1.78851125717474607E-01
  1.81032447473067987E-01  1.83238618472408299E-01  1.85469853870667167E-01
  1.87726367903189001E-01  1.90008373741520242E-01  1.92316083342951138E-01
  1.94649707293318680E-01  1.97009454642869175E-01  1.99395532734936570E-01
  2.01808147027146279E-01  2.04247500904858464E-01  2.06713795486631075E-01
  2.09207229421430552E-01  2.11727998677252977E-01  2.14276296320838722E-01
  2.16852312288238841E-01  2.19456233145933072E-01  2.22088241842106154E-01
  2.24748517447736162E-01  2.27437234887232581E-01  2.30154564658293620E-01
  2.32900672540520687E-01  2.35675719292424868E-01  2.38479860336537702E-01
  2.41313245432268619E-01  2.44176018335960393E-01  2.47068316447773301E-01
  2.49990270445085871E-01  2.52942003902023538E-01  2.55923632894459685E-01
  2.58935265590149399E-01  2.61977001823643363E-01  2.65048932655568670E-01
  2.68151139915491166E-01  2.71283695728086860E-01  2.74446662022225341E-01
  2.77640090022509334E-01  2.80864019722359692E-01  2.84118479338471508E-01
  2.87403484746205251E-01  2.90719038895374648E-01  2.94065131205432317E-01
  2.97441736940000090E-01  3.00848816560283672E-01  3.04286315056680412E-01
  3.07754161257590142E-01  3.11252267115488257E-01  3.14780526969810459E-01
  3.18338816785704470E-01  3.21926993367830927E-01  3.25544893549341352E-01
  3.29192333355643463E-01  3.32869107141627985E-01  3.36574986701950296E-01
  3.40309720354495859E-01  3.44073031996712797E-01  3.47864620133041424E-01
  3.51684156873695031E-01  3.55531286904868127E-01  3.59405626430044201E-01
  3.63306762080296608E-01  3.67234249794666623E-01  3.71187613670669991E-01
  3.75166344784303774E-01  3.79169899977588654E-01  3.83197700615469983E-01
  3.87249131312275729E-01  3.91323538626345113E-01  3.95420229721825001E-01
  3.99538470999881379E-01  4.03677486699880073E-01  4.07836457467961933E-01
  4.12014518893955239E-01  4.16210760018928649E-01  4.20424221814265864E-01
  4.24653895628515132E-01  4.28898721605688760E-01  4.33157587077210471E-01
  4.37429324928051200E-01  4.41712711933308688E-01  4.46006467071549284E-01
  4.50309249817363422E-01  4.54619658411955674E-01  4.58936228110546074E-01
  4.63257429414397015E-01  4.67581666290808218E-01  4.71907274376909158E-01
  4.76232519171427338E-01  4.80555594222413451E-01  4.84874619315059929E-01
  4.89187638652665846E-01  4.93492619042278535E-01  4.97787448092601892E-01
  5.02069932426970955E-01  5.06337795905574484E-01  5.10588677874658559E-01
  5.14820131450944185E-01  5.19029621838994371E-01  5.23214524683882631E-01
  5.27372124479266402E-01  5.31499613040979479E-01  5.35594088036546068E-01
  5.39652551587613050E-01  5.43671908964425077E-01  5.47648967382395657E-01
  5.51580434887598337E-01  5.55462919364242413E-01  5.59292927682113139E-01
  5.63066864986595306E-01  5.66781034128133299E-01  5.70431635272580118E-01
  5.74014765712320907E-01  5.77526419866048912E-01  5.80962489489379452E-01
  5.84318764136553259E-01  5.87590931894054869E-01  5.90774580361445367E-01
  5.93865197933919675E-01  5.96858175421417836E-01  5.99748808013907286E-01
  6.02532297577837994E-01  6.05203755358113660E-01  6.07758205119111827E-01
  6.10190586707050731E-01  6.12495760059173833E-01  6.14668509731703727E-01
  6.16703549979435106E-01  6.18595530341093824E-01  6.20339041811904246E-01
  6.21928623659860902E-01  6.23358770898612469E-01  6.24623942377846686E-01
  6.25718569607207842E-01  6.26637066358346595E-01  6.27373839008658063E-01
  6.27923297647950074E-01  6.28279868053483348E-01  6.28438004567727915E-01
  6.28392203789525206E-01  6.28137019183233059E-01  6.27667076672163371E-01
  6.26977091209626414E-01  6.26061884240182720E-01  6.24916402196149745E-01
  6.23535736057421075E-01  6.21915141882456224E-01  6.20050062302905158E-01
  6.17936149085508646E-01  6.15569286750564881E-01  6.12945617070761228E-01
  6.10061564536886536E-01  6.06913862803856174E-01  6.03499582022863468E-01
  5.99816156880664364E-01  5.95861415436636066E-01  5.91633608677983980E-01
  5.87131440571127761E-01  5.82354098504358042E-01  5.77301284092821665E-01
  5.71973244167253370E-01  5.66370801627972043E-01  5.60495386088904479E-01
  5.54349064106071654E-01  5.47934568678655309E-01  5.41255327697525823E-01
  5.34315491139639276E-01  5.27119956628521180E-01  5.19674392943974550E-01
  5.11985261131398528E-01  5.04059832773512517E-01  4.95906204887188728E-01
  4.87533311034719918E-01  4.78950928102001849E-01  4.70169678082551390E-01
  4.61201024293550033E-01  4.52057261611971462E-01  4.42751499882455102E-01
  4.33297639693673076E-01  4.23710340227884452E-01  4.14004978508348997E-01
  4.04197599082012582E-01  3.94304853453766035E-01  3.84343929508700222E-01
  3.74332469837033832E-01  3.64288478275160144E-01  3.54230214887396477E-01
  3.44176079885086472E-01  3.34144485668435798E-01  3.24153717181258849E-01
  3.14221782800647997E-01  3.04366256340930619E-01  2.94604111087586162E-01
  2.84951548430299739E-01  2.75423825920389165E-01  2.66035086858018965E-01
  2.56798196058281303E-01  2.47724589490724206E-01  2.38824145703556756E-01
  2.30105086737869502E-01  2.21573920161462490E-01  2.13235438026116053E-01
  2.05092787386226244E-01  1.97147631685640451E-01  1.89400427423674300E-01
  1.81850843778195465E-01  1.74498254884365323E-01  1.67341915109683687E-01
  1.60380949172189147E-01  1.53614341274602134E-01  1.47040927580168984E-01
  1.40659391683801260E-01  1.34468262259476806E-01  1.28465912794628462E-01
  1.22650563107455937E-01  1.17020282125681191E-01  1.11572991480696992E-01
  1.06306470074057677E-01  1.01218359468345231E-01  9.63061695397542800E-02
  9.15672844958275167E-02  8.69989693860971081E-02  8.25983769418191238E-02
  7.83625542550044352E-02  7.42884497323074017E-02  7.03729203498146411E-02
  6.66127388253515001E-02  6.30046006363574884E-02  5.95451312569463681E-02
  5.62308935767348791E-02  5.30583949391004589E-02  5.00240942017832757E-02
  4.71244089668143087E-02  4.43557227551402908E-02  4.17143917704155195E-02
  3.91967517755756473E-02  3.67991250863134653E-02  3.45178271862033037E-02
  3.23491731169772076E-02  3.02894839438311789E-02  2.83350931924486703E-02
  2.64823527176655804E-02  2.47276385236316239E-02  2.30673565949766797E-02
  2.14979484043520859E-02  2.00158959476799299E-02  1.86177267491395536E-02
  1.73000187953760570E-02  1.60594048801583900E-02  1.48925766950439974E-02
  1.37962888388159250E-02  1.27673625735757121E-02  1.18026889667853466E-02
  1.08992319092423521E-02  1.00540310118935640E-02  9.26420401382984163E-03
  8.52694878076073158E-03  7.83954518505730093E-03  7.19935679968634716E-03
  6.60383200272339054E-03  6.05050488849487571E-03  5.53699605191671374E-03
  5.06101304604394432E-03  4.62035038750038731E-03  4.21288945829433048E-03
  3.83659828296995355E-03  3.48953087534368970E-03  3.16982636314561660E-03
  2.87570803205187443E-03  2.60548220541086681E-03  2.35753674699744949E-03
  2.13033949890093421E-03  1.92243666425451838E-03  1.73245095913200924E-03
  1.55907957155644551E-03  1.40109211023523549E-03  1.25732851353218210E-03
  1.12669673062809790E-03  1.00817037706653237E-03  9.00786407403596744E-04
  8.03642725131611577E-04  7.15895672394754705E-04  6.36757570670936995E-04
  5.65494302272102575E-04  5.01422815882588010E-04  4.43908641278265915E-04
  3.92363477819279922E-04  3.46242825682436400E-04  3.05043581420011921E-04
  2.68301717994132171E-04  2.35590050317936272E-04  2.06516029100785135E-04
  1.80719573581981799E-04  1.57871006378073274E-04  1.37669076533611221E-04
  1.19839013595778233E-04  1.04130672176604586E-04  9.03167767837880430E-05
  7.81912420467690183E-05  6.75675497854790906E-05  5.82772275443276433E-05
  5.01684202277350878E-05  4.31045238117004417E-05  3.69628982338399514E-05
  3.16336712379898467E-05  2.70186212938313688E-05  2.30301192489811169E-05
  1.95901510675681504E-05  1.66294167689793973E-05  1.40864906783225247E-05
  1.19070413457372770E-05  1.00431193297081752E-05  8.45250564539864759E-06
  7.09810791251922926E-06  5.94741075115026337E-06  4.97197818512442486E-06
  4.14700074385435735E-06  3.45088158011606719E-06  2.86486515393146688E-06
  2.37270397009541102E-06  1.96035673674705519E-06  1.61571770488996068E-06
  1.32837617115908117E-06  1.08940231473091747E-06  8.91155148147008466E-07
  7.27113172176731223E-07  5.91725272042907374E-07  4.80278754352501857E-07
  3.88782950656535474E-07  3.13867778014736762E-07  2.52695273543262195E-07
  2.02881945546057195E-07  1.62431489425990426E-07  1.29676731186294607E-07
  1.03229418463379192E-07  8.19367593600950012E-08  6.48443012073590403E-08
  5.11642363925949567E-08  4.02482262726323011E-08  3.15642895199347966E-08
  2.46772874879036024E-08  1.92324385206364247E-08  1.49413531081477552E-08
  1.15703552834813118E-08  8.93073407083603058E-09  6.87059026688000596E-09
  5.26804605242540130E-09  4.02564345590695428E-09  3.06572565638911056E-09
  2.32661952976494975E-09  1.75951375743779053E-09  1.32591601744470711E-09
  9.95581477297759928E-10  7.44827746769341281E-10  5.55179050964436084E-10
  4.12276686128757600E-10  3.05002542998144435E-10  2.24779487972398030E-10
  1.65016471685027428E-10  1.20668834938051657E-10  8.78899991608190321E-11
  6.37585480632369465E-11  4.60649072112115376E-11  3.31446774999622117E-11
  2.37490965280727109E-11  1.69452014065984805E-11  1.20390044398738989E-11
  8.51640629198496070E-12  5.99819082771734282E-12  4.20589058570172460E-12
  2.93593717673901405E-12  2.04015326625728276E-12  1.41117321769366044E-12
  9.71571453040521756E-13  6.65766960683117538E-13  4.54042977714822525E-13
  3.08156713585310534E-13  2.08123714574929907E-13  1.39868919515875110E-13
  9.35281475892145287E-14  6.22238960423145411E-14  4.11851255211184907E-14
  2.71184028760912630E-14  1.77622420035946073E-14  1.15721524338824157E-14
  7.49870195185343323E-15  4.83262278140412697E-15  3.09722656631826691E-15
  1.97391814561910107E-15  1.25089763867958046E-15  7.88164543306175951E-16
  4.93722783959289488E-16  3.07462661807111158E-16  1.90331966612662550E-16
  1.17112969211664995E-16  7.16213845516097140E-17  4.35305157517625841E-17
  2.62918363824355005E-17  1.57793232782782987E-17  9.40950041784401750E-18
                              </PP_CHI.1>
 <PP_CHI.2 type="real" size="   888" l="0" occupation=" 2.0000" columns="3" label= "2S">
 -1.15788970579762495E-05 -1.17245414351489022E-05 -1.18720177847178216E-05
 -1.20213491497401601E-05 -1.21725588631068944E-05 -1.23256705511879617E-05
 -1.24807081375233215E-05 -1.26376958465603967E-05 -1.27966582074384661E-05
 -1.29576200578207483E-05 -1.31206065477745103E-05 -1.32856431437000895E-05
 -1.34527556323092595E-05 -1.36219701246536128E-05 -1.37933130602036488E-05
 -1.39668112109790223E-05 -1.41424916857308462E-05 -1.43203819341765039E-05
 -1.45005097512877115E-05 -1.46829032816325456E-05 -1.48675910237719341E-05
 -1.50546018347115292E-05 -1.52439649344095016E-05 -1.54357099103409994E-05
 -1.56298667221200375E-05 -1.58264657061793566E-05 -1.60255375805092689E-05
 -1.62271134494559748E-05 -1.64312248085801978E-05 -1.66379035495769756E-05
 -1.68471819652571422E-05 -1.70590927545915784E-05 -1.72736690278187597E-05
 -1.74909443116165290E-05 -1.77109525543389326E-05 -1.79337281313187508E-05
 -1.81593058502367726E-05 -1.83877209565585203E-05 -1.86190091390392729E-05
 -1.88532065352983757E-05 -1.90903497374634146E-05 -1.93304757978855027E-05
 -1.95736222349263077E-05 -1.98198270388177616E-05 -2.00691286775955535E-05
 -2.03215661031069446E-05 -2.05771787570942773E-05 -2.08360065773548362E-05
 -2.10980900039780968E-05 -2.13634699856614306E-05 -2.16321879861049664E-05
 -2.19042859904870150E-05 -2.21798065120207105E-05 -2.24587925985930176E-05
 -2.27412878394872861E-05 -2.30273363721900047E-05 -2.33169828892832874E-05
 -2.36102726454238152E-05 -2.39072514644094421E-05 -2.42079657463346858E-05
 -2.45124624748358339E-05 -2.48207892244272962E-05 -2.51329941679299620E-05
 -2.54491260839928521E-05 -2.57692343647093243E-05 -2.60933690233287156E-05
 -2.64215807020650200E-05 -2.67539206800035044E-05 -2.70904408811065824E-05
 -2.74311938823203636E-05 -2.77762329217826911E-05 -2.81256119071344654E-05
 -2.84793854239352122E-05 -2.88376087441842197E-05 -2.92003378349488501E-05
 -2.95676293671008036E-05 -2.99395407241623239E-05 -3.03161300112632967E-05
 -3.06974560642107370E-05 -3.10835784586721982E-05 -3.14745575194741740E-05
 -3.18704543300173991E-05 -3.22713307418102041E-05 -3.26772493841213577E-05
 -3.30882736737542102E-05 -3.35044678249431620E-05 -3.39258968593744974E-05
 -3.43526266163327751E-05 -3.47847237629744365E-05 -3.52222558047304415E-05
 -3.56652910958389939E-05 -3.61138988500106080E-05 -3.65681491512267760E-05
 -3.70281129646739566E-05 -3.74938621478148180E-05 -3.79654694615978649E-05
 -3.84430085818079101E-05 -3.89265541105586046E-05 -3.94161815879289282E-05
 -3.99119675037457232E-05 -4.04139893095133940E-05 -4.09223254304934243E-05
 -4.14370552779350172E-05 -4.19582592614589002E-05 -4.24860188015963673E-05
 -4.30204163424849340E-05 -4.35615353647233225E-05 -4.41094603983871803E-05
 -4.46642770362076726E-05 -4.52260719469151787E-05 -4.57949328887496029E-05
 -4.63709487231401128E-05 -4.69542094285556994E-05 -4.75448061145290890E-05
 -4.81428310358562335E-05 -4.87483776069728251E-05 -4.93615404165110446E-05
 -4.99824152420381049E-05 -5.06110990649788904E-05 -5.12476900857252907E-05
 -5.18922877389340221E-05 -5.25449927090157698E-05 -5.32059069458176985E-05
 -5.38751336805017963E-05 -5.45527774416215802E-05 -5.52389440713991424E-05
 -5.59337407422057071E-05 -5.66372759732476519E-05 -5.73496596474606536E-05
 -5.80710030286147940E-05 -5.88014187786324669E-05 -5.95410209751226987E-05
 -6.02899251291337188E-05 -6.10482482031268905E-05 -6.18161086291744278E-05
 -6.25936263273840424E-05 -6.33809227245525338E-05 -6.41781207730520760E-05
 -6.49853449699512885E-05 -6.58027213763742622E-05 -6.66303776371005902E-05
 -6.74684430004085988E-05 -6.83170483381659115E-05 -6.91763261661692175E-05
 -7.00464106647368353E-05 -7.09274376995574596E-05 -7.18195448427968943E-05
 -7.27228713944676094E-05 -7.36375584040629792E-05 -7.45637486924599142E-05
 -7.55015868740933568E-05 -7.64512193794050131E-05 -7.74127944775707236E-05
 -7.83864622995091985E-05 -7.93723748611752886E-05 -8.03706860871421816E-05
 -8.13815518344743416E-05 -8.24051299168963814E-05 -8.34415801292603341E-05
 -8.44910642723151190E-05 -8.55537461777821593E-05 -8.66297917337398077E-05
 -8.77193689103216210E-05 -8.88226477857310189E-05 -8.99398005725765548E-05
 -9.10710016445319864E-05 -9.22164275633235856E-05 -9.33762571060503391E-05
 -9.45506712928397236E-05 -9.57398534148431199E-05 -9.69439890625756385E-05
 -9.81632661546028078E-05 -9.93978749665800346E-05 -1.00648008160647508E-04
 -1.01913860815185055E-04 -1.03195630454932011E-04 -1.04493517081474254E-04
 -1.05807723204104904E-04 -1.07138453871061479E-04 -1.08485916701144425E-04
 -1.09850321915721348E-04 -1.11231882371120742E-04 -1.12630813591420577E-04
 -1.14047333801635625E-04 -1.15481663961307946E-04 -1.16934027798505796E-04
 -1.18404651844234040E-04 -1.19893765467262573E-04 -1.21401600909375887E-04
 -1.22928393321049273E-04 -1.24474380797556263E-04 -1.26039804415511270E-04
 -1.27624908269853517E-04 -1.29229939511276196E-04 -1.30855148384105899E-04
 -1.32500788264637424E-04 -1.34167115699928159E-04 -1.35854390447057773E-04
 -1.37562875512858347E-04 -1.39292837194118644E-04 -1.41044545118269561E-04
 -1.42818272284553073E-04 -1.44614295105682832E-04 -1.46432893449999446E-04
 -1.48274350684125860E-04 -1.50138953716129309E-04 -1.52026993039192581E-04
 -1.53938762775802240E-04 -1.55874560722457986E-04 -1.57834688394907626E-04
 -1.59819451073915181E-04 -1.61829157851563389E-04 -1.63864121678101217E-04
 -1.65924659409336724E-04 -1.68011091854583430E-04 -1.70123743825165331E-04
 -1.72262944183483498E-04 -1.74429025892653181E-04 -1.76622326066713591E-04
 -1.78843186021417164E-04 -1.81091951325604316E-04 -1.83368971853165865E-04
 -1.85674601835602416E-04 -1.88009199915183226E-04 -1.90373129198710190E-04
 -1.92766757311893999E-04 -1.95190456454343920E-04 -1.97644603455180459E-04
 -2.00129579829273497E-04 -2.02645771834111322E-04 -2.05193570527307010E-04
 -2.07773371824744325E-04 -2.10385576559370965E-04 -2.13030590540642711E-04
 -2.15708824614622925E-04 -2.18420694724743702E-04 -2.21166621973230016E-04
 -2.23947032683196131E-04 -2.26762358461415046E-04 -2.29613036261766686E-04
 -2.32499508449369763E-04 -2.35422222865399661E-04 -2.38381632892598728E-04
 -2.41378197521481259E-04 -2.44412381417237967E-04 -2.47484654987342213E-04
 -2.50595494449864240E-04 -2.53745381902492856E-04 -2.56934805392271758E-04
 -2.60164258986051908E-04 -2.63434242841660354E-04 -2.66745263279793510E-04
 -2.70097832856631818E-04 -2.73492470437182011E-04 -2.76929701269346660E-04
 -2.80410057058723395E-04 -2.83934076044136004E-04 -2.87502303073897060E-04
 -2.91115289682804539E-04 -2.94773594169872339E-04 -2.98477781676793831E-04
 -3.02228424267141635E-04 -3.06026101006298581E-04 -3.09871398042123217E-04
 -3.13764908686347372E-04 -3.17707233496701330E-04 -3.21698980359770180E-04
 -3.25740764574573068E-04 -3.29833208936866585E-04 -3.33976943824167356E-04
 -3.38172607281487711E-04 -3.42420845107785474E-04 -3.46722310943115052E-04
 -3.51077666356481698E-04 -3.55487580934387652E-04 -3.59952732370064359E-04
 -3.64473806553384822E-04 -3.69051497661444295E-04 -3.73686508249803761E-04
 -3.78379549344384683E-04 -3.83131340534002189E-04 -3.87942610063529811E-04
 -3.92814094927678033E-04 -3.97746540965376969E-04 -4.02740702954748240E-04
 -4.07797344708646554E-04 -4.12917239170762138E-04 -4.18101168512257737E-04
 -4.23349924228927767E-04 -4.28664307238857769E-04 -4.34045127980559997E-04
 -4.39493206511568264E-04 -4.45009372607461386E-04 -4.50594465861295682E-04
 -4.56249335783417281E-04 -4.61974841901622343E-04 -4.67771853861643138E-04
 -4.73641251527918733E-04 -4.79583925084624794E-04 -4.85600775136922191E-04
 -4.91692712812388170E-04 -4.97860659862592227E-04 -5.04105548764773124E-04
 -5.10428322823575109E-04 -5.16829936272797255E-04 -5.23311354377105397E-04
 -5.29873553533661765E-04 -5.36517521373610219E-04 -5.43244256863370761E-04
 -5.50054770405678396E-04 -5.56950083940306053E-04 -5.63931231044409237E-04
 -5.70999257032422025E-04 -5.78155219055434717E-04 -5.85400186199981241E-04
 -5.92735239586152074E-04 -6.00161472464959505E-04 -6.07679990314863609E-04
 -6.15291910937371773E-04 -6.22998364551621787E-04 -6.30800493887843103E-04
 -6.38699454279603794E-04 -6.46696413754727409E-04 -6.54792553124775977E-04
 -6.62989066072977281E-04 -6.71287159240476286E-04 -6.79688052310784842E-04
 -6.88192978092295321E-04 -6.96803182598719094E-04 -7.05519925127307814E-04
 -7.14344478334702146E-04 -7.23278128310254182E-04 -7.32322174646656931E-04
 -7.41477930507708797E-04 -7.50746722693037302E-04 -7.60129891699587554E-04
 -7.69628791779691139E-04 -7.79244790995505215E-04 -7.88979271269608755E-04
 -7.98833628431543119E-04 -8.08809272260057775E-04 -8.18907626520826658E-04
 -8.29130128999386882E-04 -8.39478231529030162E-04 -8.49953400013390872E-04
 -8.60557114443429960E-04 -8.71290868908537394E-04 -8.82156171601435686E-04
 -8.93154544816568007E-04 -9.04287524941641192E-04 -9.15556662441971382E-04
 -9.26963521837281769E-04 -9.38509681670565829E-04 -9.50196734468632771E-04
 -9.62026286693928845E-04 -9.73999958687206142E-04 -9.86119384600604330E-04
 -9.98386212320685317E-04 -1.01080210338093954E-03 -1.02336873286327785E-03
 -1.03608778928798067E-03 -1.04896097449157818E-03 -1.06199000349209796E-03
 -1.07517660434109752E-03 -1.08852251796188277E-03 -1.10202949797327658E-03
 -1.11569931049829304E-03 -1.12953373395703041E-03 -1.14353455884307433E-03
 -1.15770358748269069E-03 -1.17204263377602112E-03 -1.18655352291950774E-03
 -1.20123809110871051E-03 -1.21609818522065293E-03 -1.23113566247482300E-03
 -1.24635239007187806E-03 -1.26175024480910773E-03 -1.27733111267164050E-03
 -1.29309688839835519E-03 -1.30904947502141810E-03 -1.32519078337831227E-03
 -1.34152273159519951E-03 -1.35804724454039339E-03 -1.37476625324667897E-03
 -1.39168169430117154E-03 -1.40879550920134256E-03 -1.42610964367580781E-03
 -1.44362604696840003E-03 -1.46134667108399185E-03 -1.47927346999449463E-03
 -1.49740839880335990E-03 -1.51575341286689052E-03 -1.53431046687057399E-03
 -1.55308151385858003E-03 -1.57206850421452477E-03 -1.59127338459147155E-03
 -1.61069809678912081E-03 -1.63034457657603164E-03 -1.65021475245463235E-03
 -1.67031054436671809E-03 -1.69063386233700582E-03 -1.71118660505224156E-03
 -1.73197065837327169E-03 -1.75298789377738100E-03 -1.77424016672809125E-03
 -1.79572931496952272E-03 -1.81745715674226649E-03 -1.83942548891765159E-03
 -1.86163608504716339E-03 -1.88409069332362089E-03 -1.90679103445062325E-03
 -1.92973879941657901E-03 -1.95293564716956668E-03 -1.97638320218911350E-03
 -2.00008305195081230E-03 -2.02403674427957059E-03 -2.04824578458703875E-03
 -2.07271163298871535E-03 -2.09743570129599863E-03 -2.12241934987830857E-03
 -2.14766388439017585E-03 -2.17317055235794832E-03 -2.19894053962071262E-03
 -2.22497496661973717E-03 -2.25127488453056917E-03 -2.27784127123163227E-03
 -2.30467502710289974E-03 -2.33177697064816973E-03 -2.35914783393408782E-03
 -2.38678825783887952E-03 -2.41469878710333201E-03 -2.44287986517638823E-03
 -2.47133182884755288E-03 -2.50005490265789920E-03 -2.52904919308121834E-03
 -2.55831468246624184E-03 -2.58785122273097858E-03 -2.61765852879968560E-03
 -2.64773617177272965E-03 -2.67808357181897709E-03 -2.70869999077999989E-03
 -2.73958452447541686E-03 -2.77073609469795194E-03 -2.80215344088656287E-03
 -2.83383511146492306E-03 -2.86577945483294880E-03 -2.89798460999829074E-03
 -2.93044849683434970E-03 -2.96316880595036240E-03 -2.99614298815878682E-03
 -3.02936824352534198E-03 -3.06284150998596943E-03 -3.09655945151456188E-03
 -3.13051844582375562E-03 -3.16471457158217949E-03 -3.19914359513002577E-03
 -3.23380095667457831E-03 -3.26868175594519387E-03 -3.30378073728819282E-03
 -3.33909227418125940E-03 -3.37461035314608757E-03 -3.41032855703615832E-03
 -3.44624004767614834E-03 -3.48233754783029356E-03 -3.51861332247497584E-03
 -3.55505915934971935E-03 -3.59166634875843433E-03 -3.62842566259549562E-03
 -3.66532733256819555E-03 -3.70236102758658746E-03 -3.73951583028749729E-03
 -3.77678021266378110E-03 -3.81414201076644283E-03 -3.85158839844686835E-03
 -3.88910586010060002E-03 -3.92668016237919353E-03 -3.96429632483378223E-03
 -4.00193858945305410E-03 -4.03959038905151932E-03 -4.07723431446886143E-03
 -4.11485208053994841E-03 -4.15242449079294713E-03 -4.18993140082536426E-03
 -4.22735168031201838E-03 -4.26466317360028706E-03 -4.30184265884410878E-03
 -4.33886580561983551E-03 -4.37570713097016912E-03 -4.41233995382704722E-03
 -4.44873634775831955E-03 -4.48486709197372640E-03 -4.52070162052769717E-03
 -4.55620796966510130E-03 -4.59135272324760237E-03 -4.62610095618727537E-03
 -4.66041617581560395E-03 -4.69426026112898780E-03 -4.72759339984074514E-03
 -4.76037402315574072E-03 -4.79255873818603198E-03 -4.82410225794338132E-03
 -4.85495732883058344E-03 -4.88507465553504518E-03 -4.91440282323346144E-03
 -4.94288821703795303E-03 -4.97047493859731696E-03 -4.99710471974121589E-03
 -5.02271683306786728E-03 -5.04724799939968837E-03 -5.07063229201227053E-03
 -5.09280103750500614E-03 -5.11368271320854478E-03 -5.13320284104679548E-03
 -5.15128387775088889E-03 -5.16784510126894713E-03 -5.18280249326660575E-03
 -5.19606861762792697E-03 -5.20755249484646052E-03 -5.21715947212008768E-03
 -5.22479108905235697E-03 -5.23034493885996508E-03 -5.23371452496776239E-03
 -5.23478911276998183E-03 -5.23345357647840483E-03 -5.22958824094524235E-03
 -5.22306871833041510E-03 -5.21376573935615484E-03 -5.20154497909845921E-03
 -5.18626687719147585E-03 -5.16778645229229536E-03 -5.14595311052409941E-03
 -5.12061044788173284E-03 -5.09159604646925845E-03 -5.05874126437444276E-03
 -5.02187101890087719E-03 -4.98080356317359002E-03 -4.93535025599186467E-03
 -4.88531532466215165E-03 -4.83049562058151648E-03 -4.77068036760786279E-03
 -4.70565090310705661E-03 -4.63518041130503780E-03 -4.55903364883046818E-03
 -4.47696666248595648E-03 -4.38872649915965189E-03 -4.29405090738062441E-03
 -4.19266803059147562E-03 -4.08429609216181405E-03 -3.96864307205371542E-03
 -3.84540637454773267E-03 -3.71427248733936094E-03 -3.57491663202408111E-03
 -3.42700240579884305E-03 -3.27018141383100857E-03 -3.10409289281413396E-03
 -2.92836332577422467E-03 -2.74260604774148944E-03 -2.54642084201259266E-03
 -2.33939352764666068E-03 -2.12109553836116764E-03 -1.89108349211133302E-03
 -1.64889875162998740E-03 -1.39406697659212315E-03 -1.12609766766716478E-03
 -8.44483701414503016E-04 -5.48700857077760056E-04 -2.38207335917348426E-04
  8.75567267448948270E-05  4.29169757808868849E-04  7.87229249195657240E-04
  1.16235226644294102E-03  1.55517596340289804E-03  1.96635810336055327E-03
  2.39657758432668035E-03  2.84653496752004537E-03  3.31695301018557079E-03
  3.80857720152316019E-03  4.32217629941742190E-03  4.85854286674425057E-03
  5.41849380917642370E-03  6.00287091115794640E-03  6.61254136782780250E-03
  7.24839831202887894E-03  7.91136133798788117E-03  8.60237701654623620E-03
  9.32241939950911348E-03  1.00724905136677680E-02  1.08536208437301565E-02
  1.16668697983248297E-02  1.25133261560718429E-02  1.33941084943371477E-02
  1.43103655956903341E-02  1.52632768264538941E-02  1.62540524843056700E-02
  1.72839341185392383E-02  1.83541948133430811E-02  1.94661394287404532E-02
  2.06211047982197311E-02  2.18204598837342563E-02  2.30656058759308412E-02
  2.43579762336034317E-02  2.56990366655629222E-02  2.70902850482373017E-02
  2.85332512670654487E-02  3.00294969752839744E-02  3.15806152768371845E-02
  3.31882303172546730E-02  3.48539967719347643E-02  3.65795992285126020E-02
  3.83667514671224008E-02  4.02171956164136188E-02  4.21327011748842267E-02
  4.41150639019526683E-02  4.61661045706273712E-02  4.82876675599699448E-02
  5.04816192767788899E-02  5.27498464189287489E-02  5.50942540555192026E-02
  5.75167635060559387E-02  6.00193100135299543E-02  6.26038402215858270E-02
  6.52723094201511644E-02  6.80266785445957090E-02  7.08689109373905196E-02
  7.38009688641635964E-02  7.68248097507139988E-02  7.99423821282508468E-02
  8.31556213110872522E-02  8.64664447729224239E-02  8.98767471986697819E-02
  9.33883952103685272E-02  9.70032217902481453E-02  1.00723020353234619E-01
  1.04549538455697449E-01  1.08484471163854887E-01  1.12529454079423344E-01
  1.16686055984914425E-01  1.20955771105063184E-01  1.25340011032785331E-01
  1.29840096285569001E-01  1.34457247479259939E-01  1.39192576139339830E-01
  1.44047075197735408E-01  1.49021609134988048E-01  1.54116903779743047E-01
  1.59333535824669859E-01  1.64671922079518807E-01  1.70132308452882325E-01
  1.75714758701333296E-01  1.81419143036368663E-01  1.87245126591246730E-01
  1.93192157789529945E-01  1.99259456694782622E-01  2.05446003432004143E-01
  2.11750526711589337E-01  2.18171492547638318E-01  2.24707093290132803E-01
  2.31355237056941831E-01  2.38113537665159747E-01  2.44979305202063569E-01
  2.51949537366002452E-01  2.59020911705199863E-01  2.66189778927435061E-01
  2.73452157448700217E-01  2.80803729312918471E-01  2.88239837698343992E-01
  2.95755486240392718E-01  3.03345340294559840E-01  3.11003730338707707E-01
  3.18724657792664678E-01  3.26501803485407749E-01  3.34328538782881435E-01
  3.42197939704216469E-01  3.50102804284349589E-01  3.58035673227387941E-01
  3.65988853826959393E-01  3.73954447479060426E-01  3.81924380892568027E-01
  3.89890440583878783E-01  3.97844310686653879E-01  4.05777614068610626E-01
  4.13681956350394620E-01  4.21548971820456475E-01  4.29370371048967414E-01
  4.37137989398337701E-01  4.44843834819202255E-01  4.52480133318795996E-01
  4.60039370718245744E-01  4.67514328347514163E-01  4.74898109107573740E-01
  4.82184150968844372E-01  4.89366223895698282E-01  4.96438404848428383E-01
  5.03395024565662430E-01  5.10230593375570418E-01  5.16939759506553798E-01
  5.23517290067254670E-01  5.29958054237145371E-01  5.36257009247932848E-01
  5.42409189406039882E-01  5.48409698002416901E-01  5.54253702033171036E-01
  5.59936429406156622E-01  5.65453168262688988E-01  5.70799268115417147E-01
  5.75970142608522306E-01  5.80961273649123311E-01  5.85768216661483043E-01
  5.90386606816944659E-01  5.94812166083375393E-01  5.99040710921574404E-01
  6.03068160463524516E-01  6.06890545070803089E-01  6.10504015140153289E-01
  6.13904850027681137E-01  6.17089466998652303E-01  6.20054430119766242E-01
  6.22796459001440317E-01  6.25312437334025528E-01  6.27599421168937743E-01
  6.29654646884856395E-01  6.31475538804030179E-01  6.33059716471646938E-01
  6.34405001547684866E-01  6.35509424274122381E-01  6.36371229570369845E-01
  6.36988882756089225E-01  6.37361074847471176E-01  6.37486727421353150E-01
  6.37364997179840964E-01  6.36995280122966356E-01  6.36377215290042986E-01
  6.35510688158517190E-01  6.34395833781281726E-01  6.33033039522499674E-01
  6.31422947369870480E-01  6.29566456047226275E-01  6.27464722816279852E-01
  6.25119164863702448E-01  6.22531460330080111E-01  6.19703549207134996E-01
  6.16637633835131482E-01  6.13336178944382082E-01  6.09801911478189185E-01
  6.06037820173328634E-01  6.02047154656196737E-01  5.97833424044340145E-01
  5.93400395415924709E-01  5.88752091801378663E-01  5.83892789562479253E-01
  5.78827015320484861E-01  5.73559542597544159E-01  5.68095387743760449E-01
  5.62439805077246890E-01  5.56598281638331915E-01  5.50576531288871074E-01
  5.44380487880237407E-01  5.38016297547625477E-01  5.31490310540669419E-01
  5.24809072042478730E-01  5.17979311873597581E-01  5.11007933458887287E-01
  5.03902002071638822E-01  4.96668731940354768E-01  4.89315472255865525E-01
  4.81849692729955537E-01  4.74278968260804568E-01  4.66610962597195644E-01
  4.58853411359604113E-01  4.51014104865887722E-01  4.43100870264566349E-01
  4.35121553076907197E-01  4.27083998901220563E-01  4.18996035143400836E-01
  4.10865452580363999E-01  4.02699987049645991E-01  3.94507302025793261E-01
  3.86294971545786237E-01  3.78070463554814717E-01  3.69841124269129851E-01
  3.61614163718125603E-01  3.53396642056431620E-01  3.45195456801281719E-01
  3.37017331702342327E-01  3.28868806771812516E-01  3.20756229359027645E-01
  3.12685746558017952E-01  3.04663299245314656E-01  2.96694617173328568E-01
  2.88785215129098494E-01  2.80940390558074571E-01  2.73165222359566806E-01
  2.65464570548906875E-01  2.57843076833267848E-01  2.50305166335707208E-01
  2.42855049945279428E-01  2.35496727197889860E-01  2.28233989794913800E-01
  2.21070425626739814E-01  2.14009422965475066E-01  2.07054174785868184E-01
  2.00207683287676907E-01  1.93472764322198537E-01  1.86852051612531628E-01
  1.80348000761824695E-01  1.73962893000289359E-01  1.67698838500025149E-01
  1.61557779259734052E-01  1.55541491564924000E-01  1.49651587962326305E-01
  1.43889518758514912E-01  1.38256573094618002E-01  1.32753879589773832E-01
  1.27382406617357474E-01  1.22142962314908288E-01  1.17036194366599081E-01
  1.12062589600330650E-01  1.07222473557244319E-01  1.02516010147079700E-01
  9.79432013525827760E-02  9.35038871399961891E-02  8.91977457184641859E-02
  8.50242941813660058E-02  8.09828894707369795E-02  7.70727298778574044E-02
  7.32928571593671890E-02  6.96421591273574392E-02  6.61193727735200631E-02
  6.27230880702583510E-02  5.94517524322204990E-02  5.63036755750836518E-02
  5.32770349837917850E-02  5.03698820245239154E-02  4.75801484898910679E-02
  4.49056534525259302E-02  4.23441106286914157E-02  3.98931362121775837E-02
  3.75502567794616035E-02  3.53129174397172688E-02  3.31784903035496695E-02
  3.11442830879971044E-02  2.92075475452832842E-02  2.73654880283312335E-02
  2.56152701718969610E-02  2.39540292936743261E-02  2.23788785793248568E-02
  2.08869172451211227E-02  1.94752385752200823E-02  1.81409374021582609E-02
  1.68811174032350714E-02  1.56928982464341824E-02  1.45734222956251901E-02
  1.35198607762397859E-02  1.25294197271901223E-02  1.15993456999006640E-02
  1.07269307827708594E-02  9.90951725177592439E-03  9.14450196950974438E-03
  8.42934037144317007E-03  7.76154980058561469E-03  7.13871258241150809E-03
  6.55847884156582784E-03  6.01856874554496362E-03  5.51677431649381933E-03
  5.05096102032122872E-03  4.61906906720516153E-03  4.21911413520331333E-03
  3.84918786931970304E-03  3.50745819525061448E-03  3.19216926271482116E-03
  2.90164100446115274E-03  2.63426856442984005E-03  2.38852157424671767E-03
  2.16294303922435777E-03  1.95614806230098252E-03  1.76682248665888391E-03
  1.59372136993805045E-03  1.43566718671000342E-03  1.29154799528903748E-03
  1.16031556705252720E-03  1.04098332703255348E-03  9.32624201808316322E-04
  8.34368480081532841E-04  7.45401651716289578E-04  6.64962107111423850E-04
  5.92338867337436660E-04  5.26869356545752354E-04  4.67937139032486129E-04
                              </PP_CHI.2>
 <PP_CHI.3 type="real" size="   888" l="1" occupation=" 0.0000" columns="3" label= "2P">
  2.92267075491790989E-08  2.99665851517024656E-08  3.07251928437986318E-08
  3.15030047798857162E-08  3.23005071176555672E-08  3.31181983219368045E-08
  3.39565894762524362E-08  3.48162046022632997E-08  3.56975809872974921E-08
  3.66012695201734888E-08  3.75278350355225772E-08  3.84778566668281726E-08
  3.94519282084038722E-08  4.04506584865330245E-08  4.14746717400048454E-08
  4.25246080102841242E-08  4.36011235415565737E-08  4.47048911909032506E-08
  4.58366008488576551E-08  4.69969598706086708E-08  4.81866935181210985E-08
  4.94065454134465200E-08  5.06572780035112337E-08  5.19396730366702985E-08
  5.32545320513240547E-08  5.46026768769063619E-08  5.59849501475529065E-08
  5.74022158287751909E-08  5.88553597574661136E-08  6.03452901955758793E-08
  6.18729383978053189E-08  6.34392591936680645E-08  6.50452315842911640E-08
  6.66918593543197753E-08  6.83801716993163230E-08  7.01112238690384131E-08
  7.18860978270043044E-08  7.37059029267540341E-08  7.55717766052298212E-08
  7.74848850937113066E-08  7.94464241467448566E-08  8.14576197895296489E-08
  8.35197290842202402E-08  8.56340409156313900E-08  8.78018767968303181E-08
  9.00245916951246018E-08  9.23035748789580363E-08  9.46402507862482874E-08
  9.70360799147034730E-08  9.94925597346805430E-08  1.02011225625149168E-07
  1.04593651833352341E-07  1.07241452458759978E-07  1.09956282461929907E-07
  1.12739838698912081E-07  1.15593860981832753E-07  1.18520133166334147E-07
  1.21520484266536494E-07  1.24596789598230376E-07  1.27750971951006285E-07
  1.30985002790056123E-07  1.34300903488401525E-07  1.37700746590311451E-07
  1.41186657106708237E-07  1.44760813843363248E-07  1.48425450762716322E-07
  1.52182858380172125E-07  1.56035385195739574E-07  1.59985439161917565E-07
  1.64035489188738263E-07  1.68188066686908434E-07  1.72445767150020212E-07
  1.76811251776810890E-07  1.81287249134492028E-07  1.85876556864188800E-07
  1.90582043429545207E-07  1.95406649909601625E-07  2.00353391837057820E-07
  2.05425361083068376E-07  2.10625727789755559E-07  2.15957742351641147E-07
  2.21424737447239337E-07  2.27030130122077813E-07  2.32777423924452466E-07
  2.38670211095249202E-07  2.44712174813195752E-07  2.50907091496957827E-07
  2.57258833165510202E-07  2.63771369858260556E-07  2.70448772116438954E-07
  2.77295213527301172E-07  2.84314973332742464E-07  2.91512439103945396E-07
  2.98892109483735565E-07  3.06458596998362896E-07  3.14216630940457950E-07
  3.22171060324975479E-07  3.30326856919963435E-07  3.38689118354056120E-07
  3.47263071302635843E-07  3.56054074754646293E-07  3.65067623362111064E-07
  3.74309350874440597E-07  3.83785033659678688E-07  3.93500594314892023E-07
  4.03462105367949154E-07  4.13675793073016167E-07  4.24148041302131342E-07
  4.34885395535294617E-07  4.45894566951568007E-07  4.57182436623734221E-07
  4.68756059819150285E-07  4.80622670409471049E-07  4.92789685392005713E-07
  5.05264709525533487E-07  5.18055540083467198E-07  5.31170171727348352E-07
  5.44616801503711017E-07  5.58403833967438844E-07  5.72539886434821796E-07
  5.87033794369585814E-07  6.01894616905276058E-07  6.17131642507430011E-07
  6.32754394779091749E-07  6.48772638413292037E-07  6.65196385296203521E-07
  6.82035900764806259E-07  6.99301710022957218E-07  7.17004604719881179E-07
  7.35155649695198499E-07  7.53766189894686861E-07  7.72847857461127910E-07
  7.92412579004645788E-07  8.12472583057094277E-07  8.33040407715145624E-07
  8.54128908476867951E-07  8.75751266276665607E-07  8.97920995723637021E-07
  9.20651953548471005E-07  9.43958347264175047E-07  9.67854744046048342E-07
  9.92356079836434491E-07  1.01747766867996892E-06  1.04323521229513281E-06
  1.06964480988810676E-06  1.09672296821506263E-06  1.12448661189915916E-06
  1.15295309400871947E-06  1.18214020690317771E-06  1.21206619335358954E-06
  1.24274975794465196E-06  1.27421007876533910E-06  1.30646681939549316E-06
  1.33954014119583918E-06  1.37345071590910850E-06  1.40821973858016118E-06
  1.44386894080314525E-06  1.48042060430401647E-06  1.51789757486687109E-06
  1.55632327661281836E-06  1.59572172664031632E-06  1.63611755003608257E-06
  1.67753599526601372E-06  1.72000294995570309E-06  1.76354495707041984E-06
  1.80818923150468077E-06  1.85396367709172118E-06  1.90089690404359623E-06
  1.94901824683272339E-06  1.99835778252606226E-06  2.04894634958343786E-06
  2.10081556713167350E-06  2.15399785472663790E-06  2.20852645261554724E-06
  2.26443544251216218E-06  2.32175976889788892E-06  2.38053526086205668E-06
  2.44079865449508650E-06  2.50258761584845178E-06  2.56594076447588040E-06
  2.63089769757044079E-06  2.69749901471257624E-06  2.76578634324465908E-06
  2.83580236428778296E-06  2.90759083941715804E-06  2.98119663801274808E-06
  3.05666576530215794E-06  3.13404539111347530E-06  3.21338387935580856E-06
  3.29473081824616235E-06  3.37813705130136092E-06  3.46365470911448402E-06
  3.55133724193563480E-06  3.64123945307741695E-06  3.73341753316597873E-06
  3.82792909525903072E-06  3.92483321085276320E-06  4.02419044680018166E-06
  4.12606290316395083E-06  4.23051425202730751E-06  4.33760977728745162E-06
  4.44741641545603652E-06  4.56000279749252705E-06  4.67543929169635983E-06
  4.79379804768475834E-06  4.91515304148379831E-06  5.03958012176057904E-06
  5.16715705722585353E-06  5.29796358523623100E-06  5.43208146162675402E-06
  5.56959451180465430E-06  5.71058868313637287E-06  5.85515209866058401E-06
  6.00337511216062658E-06  6.15535036463099922E-06  6.31117284217289825E-06
  6.47093993535518620E-06  6.63475150007781885E-06  6.80270991997562460E-06
  6.97492017040167830E-06  7.15148988402996315E-06  7.33252941811839179E-06
  7.51815192347438721E-06  7.70847341516572347E-06  7.90361284502116558E-06
  8.10369217596606491E-06  8.30883645823904189E-06  8.51917390753797350E-06
  8.73483598514353840E-06  8.95595748007055553E-06  9.18267659329858873E-06
  9.41513502413411990E-06  9.65347805875842632E-06  9.89785466101637007E-06
  1.01484175655029387E-05  1.04053233730055406E-05  1.06687326483614432E-05
  1.09388100207920246E-05  1.12157242867760273E-05  1.14996485155260819E-05
  1.17907601571346283E-05  1.20892411534564355E-05  1.23952780517972670E-05
  1.27090621214793776E-05  1.30307894733568161E-05  1.33606611823550320E-05
  1.36988834131115298E-05  1.40456675487955364E-05  1.44012303231875325E-05
  1.47657939561009712E-05  1.51395862922306256E-05  1.55228409435144004E-05
  1.59157974350971821E-05  1.63187013549881399E-05  1.67318045075047901E-05
  1.71553650705994433E-05  1.75896477571665534E-05  1.80349239804310873E-05
  1.84914720235217365E-05  1.89595772133343933E-05  1.94395320987944332E-05
  1.99316366336293142E-05  2.04361983637649980E-05  2.09535326194637015E-05
  2.14839627123224458E-05  2.20278201372552897E-05  2.25854447795856883E-05
  2.31571851273775784E-05  2.37433984891380828E-05  2.43444512170274388E-05
  2.49607189357151647E-05  2.55925867770257635E-05  2.62404496205195568E-05
  2.69047123401592527E-05  2.75857900572159054E-05  2.82841083995716867E-05
  2.90001037675816755E-05  2.97342236066597389E-05  3.04869266867589880E-05
  3.12586833889209778E-05  3.20499759990716256E-05  3.28612990092480960E-05
  3.36931594264430596E-05  3.45460770892599812E-05  3.54205849925760577E-05
  3.63172296204151076E-05  3.72365712872383821E-05  3.81791844878650227E-05
  3.91456582562409974E-05  4.01365965332795433E-05  4.11526185440020032E-05
  4.21943591842148039E-05  4.32624694169619664E-05  4.43576166790015945E-05
  4.54804852975581868E-05  4.66317769176105690E-05  4.78122109399819418E-05
  4.90225249705036924E-05  5.02634752805335470E-05  5.15358372791139817E-05
  5.28404059970647254E-05  5.41779965833108631E-05  5.55494448137548261E-05
  5.69556076130091549E-05  5.83973635893144619E-05  5.98756135829745480E-05
  6.13912812286510935E-05  6.29453135318657137E-05  6.45386814600690901E-05
  6.61723805486440588E-05  6.78474315222186633E-05  6.95648809316764421E-05
  7.13258018072582148E-05  7.31312943281620505E-05  7.49824865090573052E-05
  7.68805349039375184E-05  7.88266253277516098E-05  8.08219735962584002E-05
  8.28678262845662861E-05  8.49654615048268914E-05  8.71161897035658688E-05
  8.93213544791452227E-05  9.15823334198641922E-05  9.39005389632180143E-05
  9.62774192768481036E-05  9.87144591617276321E-05  1.01213180978144656E-04
  1.03775145595054542E-04  1.06401953363389955E-04  1.09095245113932133E-04
  1.11856703180359163E-04  1.14688052448106781E-04  1.17591061429688735E-04
  1.20567543367142445E-04  1.23619357362282476E-04  1.26748409535458863E-04
  1.29956654213538080E-04  1.33246095147840593E-04  1.36618786762785020E-04
  1.40076835436014170E-04  1.43622400810788681E-04  1.47257697141460855E-04
  1.50984994672858595E-04  1.54806621054428352E-04  1.58724962790012138E-04
  1.62742466724147185E-04  1.66861641565809051E-04  1.71085059450533220E-04
  1.75415357541877751E-04  1.79855239673214358E-04  1.84407478030853222E-04
  1.89074914879541062E-04  1.93860464331391578E-04  1.98767114159331676E-04
  2.03797927656183234E-04  2.08956045540514417E-04  2.14244687910435366E-04
  2.19667156246536213E-04  2.25226835465190304E-04  2.30927196023486498E-04
  2.36771796077072088E-04  2.42764283692234982E-04  2.48908399113571561E-04
  2.55207977088626667E-04  2.61666949250933850E-04  2.68289346562902134E-04
  2.75079301820044340E-04  2.82041052218072929E-04  2.89178941984424940E-04
  2.96497425075824966E-04  3.04001067943516622E-04  3.11694552367862063E-04
  3.19582678364022349E-04  3.27670367160477923E-04  3.35962664252208556E-04
  3.44464742530373072E-04  3.53181905490388608E-04  3.62119590520357053E-04
  3.71283372271829061E-04  3.80678966114939260E-04  3.90312231679994497E-04
  4.00189176487658702E-04  4.10315959669916577E-04  4.20698895784055876E-04
  4.31344458721990144E-04  4.42259285717238790E-04  4.53450181451983420E-04
  4.64924122266665890E-04  4.76688260474629022E-04  4.88749928784414957E-04
  5.01116644832364064E-04  5.13796115828203431E-04  5.26796243316399312E-04
  5.40125128056105999E-04  5.53791075022605950E-04  5.67802598533254923E-04
  5.82168427500955846E-04  5.96897510818258556E-04  6.11999022875270586E-04
  6.27482369214638525E-04  6.43357192326942892E-04  6.59633377589979105E-04
  6.76321059355339022E-04  6.93430627185892610E-04  7.10972732247814069E-04
  7.28958293860879460E-04  7.47398506210975727E-04  7.66304845228633165E-04
  7.85689075637594609E-04  8.05563258177520404E-04  8.25939757004970354E-04
  8.46831247277119825E-04  8.68250722922461141E-04  8.90211504602959154E-04
  9.12727247872255603E-04  9.35811951534533067E-04  9.59479966209066592E-04
  9.83746003105174724E-04  1.00862514301255837E-03  1.03413284551214131E-03
  1.06028495841257943E-03  1.08709772741808169E-03  1.11458780603271258E-03
  1.14277226570678623E-03  1.17166860623096848E-03  1.20129476638397548E-03
  1.23166913484007673E-03  1.26281056134209505E-03  1.29473836814618490E-03
  1.32747236174453331E-03  1.36103284487281177E-03  1.39544062880894823E-03
  1.43071704596961762E-03  1.46688396281139527E-03  1.50396379304337411E-03
  1.54197951115911608E-03  1.58095466629464151E-03  1.62091339641986056E-03
  1.66188044287086055E-03  1.70388116523107424E-03  1.74694155656961864E-03
  1.79108825904403875E-03  1.83634857987577827E-03  1.88275050770639221E-03
  1.93032272934415359E-03  1.97909464690883361E-03  2.02909639538329271E-03
  2.08035886058055217E-03  2.13291369753619868E-03  2.18679334933573940E-03
  2.24203106638520833E-03  2.29866092613470550E-03  2.35671785326441435E-03
  2.41623764034485907E-03  2.47725696897958033E-03  2.53981343144059476E-03
  2.60394555280632186E-03  2.66969281361476929E-03  2.73709567304151113E-03
  2.80619559261245221E-03  2.87703506046189808E-03  2.94965761614869810E-03
  3.02410787604235438E-03  3.10043155928827786E-03  3.17867551436364949E-03
  3.25888774623610093E-03  3.34111744413994076E-03  3.42541500997810885E-03
  3.51183208736221284E-03  3.60042159130209791E-03  3.69123773856222569E-03
  3.78433607869268834E-03  3.87977352574723827E-03  3.97760839069954703E-03
  4.07790041457649008E-03  4.18071080231695834E-03  4.28610225736766794E-03
  4.39413901702710979E-03  4.50488688855737052E-03  4.61841328607355030E-03
  4.73478726822054025E-03  4.85407957664834092E-03  4.97636267530594464E-03
  5.10171079056515389E-03  5.23019995218164911E-03  5.36190803510425747E-03
  5.49691480215257298E-03  5.63530194757576666E-03  5.77715314149686993E-03
  5.92255407525282569E-03  6.07159250765039720E-03  6.22435831215203180E-03
  6.38094352499199002E-03  6.54144239423197320E-03  6.70595142977627266E-03
  6.87456945436094521E-03  7.04739765551276771E-03  7.22453963848508456E-03
  7.40610148019099374E-03  7.59219178414747078E-03  7.78292173642061106E-03
  7.97840516257615484E-03  8.17875858565658698E-03  8.38410128519567581E-03
  8.59455535725396624E-03  8.81024577547523217E-03  9.03130045318716046E-03
  9.25785030655106554E-03  9.49002931873696789E-03  9.72797460511807752E-03
  9.97182647951151170E-03  1.02217285214596248E-02  1.04778276445202673E-02
  1.07402741655524825E-02  1.10092218750299248E-02  1.12848281083594171E-02
  1.15672538181652677E-02  1.18566636475161066E-02  1.21532260041340018E-02
  1.24571131355383277E-02  1.27685012050773039E-02  1.30875703688134344E-02
  1.34145048533101611E-02  1.37494930342383984E-02  1.40927275157482056E-02
  1.44444052105620960E-02  1.48047274208414209E-02  1.51738999197026572E-02
  1.55521330333192251E-02  1.59396417235618121E-02  1.63366456712198058E-02
  1.67433693596365334E-02  1.71600421586784110E-02  1.75868984089993310E-02
  1.80241775066103706E-02  1.84721239875478248E-02  1.89309876125352550E-02
  1.94010234516240956E-02  1.98824919687581488E-02  2.03756591060242423E-02
  2.08807963674519995E-02  2.13981809023840938E-02  2.19280955882583083E-02
  2.24708291125463797E-02  2.30266760536760491E-02  2.35959369609967592E-02
  2.41789184334906537E-02  2.47759331969659297E-02  2.53873001795351973E-02
  2.60133445854501058E-02  2.66543979668403853E-02  2.73107982930802240E-02
  2.79828900176032971E-02  2.86710241421662994E-02  2.93755582779872057E-02
  3.00968567034399920E-02  3.08352904182020542E-02  3.15912371936693179E-02
  3.23650816190010071E-02  3.31572151424088107E-02  3.39680361077001752E-02
  3.47979497855938624E-02  3.56473683991641727E-02  3.65167111429673882E-02
  3.74064041959469712E-02  3.83168807272791789E-02  3.92485808945326545E-02
  4.02019518337135146E-02  4.11774476412203397E-02  4.21755293465773881E-02
  4.31966648752949295E-02  4.42413290015849572E-02  4.53100032906148462E-02
  4.64031760290462628E-02  4.75213421431227787E-02  4.86650031042801592E-02
  4.98346668213853553E-02  5.10308475183918961E-02  5.22540655966094655E-02
  5.35048474817306149E-02  5.47837254540697385E-02  5.60912374609044556E-02
  5.74279269102343712E-02  5.87943424458993100E-02  6.01910377020922135E-02
  6.16185710361780575E-02  6.30775052395003560E-02  6.45684072254199132E-02
  6.60918476926012494E-02  6.76484007624062883E-02  6.92386435905021219E-02
  7.08631559509535491E-02  7.25225197910823738E-02  7.42173187560397629E-02
  7.59481376832800981E-02  7.77155620644216644E-02  7.95201774730734251E-02
  8.13625689580300959E-02  8.32433204013644790E-02  8.51630138388215358E-02
  8.71222287412470181E-02  8.91215412570981746E-02  9.11615234144594888E-02
  9.32427422804983225E-02  9.53657590773253766E-02  9.75311282546241221E-02
  9.97393965166354368E-02  1.01991101802191050E-01  1.04286772217341769E-01
  1.06626924920479371E-01  1.09012064957729971E-01  1.11442684047980495E-01
  1.13919259317775037E-01  1.16442251985245507E-01  1.19012105991987763E-01
  1.21629246582955181E-01  1.24294078834815219E-01  1.27006986132066541E-01
  1.29768328591307019E-01  1.32578441434506283E-01  1.35437633311499717E-01
  1.38346184572635200E-01  1.41304345493509675E-01  1.44312334452774776E-01
  1.47370336064099661E-01  1.50478499265663229E-01  1.53636935370775496E-01
  1.56845716079613451E-01  1.60104871456769465E-01  1.63414387880384870E-01
  1.66774205967177430E-01  1.70184218473328569E-01  1.73644268181534028E-01
  1.77154145782618982E-01  1.80713587753593363E-01  1.84322274237504163E-01
  1.87979826939938283E-01  1.91685807053384116E-01  1.95439713206332272E-01
  1.99240979454793354E-01  2.03088973333674788E-01  2.06982993977872981E-01
  2.10922270310506893E-01  2.14905959329249940E-01  2.18933144511040512E-01
  2.23002834334371458E-01  2.27113960932794040E-01  2.31265378916163472E-01
  2.35455864382070473E-01  2.39684114101732265E-01  2.43948744923521310E-01
  2.48248293429133626E-01  2.52581215853855234E-01  2.56945888258635013E-01
  2.61340607019340865E-01  2.65763589666464906E-01  2.70212976054548804E-01
  2.74686829886858330E-01  2.79183140658248286E-01  2.83699826042040193E-01
  2.88234734665989312E-01  2.92785649356567590E-01  2.97350290894984493E-01
  3.01926322269890968E-01  3.06511353385022611E-01  3.11102946318633777E-01
  3.15698621156642767E-01  3.20295862307745038E-01  3.24892125327569115E-01
  3.29484844310069525E-01  3.34071439825323446E-01  3.38649327252846577E-01
  3.43215925600385885E-01  3.47768666798591364E-01  3.52305005346381761E-01
  3.56822428189496721E-01  3.61318464888122415E-01  3.65790697992120106E-01
  3.70236773366247385E-01  3.74654410432132712E-01  3.79041412262178468E-01
  3.83395675333593311E-01  3.87715198630878832E-01  3.91998092073667148E-01
  3.96242584069043835E-01  4.00447027849375359E-01  4.04609906352144000E-01
  4.08729835495750982E-01  4.12805565548792608E-01  4.16835980194528721E-01
  4.20820093121193728E-01  4.24757041867665497E-01  4.28646078601326030E-01
  4.32486557583082576E-01  4.36277919184435981E-01  4.40019670253299189E-01
  4.43711360777810759E-01  4.47352556948390656E-01  4.50942810751881307E-01
  4.54481626411991635E-01  4.57968424469605839E-01  4.61402504298723870E-01
  4.64783006221820005E-01  4.68108875046872264E-01  4.71378827456528593E-01
  4.74591325925533603E-01  4.77744562901945780E-01  4.80836460313719072E-01
  4.83864690121034891E-01  4.86826723117856464E-01  4.89719914487836139E-01
  4.92541592374900916E-01  4.95289080267777071E-01  4.97959701340386474E-01
  5.00550782955875517E-01  5.03059661278399406E-01  5.05483685963039053E-01
  5.07820224870340731E-01  5.10066668717732097E-01  5.12220435672552599E-01
  5.14278975874863375E-01  5.16239775854415828E-01  5.18100362808571413E-01
  5.19858308778821443E-01  5.21511234721716233E-01  5.23056814447299900E-01
  5.24492778448243269E-01  5.25816917644355897E-01  5.27027087041593179E-01
  5.28121209301084416E-01  5.29097278255349579E-01  5.29953362377852844E-01
  5.30687608209406858E-01  5.31298243761324951E-01  5.31783581909324954E-01
  5.32142023777011808E-01  5.32372062131500901E-01  5.32472284800264650E-01
  5.32441378102422314E-01  5.32278130299001839E-01  5.31981435097035216E-01
  5.31550295179503585E-01  5.30983825744588578E-01  5.30281258085903540E-01
  5.29441943210515409E-01  5.28465355444550533E-01  5.27351096005616027E-01
  5.26098896597334997E-01  5.24708622945222136E-01  5.23180278217989403E-01
  5.21514006337507996E-01  5.19710095187370102E-01  5.17768979590714440E-01
  5.15691243992063564E-01  5.13477624896939489E-01  5.11129012962981744E-01
  5.08646454618211674E-01  5.06031153161223046E-01  5.03284469408100787E-01
  5.00407921684811186E-01  4.97403185070243836E-01  4.94272089950281379E-01
  4.91016619851406155E-01  4.87638908377745151E-01  4.84141235211189902E-01
  4.80526021375658807E-01  4.76795823598324175E-01  4.72953327701628901E-01
  4.69001341148287954E-01  4.64942784935762632E-01  4.60780684658852802E-01
  4.56518160784429750E-01  4.52158418500723858E-01  4.47704737137764375E-01
  4.43160459109388283E-01  4.38528978551176341E-01  4.33813730098374206E-01
  4.29018177609171769E-01  4.24145802914746739E-01  4.19200094975852366E-01
  4.14184539620176095E-01  4.09102609701376463E-01  4.03957755815519570E-01
  3.98753398061879982E-01  3.93492918645591883E-01  3.88179655299138449E-01
  3.82816895750122066E-01  3.77407873491099444E-01  3.71955764533081545E-01
  3.66463685174182485E-01  3.60934691092676285E-01  3.55371777606326655E-01
  3.49777880901251392E-01  3.44155880267078829E-01  3.38508601527922726E-01
  3.32838821286568110E-01  3.27149271884321080E-01  3.21442647139818904E-01
  3.15721608746763860E-01  3.09988793015378850E-01  3.04246817859482876E-01
  2.98498290054945103E-01  2.92745812449679843E-01  2.86991990935722585E-01
  2.81239441098077803E-01  2.75490794448056131E-01  2.69748703960253189E-01
  2.64015848796602337E-01  2.58294938185789746E-01  2.52588714306261231E-01
  2.46899954041138264E-01  2.41231469565421408E-01  2.35586107802515043E-01
  2.29966748652162739E-01  2.24376301991356275E-01  2.18817703534888996E-01
  2.13293909632002426E-01  2.07807891008281703E-01  2.02362625546184532E-01
  1.96961090314154902E-01  1.91606252903582491E-01  1.86301062167255921E-01
  1.81048438532540185E-01  1.75851264106527988E-01  1.70712372601771689E-01
  1.65634539205832265E-01  1.60620470627938217E-01  1.55672795406574249E-01
  1.50794054515187959E-01  1.45986692386435662E-01  1.41253048552067467E-01
  1.36595349849523595E-01  1.32015703246016358E-01  1.27516089401283644E-01
  1.23098357011915877E-01  1.18764217877571007E-01  1.14515242726506122E-01
  1.10352857877766969E-01  1.06278342662847636E-01  1.02292827588498197E-01
  9.83972932561543029E-02  9.45925700144002041E-02  9.08793382762416030E-02
  8.72581294985305123E-02  8.37293277813480064E-02  8.02931720236954999E-02
  7.69497586193912675E-02  7.36990446717256248E-02  7.05408516073557923E-02
  6.74748691952371665E-02  6.45006599697564575E-02  6.16176639590424804E-02
  5.88252036281094043E-02  5.61224890992524997E-02  5.35086236353389602E-02
  5.09826091822082744E-02  4.85433520345270667E-02  4.61896686675168019E-02
  4.39202916449201453E-02  4.17338754268476581E-02  3.96290022477620504E-02
  3.76041880688710792E-02  3.56578883792514623E-02  3.37885038821434461E-02
  3.19943861908524377E-02  3.02738434849630436E-02  2.86251458602965435E-02
  2.70465306080019882E-02  2.55362074570435124E-02  2.40923635962027732E-02
  2.27131684106056629E-02  2.13967781504995659E-02  2.01413405158163070E-02
  1.89449988648533879E-02  1.78058962518410878E-02  1.67221793818707505E-02
  1.56920023687943354E-02  1.47135301181308582E-02  1.37849416128701611E-02
  1.29044331068986044E-02  1.20702209807205755E-02  1.12805443579339481E-02
  1.05336676365131825E-02  9.82788288112546038E-03  9.16151183527476667E-03
  8.53290782361493250E-03  7.94045757397160608E-03  7.38258279395768297E-03
                              </PP_CHI.3>
 <PP_CHI.4 type="real" size="   888" l="1" occupation=" 0.0000" columns="3" label= "0P">
  6.49588662373656143E-07  6.66033076910125444E-07  6.82893783744450118E-07
  7.00181321364370692E-07  7.17906495040626763E-07  7.36080383580560959E-07
  7.54714346252760669E-07  7.73820029886959039E-07  7.93409376153642163E-07
  8.13494629028015638E-07  8.34088342442856930E-07  8.55203388135104286E-07
  8.76852963691139572E-07  8.99050600795667863E-07  9.21810173689453650E-07
  9.45145907841182747E-07  9.69072388838791490E-07  9.93604571505950211E-07
  1.01875778924929956E-06  1.04454776364228651E-06  1.07099061425168381E-06
  1.09810286871278918E-06  1.12590147305973407E-06  1.15440380231730441E-06
  1.18362767136083549E-06  1.21359134605111872E-06  1.24431355465109001E-06
  1.27581349953161405E-06  1.30811086917355679E-06  1.34122585047368976E-06
  1.37517914136216505E-06  1.40999196373931112E-06  1.44568607674005107E-06
  1.48228379033396968E-06  1.51980797926980464E-06  1.55828209737281958E-06
  1.59773019220420525E-06  1.63817692009154199E-06  1.67964756153975483E-06
  1.72216803703224633E-06  1.76576492323194390E-06  1.81046546959259321E-06
  1.85629761539044666E-06  1.90329000718722596E-06  1.95147201673505519E-06
  2.00087375933474570E-06  2.05152611265873544E-06  2.10346073605062900E-06
  2.15671009031319975E-06  2.21130745799743355E-06  2.26728696420508618E-06
  2.32468359791793348E-06  2.38353323386694826E-06  2.44387265495505222E-06
  2.50573957524761916E-06  2.56917266354479205E-06  2.63421156755075463E-06
  2.70089693865463869E-06  2.76927045733893111E-06  2.83937485923098826E-06
  2.91125396181405684E-06  2.98495269181455625E-06  3.06051711328253662E-06
  3.13799445638315204E-06  3.21743314691685690E-06  3.29888283658695177E-06
  3.38239443403340268E-06  3.46802013665215085E-06  3.55581346322007836E-06
  3.64582928734578758E-06  3.73812387176713585E-06  3.83275490351716228E-06
  3.92978152998007839E-06  4.02926439586008003E-06  4.13126568108610520E-06
  4.23584913967594988E-06  4.34308013958439263E-06  4.45302570356004223E-06
  4.56575455103639485E-06  4.68133714108343478E-06  4.79984571644652655E-06
  4.92135434870014050E-06  5.04593898454460937E-06  5.17367749327494912E-06
  5.30464971545133730E-06  5.43893751280156363E-06  5.57662481938688106E-06
  5.71779769406308703E-06  5.86254437426961187E-06  6.01095533118028375E-06
  6.16312332625019197E-06  6.31914346919410714E-06  6.47911327743254767E-06
  6.64313273704269262E-06  6.81130436525232007E-06  6.98373327451568715E-06
  7.16052723821156025E-06  7.34179675800430975E-06  7.52765513291023201E-06
  7.71821853011233028E-06  7.91360605756765033E-06  8.11393983845275629E-06
  8.31934508749369388E-06  8.52995018922825601E-06  8.74588677824945934E-06
  8.96728982148023626E-06  9.19429770253103516E-06  9.42705230819281956E-06
  9.66569911711961008E-06  9.91038729075605342E-06  1.01612697665666424E-05
  1.04185033536251476E-05  1.06822488306237647E-05  1.09526710463633496E-05
  1.12299390227875688E-05  1.15142260606251636E-05  1.18057098477066475E-05
  1.21045725700229168E-05  1.24110010255952567E-05  1.27251867412279660E-05
  1.30473260922163472E-05  1.33776204250852500E-05  1.37162761834344957E-05
  1.40635050369700833E-05  1.44195240138018161E-05  1.47845556360897214E-05
  1.51588280591245069E-05  1.55425752139286308E-05  1.59360369534672412E-05
  1.63394592025604140E-05  1.67530941115900830E-05  1.71772002140982115E-05
  1.76120425883742607E-05  1.80578930231332079E-05  1.85150301873874999E-05
  1.89837398046192963E-05  1.94643148313614394E-05  1.99570556402994040E-05
  2.04622702080080427E-05  2.09802743074407779E-05  2.15113917052916371E-05
  2.20559543643529073E-05  2.26143026509956692E-05  2.31867855479022949E-05
  2.37737608721839608E-05  2.43755954990198594E-05  2.49926655909571230E-05
  2.56253568330155684E-05  2.62740646737436278E-05  2.69391945723764135E-05
  2.76211622522503844E-05  2.83203939606324609E-05  2.90373267351267236E-05
  2.97724086768246936E-05  3.05260992303699050E-05  3.12988694711123473E-05
  3.20912023995310763E-05  3.29035932431102554E-05  3.37365497658562966E-05
  3.45905925856501725E-05  3.54662554996331716E-05  3.63640858178285374E-05
  3.72846447052085889E-05  3.82285075324206728E-05  3.91962642353910567E-05
  4.01885196840315347E-05  4.12058940602783830E-05  4.22490232457018195E-05
  4.33185592189262532E-05  4.44151704631100386E-05  4.55395423837406685E-05
  4.66923777370046455E-05  4.78743970690006544E-05  4.90863391660706532E-05
  5.03289615165300073E-05  5.16030407840847890E-05  5.29093732932324164E-05
  5.42487755269496248E-05  5.56220846369766370E-05  5.70301589670193452E-05
  5.84738785891941216E-05  5.99541458540501330E-05  6.14718859545160300E-05
  6.30280475041188640E-05  6.46236031298402412E-05  6.62595500799787092E-05
  6.79369108473963082E-05  6.96567338085434689E-05  7.14200938786550572E-05
  7.32280931835337085E-05  7.50818617483342934E-05  7.69825582037835188E-05
  7.89313705102741883E-05  8.09295167002874389E-05  8.29782456396059771E-05
  8.50788378077943329E-05  8.72326060984334129E-05  8.94408966396089664E-05
  9.17050896351684049E-05  9.40266002272678424E-05  9.64068793807531236E-05
  9.88474147899211849E-05  1.01349731808234408E-04  1.03915394401564397E-04
  1.06546006125561504E-04  1.09243211127763815E-04  1.12008695175063621E-04
  1.14844186707184923E-04  1.17751457916816639E-04  1.20732325857088974E-04
  1.23788653577074109E-04  1.26922351286026461E-04  1.30135377547088861E-04
  1.33429740501206644E-04  1.36807499122020888E-04  1.40270764502515585E-04
  1.43821701174230200E-04  1.47462528459857504E-04  1.51195521860069689E-04
  1.55023014475445700E-04  1.58947398464379325E-04  1.62971126537881582E-04
  1.67096713492216685E-04  1.71326737780315755E-04  1.75663843122962399E-04
  1.80110740160751491E-04  1.84670208147843693E-04  1.89345096688590291E-04
  1.94138327518100264E-04  1.99052896327860367E-04  2.04091874637558175E-04
  2.09258411714266583E-04  2.14555736540191584E-04  2.19987159830210610E-04
  2.25556076100465983E-04  2.31265965789297605E-04  2.37120397431836254E-04
  2.43123029889628326E-04  2.49277614636672401E-04  2.55587998103292660E-04
  2.62058124079320512E-04  2.68692036178077469E-04  2.75493880362702036E-04
  2.82467907536389955E-04  2.89618476198169389E-04  2.96950055165866810E-04
  3.04467226367965982E-04  3.12174687706091695E-04  3.20077255989911552E-04
  3.28179869946290464E-04  3.36487593304564501E-04  3.45005617959868668E-04
  3.53739267216481522E-04  3.62693999113216725E-04  3.71875409832935085E-04
  3.81289237198300865E-04  3.90941364255963401E-04  4.00837822951396561E-04
  4.10984797896689021E-04  4.21388630233638034E-04  4.32055821594546990E-04
  4.42993038163206297E-04  4.54207114838576891E-04  4.65705059503781962E-04
  4.77494057403062900E-04  4.89581475629422458E-04  5.01974867725765456E-04
  5.14681978402388093E-04  5.27710748373767607E-04  5.41069319317658286E-04
  5.54766038959583546E-04  5.68809466285898437E-04  5.83208376888657426E-04
  5.97971768445626885E-04  6.13108866338852665E-04  6.28629129415275603E-04
  6.44542255892990943E-04  6.60858189416817145E-04  6.77587125266955774E-04
  6.94739516724601032E-04  7.12326081598454769E-04  7.30357808916223448E-04
  7.48845965785245008E-04  7.67802104426523681E-04  7.87238069386549458E-04
  8.07166004931375298E-04  8.27598362627572312E-04  8.48547909114753698E-04
  8.70027734074517098E-04  8.92051258400757864E-04  9.14632242576416061E-04
  9.37784795261891921E-04  9.61523382100434344E-04  9.85862834746002899E-04
  1.01081836011919458E-03  1.03640554989698473E-03  1.06264039024219089E-03
  1.08953927177867752E-03  1.11711899981851884E-03  1.14539680484745704E-03
  1.17439035327515065E-03  1.20411775845691727E-03  1.23459759199377218E-03
  1.26584889531779492E-03  1.29789119157001009E-03  1.33074449777812235E-03
  1.36442933734169311E-03  1.39896675283245910E-03  1.43437831911775418E-03
  1.47068615681514932E-03  1.50791294608664450E-03  1.54608194078096673E-03
  1.58521698293271197E-03  1.62534251762731720E-03  1.66648360824106956E-03
  1.70866595206554690E-03  1.75191589632620265E-03  1.79626045460494510E-03
  1.84172732367691213E-03  1.88834490077181881E-03  1.93614230127053225E-03
  1.98514937684784142E-03  2.03539673407257624E-03  2.08691575347659617E-03
  2.13973860910439840E-03  2.19389828855538586E-03  2.24942861353119236E-03
  2.30636426090070597E-03  2.36474078429575393E-03  2.42459463625080071E-03
  2.48596319090023258E-03  2.54888476724724790E-03  2.61339865301864248E-03
  2.67954512912015486E-03  2.74736549470744155E-03  2.81690209288803237E-03
  2.88819833707009734E-03  2.96129873797419891E-03  3.03624893132456181E-03
  3.11309570623692676E-03  3.19188703432028622E-03  3.27267209951042541E-03
  3.35550132865350750E-03  3.44042642285838536E-03  3.52750038963691370E-03
  3.61677757585178753E-03  3.70831370149216858E-03  3.80216589429763392E-03
  3.89839272525163661E-03  3.99705424496614274E-03  4.09821202097954661E-03
  4.20192917599066743E-03  4.30827042705208760E-03  4.41730212574662547E-03
  4.52909229937146704E-03  4.64371069315483442E-03  4.76122881353099100E-03
  4.88171997249978000E-03  5.00525933309752240E-03  5.13192395600690736E-03
  5.26179284733397593E-03  5.39494700758121927E-03  5.53146948184627101E-03
  5.67144541127646059E-03  5.81496208581053567E-03  5.96210899823904506E-03
  6.11297789961607382E-03  6.26766285605559297E-03  6.42626030694650342E-03
  6.58886912462145619E-03  6.75559067551490585E-03  6.92652888284758794E-03
  7.10179029087453905E-03  7.28148413073500048E-03  7.46572238794372938E-03
  7.65461987156372276E-03  7.84829428510153138E-03  8.04686629916756199E-03
  8.25045962594458428E-03  8.45920109550834555E-03  8.67322073404548644E-03
  8.89265184401511789E-03  9.11763108630121721E-03  9.34829856440427126E-03
  9.58479791072260751E-03  9.82727637497305372E-03  1.00758849148031796E-02
  1.03307782886482933E-02  1.05921151508868317E-02  1.08600581493506557E-02
  1.11347740252472262E-02  1.14164337155509416E-02  1.17052124579234244E-02
  1.20012898982232580E-02  1.23048502006670377E-02  1.26160821607068322E-02
  1.29351793206883489E-02  1.32623400883555564E-02  1.35977678582700229E-02
  1.39416711362139109E-02  1.42942636666481115E-02  1.46557645632998720E-02
  1.50263984429514410E-02  1.54063955625062012E-02  1.57959919594092731E-02
  1.61954295955011526E-02  1.66049565043890138E-02  1.70248269424145282E-02
  1.74553015433028605E-02  1.78966474765788371E-02  1.83491386098366058E-02
  1.88130556749583240E-02  1.92886864383690036E-02  1.97763258754206604E-02
  2.02762763490014347E-02  2.07888477924648603E-02  2.13143578969866264E-02
  2.18531323034438923E-02  2.24055047989202907E-02  2.29718175179417401E-02
  2.35524211485489063E-02  2.41476751433260563E-02  2.47579479354885050E-02
  2.53836171601434478E-02  2.60250698808379595E-02  2.66827028215144632E-02
  2.73569226040036410E-02  2.80481459911642618E-02  2.87568001357980316E-02
  2.94833228354603911E-02  3.02281627933090637E-02  3.09917798851216952E-02
  3.17746454326049491E-02  3.25772424831340043E-02  3.34000660960540111E-02
  3.42436236357090834E-02  3.51084350713217613E-02  3.59950332838672449E-02
  3.69039643800837883E-02  3.78357880137801042E-02  3.87910777146046881E-02
  3.97704212244049046E-02  4.07744208413363188E-02  4.18036937718701124E-02
  4.28588724908986959E-02  4.39406051100723824E-02  4.50495557545262243E-02
  4.61864049481529662E-02  4.73518500076161516E-02  4.85466054452848364E-02
  4.97714033812227744E-02  5.10269939644085319E-02  5.23141458033544449E-02
  5.36336464063633667E-02  5.49863026315372191E-02  5.63729411467193756E-02
  5.77944088995276731E-02  5.92515735977352659E-02  6.07453242001408864E-02
  6.22765714180813501E-02  6.38462482277521864E-02  6.54553103935734959E-02
  6.71047370028055451E-02  6.87955310115170721E-02  7.05287198020852074E-02
  7.23053557524239721E-02  7.41265168172205446E-02  7.59933071212276767E-02
  7.79068575647969691E-02  7.98683264418029448E-02  8.18789000702988129E-02
  8.39397934359165238E-02  8.60522508481722792E-02  8.82175466097918082E-02
  9.04369856994245713E-02  9.27119044677534171E-02  9.50436713471033701E-02
  9.74336875746331654E-02  9.98833879294803439E-02  1.02394241483880127E-01
  1.04967752368272216E-01  1.07605460550448048E-01  1.10308942629089357E-01
  1.13079812641739927E-01  1.15919722887107557E-01  1.18830364761707441E-01
  1.21813469611164113E-01  1.24870809596231327E-01  1.28004198573282463E-01
  1.31215492989223942E-01  1.34506592791107771E-01  1.37879442350503201E-01
  1.41336031402206769E-01  1.44878395997160514E-01  1.48508619469811892E-01
  1.52228833419945170E-01  1.56041218708358687E-01  1.59948006466143239E-01
  1.63951479117758869E-01  1.68053971417860298E-01  1.72257871501006188E-01
  1.76565621943852696E-01  1.80979720840007796E-01  1.85502722887345650E-01
  1.90137240486636466E-01  1.94885944850890419E-01  1.99751567125603074E-01
  2.04736899519435134E-01  2.09844796443873688E-01  2.15078175661007842E-01
  2.20440019439665347E-01  2.25933375719017449E-01  2.31561359277861645E-01
  2.37327152908385769E-01  2.43234008594777840E-01  2.49285248695136546E-01
  2.55484267124552855E-01  2.61834530537761068E-01  2.68339579511896686E-01
  2.75003029726888892E-01  2.81828573141008898E-01  2.88819979159532003E-01
  2.95981095797223814E-01  3.03315850830933376E-01  3.10828252939463756E-01
  3.18522392828259171E-01  3.26402444339656428E-01  3.34472665543466829E-01
  3.42737399804629750E-01  3.51201076825253089E-01  3.59868213661389158E-01
  3.68743415707694588E-01  3.77831377646083655E-01  3.87136884355861743E-01
  3.96664811784466886E-01  4.06420127770496908E-01  4.16407892814181391E-01
  4.26633260793463809E-01  4.37101479622477307E-01  4.47817891842929305E-01
  4.58787935142307868E-01  4.70017142798197618E-01  4.81511144041811501E-01
  4.93275664330525776E-01  5.05316525521955051E-01  5.17639645950038751E-01
  5.30251040391340744E-01  5.43156819910939559E-01  5.56363191579491323E-01
  5.69876458062138491E-01  5.83703017062093266E-01  5.97849360607643376E-01
  6.12322074174630915E-01  6.27127835642479203E-01  6.42273414062291437E-01
  6.57765668224208122E-01  6.73611545018451552E-01  6.89818077581651590E-01
  7.06392383204654029E-01  7.23341660986547064E-01  7.40673189232983198E-01
  7.58394322580154046E-01  7.76512488820246927E-01  7.95035185410892131E-01
  8.13969975669386336E-01  8.33324484620807882E-01  8.53106394476277785E-01
  8.73323439724297934E-01  8.93983401833277624E-01  9.15094103524289881E-01
  9.36663402589364091E-01  9.58699185243283125E-01  9.81209358995266290E-01
  1.00420184499539666E+00  1.02768456982805279E+00  1.05166545674837031E+00
  1.07615241632853853E+00  1.10115333647007474E+00  1.12667607175202122E+00
  1.15272843211647835E+00  1.17931817083639290E+00  1.20645297172517685E+00
  1.23414043556188613E+00  1.26238806572640638E+00  1.29120325297564498E+00
  1.32059325932108718E+00  1.35056520099348387E+00  1.38112603046578730E+00
  1.41228251746501088E+00  1.44404122893181630E+00  1.47640850792740452E+00
  1.50939045142689854E+00  1.54299288693919312E+00  1.57722134791522728E+00
  1.61208104794661899E+00  1.64757685366898876E+00  1.68371325632044000E+00
  1.72049434193226025E+00  1.75792376013242735E+00  1.79600469147515840E+00
  1.83473981325323399E+00  1.87413126379082096E+00  1.91418060516311739E+00
  1.95488878427542256E+00  1.99625609226744261E+00  2.03828212225018701E+00
  2.08096572529893686E+00  2.12430496466193963E+00  2.16829706817039103E+00
  2.21293837884339206E+00  2.25822430362349635E+00  2.30414926022789102E+00
  2.35070662212170012E+00  2.39788866159059566E+00  2.44568649089085710E+00
  2.49409000148986149E+00  2.54308780140750246E+00  2.59266715065488285E+00
  2.64281389480218865E+00  2.69351239671628617E+00  2.74474546647495066E+00
  2.79649428952526913E+00  2.84873835317679713E+00  2.90145537146870280E+00
  2.95462120846777321E+00  3.00820980015836259E+00  3.06219307508068361E+00
  3.11654087371498623E+00  3.17122086682745685E+00  3.22619847302836860E+00
  3.28143677572577230E+00  3.33689643948089065E+00  3.39253562620994531E+00
  3.44830991158579225E+00  3.50417220172617627E+00  3.56007265040679721E+00
  3.61595857742284066E+00  3.67177438856821459E+00  3.72746149713040609E+00
  3.78295824764367650E+00  3.83819984262845537E+00  3.89311827274307198E+00
  3.94764225028885329E+00  4.00169714734824034E+00  4.05520493940887228E+00
  4.10808415450091147E+00  4.16024982845683500E+00  4.21161346781086365E+00
  4.26208302130466343E+00  4.31156285947614748E+00  4.35995376413880820E+00
  4.40715292924569724E+00  4.45305397372093825E+00  4.49754696592404368E+00
  4.54051846248098023E+00  4.58185156297390339E+00  4.62142597987885573E+00
  4.65911812497939426E+00  4.69480121498491698E+00  4.72834539765607431E+00
  4.75961789657685408E+00  4.78848317803722168E+00  4.81480314213009741E+00
  4.83843733789490216E+00  4.85924320130371523E+00  4.87707632044775696E+00
  4.89179072939145687E+00  4.90323922765736775E+00  4.91127372709674592E+00
  4.91574562926223280E+00  4.91650623333536352E+00  4.91340716941329703E+00
  4.90630086181517111E+00  4.89504102322014489E+00  4.87948317580105329E+00
  4.85948519583673111E+00  4.83490788565792151E+00  4.80561557136170858E+00
  4.77147671729930956E+00  4.73236455790314992E+00  4.68815774646668793E+00
  4.63874101528881688E+00  4.58400583615063795E+00  4.52385108310524320E+00
  4.45818369226618216E+00  4.38691930684852682E+00  4.30998289985475314E+00
  4.22730937208037272E+00  4.13884411621058579E+00  4.04454353166600988E+00
  3.94437548680028227E+00  3.83831972067332616E+00  3.72636817277961319E+00
  3.60852523015902227E+00  3.48480788977438971E+00  3.35524582879371147E+00
  3.21988137697393739E+00  3.07876939317730614E+00  2.93197705011779330E+00
  2.77958353426550975E+00  2.62167967984584660E+00  2.45836756180057758E+00
  2.28976008106532758E+00  2.11598059375031866E+00  1.93716265547439814E+00
  1.75344996279896126E+00  1.56499660353765147E+00  1.37196776792737229E+00
  1.17454109672092177E+00  9.72908887531542255E-01  7.67281420853957119E-01
  5.57890367769594775E-01  3.44990138978618077E-01  1.28858641257357798E-01
 -9.02020037351194681E-02 -3.11864783684244473E-01 -5.35777171166099242E-01
 -7.61560560150713051E-01 -9.88809768603435946E-01 -1.21709261697449489E+00
 -1.44594959452952421E+00 -1.67489362279662468E+00 -1.90340992066279813E+00
 -2.13095598818847387E+00 -2.35696172409149574E+00 -2.58082968005400959E+00
 -2.80193546497254209E+00 -3.01962832055042885E+00 -3.23323188318776200E+00
 -3.44204512795626094E+00 -3.64534352369320525E+00 -3.84238042089241461E+00
 -4.03238867570282356E+00 -4.21458251399489470E+00 -4.38815967209841951E+00
 -4.55230383395452609E+00 -4.70618734582568621E+00 -4.84897423916638015E+00
 -4.97982359161560595E+00 -5.09789323026119323E+00 -5.20234375065663013E+00
 -5.29234290260980789E+00 -5.36707035969681989E+00 -5.42572283671935018E+00
 -5.46751955808921419E+00 -5.49170811537247783E+00 -5.49757071008272202E+00
 -5.48443070596649740E+00 -5.45165953398981262E+00 -5.39868395282993863E+00
 -5.32499360812439271E+00 -5.23014882614424614E+00 -5.11378867786768510E+00
 -4.97563927780249049E+00 -4.81552219013667671E+00 -4.63336292849562614E+00
 -4.42919952641231784E+00 -4.20319108651085482E+00 -3.95562615557400221E+00
 -3.68693092549223822E+00 -3.39767716784148810E+00 -3.08858973284136074E+00
 -2.76055350280938416E+00 -2.41461973339695080E+00 -2.05201163162710776E+00
 -1.67412896387799481E+00 -1.28255160909334420E+00 -8.79041900628108719E-01
 -4.65545558164187190E-01 -4.41910391319594031E-02  3.82712831255671959E-01
  8.12681163617742452E-01  1.24305941556366384E+00  1.67103206382793479E+00
  2.09363374423825288E+00  2.50776305654123588E+00  2.91019909310899250E+00
  3.29762089998225738E+00  3.66663006297124383E+00  4.01377643115761451E+00
  4.33558697897649381E+00  4.62859799560380214E+00  4.88939065054542255E+00
  5.11462957985329414E+00  5.30110455310618889E+00  5.44577518326208754E+00
  5.54581831308543194E+00  5.59867745629216351E+00  5.60211424917815037E+00
  5.55426146900051698E+00  5.45367655165519682E+00  5.29939501283144487E+00
  5.09098322854646135E+00  4.82858953710386984E+00  4.51299205909687284E+00
  4.14564261256319444E+00  3.72870551068261458E+00  3.26508948780127861E+00
  2.75847126976449974E+00  2.21330971776636476E+00  1.63484888720176880E+00
  1.02910808203848236E+00  4.02857828905832216E-01 -2.36419641421590443E-01
 -8.80586897786017508E-01 -1.52092576580397343E+00 -2.14823045563142578E+00
 -2.75292021810809207E+00 -3.32517143292419481E+00 -3.85506867491161609E+00
 -4.33277439555680299E+00 -4.74871608201005735E+00 -5.09378778699271884E+00
 -5.35956417694361509E+00 -5.53852425678529947E+00 -5.62427977965064319E+00
 -5.61180284601552071E+00 -5.49764848633652292E+00 -5.28016606011179324E+00
 -4.95969037215669672E+00 -4.53870644599147255E+00 -4.02198082117648514E+00
 -3.41665037058316079E+00 -2.73225940020431368E+00 -1.98073933999937224E+00
 -1.17632342044307170E+00 -3.35388773098657555E-01  5.23777895361888013E-01
  1.38129390769725258E+00  2.21607556756722968E+00  3.00631205702730586E+00
  3.73001346288745461E+00  4.36562646487001516E+00  4.89270531580175128E+00
  5.29262095288416390E+00  5.54929143362254695E+00  5.64991176717188193E+00
  5.58565138868803679E+00  5.35229218568651444E+00  4.95077723147117332E+00
  4.38763449902549674E+00  3.67523793857468029E+00  2.83187939947047562E+00
  1.88162136620087139E+00  8.53901921377487438E-01 -2.17122056965506655E-01
 -1.29349964331212197E+00 -2.33467782291554116E+00 -3.29894145286754226E+00
 -4.14506722193848276E+00 -4.83414702393034101E+00 -5.33151329319555956E+00
 -5.60868000057913552E+00 -5.64521037925671454E+00 -5.43040670615403087E+00
 -4.96469414657797792E+00 -4.26058976017423863E+00 -3.34314966708906525E+00
 -2.24978866412666889E+00 -1.02938901073171252E+00  2.59335859104897981E-01
  1.55023564164049921E+00  2.77283856249364380E+00  3.85608437240584534E+00
  4.73252579098656323E+00  5.34279477040441009E+00  5.64005067375186897E+00
  5.59411240958859679E+00  5.19494814968623420E+00  4.45516283843118632E+00
  3.41115157404445757E+00  2.12266582811874027E+00  6.70590836452770844E-01
 -8.47163158128227400E-01 -2.32156798916933615E+00 -3.63995933101493296E+00
 -4.69469745201689737E+00 -5.39240128781370576E+00 -5.66303357027744614E+00
 -5.46801424086162413E+00 -4.80643197692668167E+00 -3.71850192299262527E+00
 -2.28557183405048914E+00 -6.26160715228742615E-01  1.11216213107648376E+00
  2.76475913905765669E+00  4.16507704134764012E+00  5.16178291681749535E+00
                              </PP_CHI.4>
                             </PP_PSWFC> 
<PP_FULL_WFC number_of_wfc=" 4">
 <PP_AEWFC.1 type="real" size="   888" l="0" columns="3" label= "1S">
  3.35651684846343225E-03  3.39867880271486336E-03  3.44136986337252202E-03
  3.48459665775288641E-03  3.52836589589774216E-03  3.57268437148862633E-03
  3.61755896299665626E-03  3.66299663472143639E-03  3.70900443775194245E-03
  3.75558951115998081E-03  3.80275908305057050E-03  3.85052047159195132E-03
  3.89888108624911103E-03  3.94784842882990854E-03  3.99743009461739959E-03
  4.04763377361575319E-03  4.09846725160205837E-03  4.14993841138472808E-03
  4.20205523401000636E-03  4.25482579988816292E-03  4.30825829013672511E-03
  4.36236098772821001E-03  4.41714227878163557E-03  4.47261065386923840E-03
  4.52877470921353095E-03  4.58564314810193472E-03  4.64322478210594126E-03
  4.70152853247656887E-03  4.76056343148360296E-03  4.82033862374438467E-03
  4.88086336768252336E-03  4.94214703682927057E-03  5.00419912134383166E-03
  5.06702922935213778E-03  5.13064708847352571E-03  5.19506254723642487E-03
  5.26028557659211863E-03  5.32632627141265205E-03  5.39319485199873244E-03
  5.46090166564850484E-03  5.52945718817499706E-03  5.59887202553175246E-03
  5.66915691535439716E-03  5.74032272863195855E-03  5.81238047128360830E-03
  5.88534128586783688E-03  5.95921645320277808E-03  6.03401739410718008E-03
  6.10975567107208128E-03  6.18644299002732521E-03  6.26409120207291944E-03
  6.34271230526441306E-03  6.42231844641206768E-03  6.50292192288022888E-03
  6.58453518445815955E-03  6.66717083517622423E-03  6.75084163524015523E-03
  6.83556050288314405E-03  6.92134051633793834E-03  7.00819491575755543E-03
  7.09613710519612240E-03  7.18518065461934245E-03  7.27533930189162761E-03
  7.36662695485868543E-03  7.45905769338222387E-03  7.55264577144554219E-03
  7.64740561927879266E-03  7.74335184547231790E-03  7.84049923917223487E-03
  7.93886277225606951E-03  8.03845760154292717E-03  8.13929907105740910E-03
  8.24140271427772561E-03  8.34478425643526457E-03  8.44945961684917535E-03
  8.55544491125708600E-03  8.66275645419686650E-03  8.77141076141967416E-03
  8.88142455230782855E-03  8.99281475233544569E-03  9.10559849556588294E-03
  9.21979312716108938E-03  9.33541620592077438E-03  9.45248550686703277E-03
  9.57101902384760797E-03  9.69103497216179666E-03  9.81255179122784114E-03
  9.93558814728173409E-03  1.00601629361006459E-02  1.01862952857538144E-02
  1.03140045593939529E-02  1.04433103580788729E-02  1.05742325236220704E-02
  1.07067911414733315E-02  1.08410065436355639E-02  1.09768993116168799E-02
  1.11144902794129887E-02  1.12538005365229888E-02  1.13948514309978634E-02
  1.15376645725256619E-02  1.16822618355520071E-02  1.18286653624340432E-02
  1.19768975666295612E-02  1.21269811359217775E-02  1.22789390356795522E-02
  1.24327945121548745E-02  1.25885710958173243E-02  1.27462926047247453E-02
  1.29059831479312239E-02  1.30676671289327740E-02  1.32313692491509340E-02
  1.33971145114547847E-02  1.35649282237215521E-02  1.37348360024362823E-02
  1.39068637763311229E-02  1.40810377900641038E-02  1.42573846079379618E-02
  1.44359311176594160E-02  1.46167045341391664E-02  1.47997324033330956E-02
  1.49850426061247655E-02  1.51726633622499031E-02  1.53626232342629915E-02
  1.55549511315463459E-02  1.57496763143621411E-02  1.59468283979475427E-02
  1.61464373566535188E-02  1.63485335281275262E-02  1.65531476175404639E-02
  1.67603107018583150E-02  1.69700542341586352E-02  1.71824100479924871E-02
  1.73974103617919908E-02  1.76150877833238934E-02  1.78354753141894869E-02
  1.80586063543713392E-02  1.82845147068268349E-02  1.85132345821293967E-02
  1.87448006031571655E-02  1.89792478098297634E-02  1.92166116638936603E-02
  1.94569280537561437E-02  1.97002332993683957E-02  1.99465641571579845E-02
  2.01959578250109663E-02  2.04484519473041929E-02  2.07040846199876838E-02
  2.09628943957173575E-02  2.12249202890394117E-02  2.14902017816259484E-02
  2.17587788275621537E-02  2.20306918586851072E-02  2.23059817899746680E-02
  2.25846900249960895E-02  2.28668584613968794E-02  2.31525294964565163E-02
  2.34417460326889239E-02  2.37345514834979912E-02  2.40309897788863226E-02
  2.43311053712204524E-02  2.46349432410494958E-02  2.49425489029772261E-02
  2.52539684115877447E-02  2.55692483674296346E-02  2.58884359230542524E-02
  2.62115787891073239E-02  2.65387252404760722E-02  2.68699241224961381E-02
  2.72052248572115241E-02  2.75446774496878495E-02  2.78883324943873141E-02
  2.82362411815985301E-02  2.85884553039183961E-02  2.89450272627959221E-02
  2.93060100751327268E-02  2.96714573799344225E-02  3.00414234450253649E-02
  3.04159631738193069E-02  3.07951321121410423E-02  3.11789864551140425E-02
  3.15675830540992977E-02  3.19609794236899378E-02  3.23592337487705883E-02
  3.27624048916229441E-02  3.31705523990976012E-02  3.35837365098382093E-02
  3.40020181615604128E-02  3.44254589983949769E-02  3.48541213782760928E-02
  3.52880683803986767E-02  3.57273638127198687E-02  3.61720722195258207E-02
  3.66222588890480275E-02  3.70779898611379652E-02  3.75393319349968113E-02
  3.80063526769577609E-02  3.84791204283266644E-02  3.89577043132717793E-02
  3.94421742467730083E-02  3.99326009426183778E-02  4.04290559214592962E-02
  4.09316115189126209E-02  4.14403408937191187E-02  4.19553180359503453E-02
  4.24766177752666230E-02  4.30043157892276429E-02  4.35384886116465947E-02
  4.40792136410017507E-02  4.46265691488850549E-02  4.51806342885096510E-02
  4.57414891032528956E-02  4.63092145352526699E-02  4.68838924340448451E-02
  4.74656055652424025E-02  4.80544376192638054E-02  4.86504732200936166E-02
  4.92537979340917018E-02  4.98644982788378627E-02  5.04826617320122753E-02
  5.11083767403195319E-02  5.17417327284405149E-02  5.23828201080220879E-02
  5.30317302867014811E-02  5.36885556771555181E-02  5.43533897061849319E-02
  5.50263268238261952E-02  5.57074625124843806E-02  5.63968932960964078E-02
  5.70947167493154537E-02  5.78010315067122998E-02  5.85159372719998086E-02
  5.92395348272732949E-02  5.99719260422631045E-02  6.07132138836003823E-02
  6.14635024240954009E-02  6.22228968520210507E-02  6.29915034803996826E-02
  6.37694297562969581E-02  6.45567842701136180E-02  6.53536767648734418E-02
  6.61602181455059613E-02  6.69765204881220821E-02  6.78026970492777437E-02
  6.86388622752212157E-02  6.94851318111233129E-02  7.03416225102871662E-02
  7.12084524433330701E-02  7.20857409073541455E-02  7.29736084350394582E-02
  7.38721768037629151E-02  7.47815690446318876E-02  7.57019094514918695E-02
  7.66333235898829096E-02  7.75759383059431151E-02  7.85298817352569067E-02
  7.94952833116410046E-02  8.04722737758648693E-02  8.14609851842992977E-02
  8.24615509174895650E-02  8.34741056886470212E-02  8.44987855520548115E-02
  8.55357279113817537E-02  8.65850715278976973E-02  8.76469565285860897E-02
  8.87215244141468934E-02  8.98089180668836806E-02  9.09092817584693236E-02
  9.20227611575830107E-02  9.31495033374122178E-02  9.42896567830126542E-02
  9.54433713985187171E-02  9.66107985141980846E-02  9.77920908933420097E-02
  9.89874027389840566E-02  1.00196889700439773E-01  1.01420708879658122E-01
  1.02659018837377852E-01  1.03911979599078219E-01  1.05179752660717468E-01
  1.06462500994248241E-01  1.07760389052901598E-01  1.09073582776230138E-01
  1.10402249594899776E-01  1.11746558435220911E-01  1.13106679723408515E-01
  1.14482785389559874E-01  1.15875048871340661E-01  1.17283645117366456E-01
  1.18708750590269849E-01  1.20150543269440996E-01  1.21609202653428589E-01
  1.23084909761991129E-01  1.24577847137783651E-01  1.26088198847669170E-01
  1.27616150483639806E-01  1.29161889163335597E-01  1.30725603530145701E-01
  1.32307483752879734E-01  1.33907721524991918E-01  1.35526510063347622E-01
  1.37164044106510924E-01  1.38820519912544710E-01  1.40496135256300531E-01
  1.42191089426187661E-01  1.43905583220401034E-01  1.45639818942592258E-01
  1.47394000396966901E-01  1.49168332882788746E-01  1.50963023188274287E-01
  1.52778279583857507E-01  1.54614311814807059E-01  1.56471331093176125E-01
  1.58349550089063762E-01  1.60249182921169186E-01  1.62170445146618186E-01
  1.64113553750037583E-01  1.66078727131861476E-01  1.68066185095840481E-01
  1.70076148835737656E-01  1.72108840921183864E-01  1.74164485282670950E-01
  1.76243307195657867E-01  1.78345533263765704E-01  1.80471391401037240E-01
  1.82621110813234067E-01  1.84794921978146537E-01  1.86993056624888826E-01
  1.89215747712154742E-01  1.91463229405402308E-01  1.93735737052944113E-01
  1.96033507160910253E-01  1.98356777367058534E-01  2.00705786413399812E-01
  2.03080774117608776E-01  2.05481981343190651E-01  2.07909649968370469E-01
  2.10364022853674865E-01  2.12845343808173049E-01  2.15353857554344247E-01
  2.17889809691538289E-01  2.20453446657994462E-01  2.23045015691384657E-01
  2.25664764787846139E-01  2.28312942659465584E-01  2.30989798690182047E-01
  2.33695582890067671E-01  2.36430545847950979E-01  2.39194938682345343E-01
  2.41989012990640989E-01  2.44813020796525671E-01  2.47667214495589399E-01
  2.50551846799076106E-01  2.53467170675741094E-01  2.56413439291769907E-01
  2.59390905948720885E-01  2.62399824019444672E-01  2.65440446881940184E-01
  2.68513027851104091E-01  2.71617820108326691E-01  2.74755076628892592E-01
  2.77925050107136640E-01  2.81127992879315169E-01  2.84364156844141014E-01
  2.87633793380937475E-01  2.90937153265366399E-01  2.94274486582681849E-01
  2.97646042638458508E-01  3.01052069866749594E-01  3.04492815735622979E-01
  3.07968526650028329E-01  3.11479447851941316E-01  3.15025823317744091E-01
  3.18607895652786410E-01  3.22225905983072713E-01  3.25880093844033214E-01
  3.29570697066319696E-01  3.33297951658576785E-01  3.37062091687141685E-01
  3.40863349152620843E-01  3.44701953863289834E-01  3.48578133305260107E-01
  3.52492112509368960E-01  3.56444113914732019E-01  3.60434357228910707E-01
  3.64463059284656887E-01  3.68530433893161979E-01  3.72636691693771838E-01
  3.76782040000110507E-01  3.80966682642558951E-01  3.85190819807047335E-01
  3.89454647870117632E-01  3.93758359230193256E-01  3.98102142135008663E-01
  4.02486180505153224E-01  4.06910653753668305E-01  4.11375736601684361E-01
  4.15881598890032234E-01  4.20428405386779114E-01  4.25016315590647287E-01
  4.29645483530265160E-01  4.34316057559219593E-01  4.39028180146892044E-01
  4.43781987665003597E-01  4.48577610169839602E-01  4.53415171180114096E-01
  4.58294787450429675E-01  4.63216568740359269E-01  4.68180617579063318E-01
  4.73187029025421202E-01  4.78235890423646282E-01  4.83327281154342592E-01
  4.88461272381062128E-01  4.93637926792279413E-01  4.98857298338761912E-01
  5.04119431966328024E-01  5.09424363343946141E-01  5.14772118587287997E-01
  5.20162713977636693E-01  5.25596155676145260E-01  5.31072439433449728E-01
  5.36591550294613695E-01  5.42153462299561517E-01  5.47758138178877640E-01
  5.53405529045009170E-01  5.59095574078858237E-01  5.64828200211827780E-01
  5.70603321803481944E-01  5.76420840314680327E-01  5.82280643976272771E-01
  5.88182607453325734E-01  5.94126591505097945E-01  6.00112442640832189E-01
  6.06139992771266400E-01  6.12209058855980537E-01  6.18319442546574893E-01
  6.24470929826089205E-01  6.30663290644505992E-01  6.36896278550410755E-01
  6.43169630318861318E-01  6.49483065575718221E-01  6.55836286418743364E-01
  6.62228977035254296E-01  6.68660803316535879E-01  6.75131412469030190E-01
  6.81640432622985015E-01  6.88187472438345105E-01  6.94772120708004981E-01
  7.01393945958481146E-01  7.08052496048544922E-01  7.14747297766171519E-01
  7.21477856423535457E-01  7.28243655450330429E-01  7.35044155985578151E-01
  7.41878796468982249E-01  7.48746992231281272E-01  7.55648135083947126E-01
  7.62581592908228578E-01  7.69546709244818716E-01  7.76542802883954497E-01
  7.83569167455937521E-01  7.90625071022224568E-01  7.97709755668129850E-01
  8.04822437097782450E-01  8.11962304230755216E-01  8.19128518800761540E-01
  8.26320214957033117E-01  8.33536498870024456E-01  8.40776448340314730E-01
  8.48039112411283935E-01  8.55323510985786184E-01  8.62628634449295828E-01
  8.69953443298195794E-01  8.77296867773683653E-01  8.84657807501319504E-01
  8.92035131139226944E-01  8.99427676033819123E-01  9.06834247883143152E-01
  9.14253620407813883E-01  9.21684535032869956E-01  9.29125700579948366E-01
  9.36575792969234655E-01  9.44033454931250016E-01  9.51497295731964177E-01
  9.58965890911376628E-01  9.66437782034231918E-01  9.73911476453035996E-01
  9.81385447087042229E-01  9.88858132218130792E-01  9.96327935301391521E-01
  1.00379322479066047E+00  1.01125233398292513E+00  1.01870356088331770E+00
  1.02614516808754819E+00  1.03357538268208482E+00  1.04099239616642358E+00
  1.04839436439982725E+00  1.05577940756840083E+00  1.06314561017276832E+00
  1.07049102104144245E+00  1.07781365337266544E+00  1.08511148479957309E+00
  1.09238245747882501E+00  1.09962447820897480E+00  1.10683541858132228E+00
  1.11401311515709778E+00  1.12115536967091978E+00  1.12825994926858586E+00
  1.13532458678114767E+00  1.14234698102834442E+00  1.14932479715095592E+00
  1.15625566698270688E+00  1.16313718946186939E+00  1.16996693107514416E+00
  1.17674242633293313E+00  1.18346117829008546E+00  1.19012065910904985E+00
  1.19671831065807655E+00  1.20325154514311339E+00  1.20971774579179514E+00
  1.21611426758154595E+00  1.22243843800521823E+00  1.22868755787276074E+00
  1.23485890217205507E+00  1.24094972097436607E+00  1.24695724037927214E+00
  1.25287866349851451E+00  1.25871117150586498E+00  1.26445192473091805E+00
  1.27009806379336609E+00  1.27564671078053804E+00  1.28109497049626730E+00
  1.28643993175223570E+00  1.29167866869936554E+00  1.29680824220924529E+00
  1.30182570132912123E+00  1.30672808477762525E+00  1.31151242247853905E+00
  1.31617573715420577E+00  1.32071504599051481E+00  1.32512736234071204E+00
  1.32940969746413584E+00  1.33355906233677124E+00  1.33757246952631914E+00
  1.34144693510389912E+00  1.34517948058784431E+00  1.34876713497229539E+00
  1.35220693680847126E+00  1.35549593631916787E+00  1.35863119754576256E+00
  1.36160980058969150E+00  1.36442884389202668E+00  1.36708544653991182E+00
  1.36957675061350459E+00  1.37189992362718893E+00  1.37405216099532579E+00
  1.37603068851474664E+00  1.37783276490450324E+00  1.37945568442648892E+00
  1.38089677951940359E+00  1.38215342343781056E+00  1.38322303297084548E+00
  1.38410307121571163E+00  1.38479105035444561E+00  1.38528453442820187E+00
  1.38558114221121609E+00  1.38567855010534169E+00  1.38557449502518071E+00
  1.38526677728684544E+00  1.38475326359947926E+00  1.38403189004460625E+00
  1.38310066502743045E+00  1.38195767225698130E+00  1.38060107380425756E+00
  1.37902911312378729E+00  1.37724011802581736E+00  1.37523250371394545E+00
  1.37300477585150027E+00  1.37055553357212889E+00  1.36788347242872210E+00
  1.36498738743770032E+00  1.36186617609047955E+00  1.35851884128698108E+00
  1.35494449422220353E+00  1.35114235736254273E+00  1.34711176733602622E+00
  1.34285217771431764E+00  1.33836316179314174E+00  1.33364441540827650E+00
  1.32869575962957875E+00  1.32351714331797998E+00  1.31810864573491959E+00
  1.31247047909965753E+00  1.30660299099580079E+00  1.30050666663759973E+00
  1.29418213121212111E+00  1.28763015207780196E+00  1.28085164077571756E+00
  1.27384765494634600E+00  1.26661940027308839E+00  1.25916823221873830E+00
  1.25149565753243164E+00  1.24360333573606230E+00  1.23549308052706563E+00
  1.22716686093302041E+00  1.21862680221719089E+00  1.20987518681513007E+00
  1.20091445505769689E+00  1.19174720560426484E+00  1.18237619566995944E+00
  1.17280434124765764E+00  1.16303471702128025E+00  1.15307055594061247E+00
  1.14291524868547234E+00  1.13257234299865339E+00  1.12204554266009460E+00
  1.11133870609913243E+00  1.10045584498089943E+00  1.08940112250607646E+00
  1.07817885131835345E+00  1.06679349110793931E+00  1.05524964617999584E+00
  1.04355206263083589E+00  1.03170562510268704E+00  1.01971535337484243E+00
  1.00758639880435519E+00  9.95324040347639438E-01  9.82933680172805802E-01
  9.70420839253418821E-01  9.57791152672037072E-01  9.45050364520256037E-01
  9.32204322508830896E-01  9.19258972605126679E-01  9.06220353314181826E-01
  8.93094589590983312E-01  8.79887886681306686E-01  8.66606523915418259E-01
  8.53256848179562266E-01  8.39845267099604387E-01  8.26378242358966841E-01
  8.12862282865191799E-01  7.99303937665217457E-01  7.85709788749407889E-01
  7.72086444051446219E-01  7.58440530259945067E-01  7.44778685444588251E-01
  7.31107551803620526E-01  7.17433768520134851E-01  7.03763964478314241E-01
  6.90104750892301499E-01  6.76462714240985918E-01  6.62844409227222098E-01
  6.49256351712425461E-01  6.35705011808948450E-01  6.22196807406529939E-01
  6.08738097872353112E-01  5.95335178043775559E-01  5.81994272915878574E-01
  5.68721533128039414E-01  5.55523031291551117E-01  5.42404759492836841E-01
  5.29372628564214076E-01  5.16432469241213665E-01  5.03590035597952235E-01
  4.90851011298352957E-01  4.78221019090440513E-01  4.65705633574639732E-01
  4.53310397272567445E-01  4.41040839630522263E-01  4.28902497748056277E-01
  4.16900936830769009E-01  4.05041767339643088E-01  3.93330654487012876E-01
  3.81773314636192018E-01  3.70375492495439884E-01  3.59142913203741421E-01
  3.48081205426613915E-01  3.37195795455427605E-01  3.26491778105820696E-01
  3.15973778016284901E-01  3.05645821060410439E-01  2.95511238048215719E-01
  2.85572620165183144E-01  2.75831836348914894E-01  2.66290107996085046E-01
  2.56948124646760867E-01  2.47806177081955792E-01  2.38864283915573100E-01
  2.30122294690604412E-01  2.21579961701720007E-01  2.13236980215989469E-01
  2.05093002913483480E-01  1.97147636460763637E-01  1.89400427504404278E-01
  1.81850843779778060E-01  1.74498254884259574E-01  1.67341915109672890E-01
  1.60380949172188703E-01  1.53614341274602134E-01  1.47040927580168984E-01
  1.40659391683801260E-01  1.34468262259476806E-01  1.28465912794628462E-01
  1.22650563107455937E-01  1.17020282125681191E-01  1.11572991480696992E-01
  1.06306470074057677E-01  1.01218359468345231E-01  9.63061695397542800E-02
  9.15672844958275167E-02  8.69989693860971081E-02  8.25983769418191238E-02
  7.83625542550044352E-02  7.42884497323074017E-02  7.03729203498146411E-02
  6.66127388253515001E-02  6.30046006363574884E-02  5.95451312569463681E-02
  5.62308935767348791E-02  5.30583949391004589E-02  5.00240942017832757E-02
  4.71244089668143087E-02  4.43557227551402908E-02  4.17143917704155195E-02
  3.91967517755756473E-02  3.67991250863134653E-02  3.45178271862033037E-02
  3.23491731169772076E-02  3.02894839438311789E-02  2.83350931924486703E-02
  2.64823527176655804E-02  2.47276385236316239E-02  2.30673565949766797E-02
  2.14979484043520859E-02  2.00158959476799299E-02  1.86177267491395536E-02
  1.73000187953760570E-02  1.60594048801583900E-02  1.48925766950439974E-02
  1.37962888388159250E-02  1.27673625735757121E-02  1.18026889667853466E-02
  1.08992319092423521E-02  1.00540310118935640E-02  9.26420401382984163E-03
  8.52694878076073158E-03  7.83954518505730093E-03  7.19935679968634716E-03
  6.60383200272339054E-03  6.05050488849487571E-03  5.53699605191671374E-03
  5.06101304604394432E-03  4.62035038750038731E-03  4.21288945829433048E-03
  3.83659828296995355E-03  3.48953087534368970E-03  3.16982636314561660E-03
  2.87570803205187443E-03  2.60548220541086681E-03  2.35753674699744949E-03
  2.13033949890093421E-03  1.92243666425451838E-03  1.73245095913200924E-03
  1.55907957155644551E-03  1.40109211023523549E-03  1.25732851353218210E-03
  1.12669673062809790E-03  1.00817037706653237E-03  9.00786407403596744E-04
  8.03642725131611577E-04  7.15895672394754705E-04  6.36757570670936995E-04
  5.65494302272102575E-04  5.01422815882588010E-04  4.43908641278265915E-04
  3.92363477819279922E-04  3.46242825682436400E-04  3.05043581420011921E-04
  2.68301717994132171E-04  2.35590050317936272E-04  2.06516029100785135E-04
  1.80719573581981799E-04  1.57871006378073274E-04  1.37669076533611221E-04
  1.19839013595778233E-04  1.04130672176604586E-04  9.03167767837880430E-05
  7.81912420467690183E-05  6.75675497854790906E-05  5.82772275443276433E-05
  5.01684202277350878E-05  4.31045238117004417E-05  3.69628982338399514E-05
  3.16336712379898467E-05  2.70186212938313688E-05  2.30301192489811169E-05
  1.95901510675681504E-05  1.66294167689793973E-05  1.40864906783225247E-05
  1.19070413457372770E-05  1.00431193297081752E-05  8.45250564539864759E-06
  7.09810791251922926E-06  5.94741075115026337E-06  4.97197818512442486E-06
  4.14700074385435735E-06  3.45088158011606719E-06  2.86486515393146688E-06
  2.37270397009541102E-06  1.96035673674705519E-06  1.61571770488996068E-06
  1.32837617115908117E-06  1.08940231473091747E-06  8.91155148147008466E-07
  7.27113172176731223E-07  5.91725272042907374E-07  4.80278754352501857E-07
  3.88782950656535474E-07  3.13867778014736762E-07  2.52695273543262195E-07
  2.02881945546057195E-07  1.62431489425990426E-07  1.29676731186294607E-07
  1.03229418463379192E-07  8.19367593600950012E-08  6.48443012073590403E-08
  5.11642363925949567E-08  4.02482262726323011E-08  3.15642895199347966E-08
  2.46772874879036024E-08  1.92324385206364247E-08  1.49413531081477552E-08
  1.15703552834813118E-08  8.93073407083603058E-09  6.87059026688000596E-09
  5.26804605242540130E-09  4.02564345590695428E-09  3.06572565638911056E-09
  2.32661952976494975E-09  1.75951375743779053E-09  1.32591601744470711E-09
  9.95581477297759928E-10  7.44827746769341281E-10  5.55179050964436084E-10
  4.12276686128757600E-10  3.05002542998144435E-10  2.24779487972398030E-10
  1.65016471685027428E-10  1.20668834938051657E-10  8.78899991608190321E-11
  6.37585480632369465E-11  4.60649072112115376E-11  3.31446774999622117E-11
  2.37490965280727109E-11  1.69452014065984805E-11  1.20390044398738989E-11
  8.51640629198496070E-12  5.99819082771734282E-12  4.20589058570172460E-12
  2.93593717673901405E-12  2.04015326625728276E-12  1.41117321769366044E-12
  9.71571453040521756E-13  6.65766960683117538E-13  4.54042977714822525E-13
  3.08156713585310534E-13  2.08123714574929907E-13  1.39868919515875110E-13
  9.35281475892145287E-14  6.22238960423145411E-14  4.11851255211184907E-14
  2.71184028760912630E-14  1.77622420035946073E-14  1.15721524338824157E-14
  7.49870195185343323E-15  4.83262278140412697E-15  3.09722656631826691E-15
  1.97391814561910107E-15  1.25089763867958046E-15  7.88164543306175951E-16
  4.93722783959289488E-16  3.07462661807111158E-16  1.90331966612662550E-16
  1.17112969211664995E-16  7.16213845516097140E-17  4.35305157517625841E-17
  2.62918363824355005E-17  1.57793232782782987E-17  9.40950041784401750E-18
                              </PP_AEWFC.1>
 <PP_AEWFC.2 type="real" size="   888" l="0" columns="3" label= "2S">
 -6.77013052952239671E-04 -6.85517161987538905E-04 -6.94127992247421709E-04
 -7.02846880464955527E-04 -7.11675180058860771E-04 -7.20614261317950740E-04
 -7.29665511633047995E-04 -7.38830335706528764E-04 -7.48110155746129174E-04
 -7.57506411705661663E-04 -7.67020561496873287E-04 -7.76654081197193495E-04
 -7.86408465298532068E-04 -7.96285226918277771E-04 -8.06285898027683258E-04
 -8.16412029703160696E-04 -8.26665192338426843E-04 -8.37046975898316078E-04
 -8.47558990162128713E-04 -8.58202864950776551E-04 -8.68980250397708527E-04
 -8.79892817180399586E-04 -8.90942256780842502E-04 -9.02130281749106153E-04
 -9.13458625944774116E-04 -9.24929044822268192E-04 -9.36543315676745562E-04
 -9.48303237925553666E-04 -9.60210633378346485E-04 -9.72267346505092055E-04
 -9.84475244730286230E-04 -9.96836218695427946E-04 -1.00935218256565837E-03
 -1.02202507429977854E-03 -1.03485685595817111E-03 -1.04784951398833215E-03
 -1.06100505953018618E-03 -1.07432552871819954E-03 -1.08781298298551402E-03
 -1.10146950938035267E-03 -1.11529722087207617E-03 -1.12929825667905902E-03
 -1.14347478257960746E-03 -1.15782899124904971E-03 -1.17236310257774865E-03
 -1.18707936401582503E-03 -1.20198005089996009E-03 -1.21706746680453194E-03
 -1.23234394387877191E-03 -1.24781184320305267E-03 -1.26347355513808327E-03
 -1.27933149968499768E-03 -1.29538812684822503E-03 -1.31164591699840230E-03
 -1.32810738124969634E-03 -1.34477506182610379E-03 -1.36165153245156718E-03
 -1.37873939872351636E-03 -1.39604129851061162E-03 -1.41355990234012384E-03
 -1.43129791379743962E-03 -1.44925806993154356E-03 -1.46744314165578793E-03
 -1.48585593416792022E-03 -1.50449928736044779E-03 -1.52337607624529882E-03
 -1.54248921138245166E-03 -1.56184163930615642E-03 -1.58143634296774413E-03
 -1.60127634217441077E-03 -1.62136469403496570E-03 -1.64170449341641896E-03
 -1.66229887339737893E-03 -1.68315100573182769E-03 -1.70426410131995767E-03
 -1.72564141067822275E-03 -1.74728622441968858E-03 -1.76920187374068677E-03
 -1.79139173090844209E-03 -1.81385920975732362E-03 -1.83660776619251620E-03
 -1.85964089869608963E-03 -1.88296214883908598E-03 -1.90657510180276390E-03
 -1.93048338690360657E-03 -1.95469067812289446E-03 -1.97920069464463432E-03
 -2.00401720139983114E-03 -2.02914400961571933E-03 -2.05458497737052732E-03
 -2.08034401015641654E-03 -2.10642506144850849E-03 -2.13283213327974822E-03
 -2.15956927682182595E-03 -2.18664059297339185E-03 -2.21405023295538411E-03
 -2.24180239891246533E-03 -2.26990134452119017E-03 -2.29835137560476617E-03
 -2.32715685075520450E-03 -2.35632218196260091E-03 -2.38585183525114389E-03
 -2.41575033132222739E-03 -2.44602224620473841E-03 -2.47667221191249023E-03
 -2.50770491710916935E-03 -2.53912510778073154E-03 -2.57093758791509868E-03
 -2.60314722018936944E-03 -2.63575892666463151E-03 -2.66877768948841406E-03
 -2.70220855160488264E-03 -2.73605661747280569E-03 -2.77032705379139967E-03
 -2.80502509023415137E-03 -2.84015602019059652E-03 -2.87572520151617656E-03
 -2.91173805729023297E-03 -2.94820007658221431E-03 -2.98511681522617900E-03
 -3.02249389660362621E-03 -3.06033701243477521E-03 -3.09865192357832928E-03
 -3.13744446083980564E-03 -3.17672052578850742E-03 -3.21648609158318175E-03
 -3.25674720380647468E-03 -3.29750998130822577E-03 -3.33878061705767141E-03
 -3.38056537900465566E-03 -3.42287061094986985E-03 -3.46570273342423907E-03
 -3.50906824457749992E-03 -3.55297372107603792E-03 -3.59742581901006768E-03
 -3.64243127481022255E-03 -3.68799690617358476E-03 -3.73412961299929768E-03
 -3.78083637833374160E-03 -3.82812426932538754E-03 -3.87600043818942799E-03
 -3.92447212318219191E-03 -3.97354664958545021E-03 -4.02323143070064566E-03
 -4.07353396885312777E-03 -4.12446185640646858E-03 -4.17602277678687066E-03
 -4.22822450551768678E-03 -4.28107491126433932E-03 -4.33458195688954905E-03
 -4.38875370051892196E-03 -4.44359829661693153E-03 -4.49912399707336121E-03
 -4.55533915230015712E-03 -4.61225221233916866E-03 -4.66987172798054555E-03
 -4.72820635189170283E-03 -4.78726483975697517E-03 -4.84705605142795107E-03
 -4.90758895208515903E-03 -4.96887261341048738E-03 -5.03091621477033419E-03
 -5.09372904440952290E-03 -5.15732050065696290E-03 -5.22170009314218420E-03
 -5.28687744402255716E-03 -5.35286228922167862E-03 -5.41966447967975103E-03
 -5.48729398261459025E-03 -5.55576088279334090E-03 -5.62507538381657336E-03
 -5.69524780941336583E-03 -5.76628860474683990E-03 -5.83820833773209848E-03
 -5.91101770036553571E-03 -5.98472751006433584E-03 -6.05934871101865800E-03
 -6.13489237555504829E-03 -6.21136970551000329E-03 -6.28879203361680950E-03
 -6.36717082490257866E-03 -6.44651767809646409E-03 -6.52684432705081998E-03
 -6.60816264217159791E-03 -6.69048463186198549E-03 -6.77382244397649498E-03
 -6.85818836728599619E-03 -6.94359483295557776E-03 -7.03005441603137427E-03
 -7.11757983694120706E-03 -7.20618396300402603E-03 -7.29587980995232647E-03
 -7.38668054346447792E-03 -7.47859948070862639E-03 -7.57165009189757123E-03
 -7.66584600185409373E-03 -7.76120099158787453E-03 -7.85772899988215756E-03
 -7.95544412489223619E-03 -8.05436062575326517E-03 -8.15449292419977156E-03
 -8.25585560619438233E-03 -8.35846342356772777E-03 -8.46233129566791552E-03
 -8.56747431102006761E-03 -8.67390772899625032E-03 -8.78164698149396829E-03
 -8.89070767462596390E-03 -9.00110559041725558E-03 -9.11285668851378669E-03
 -9.22597710789795251E-03 -9.34048316861461891E-03 -9.45639137350510160E-03
 -9.57371840994929342E-03 -9.69248115161735861E-03 -9.81269666022763914E-03
 -9.93438218731398752E-03 -1.00575551759999292E-02 -1.01822332627796355E-02
 -1.03084342793073359E-02 -1.04361762541919558E-02 -1.05654774147989315E-02
 -1.06963561890586461E-02 -1.08288312072794043E-02 -1.09629213039670239E-02
 -1.10986455196495151E-02 -1.12360231027055103E-02 -1.13750735111982897E-02
 -1.15158164147135568E-02 -1.16582716962000937E-02 -1.18024594538144803E-02
 -1.19484000027684622E-02 -1.20961138771781204E-02 -1.22456218319151183E-02
 -1.23969448444597660E-02 -1.25501041167544666E-02 -1.27051210770571660E-02
 -1.28620173817953851E-02 -1.30208149174191479E-02 -1.31815358022523057E-02
 -1.33442023883420090E-02 -1.35088372633058607E-02 -1.36754632521757860E-02
 -1.38441034192377087E-02 -1.40147810698667656E-02 -1.41875197523574914E-02
 -1.43623432597478722E-02 -1.45392756316364887E-02 -1.47183411559920086E-02
 -1.48995643709545905E-02 -1.50829700666280098E-02 -1.52685832868616842E-02
 -1.54564293310216604E-02 -1.56465337557496580E-02 -1.58389223767095473E-02
 -1.60336212703198859E-02 -1.62306567754717350E-02 -1.64300554952304494E-02
 -1.66318442985206663E-02 -1.68360503217932327E-02 -1.70427009706730637E-02
 -1.72518239215866988E-02 -1.74634471233682011E-02 -1.76775987988423804E-02
 -1.78943074463839662E-02 -1.81136018414512975E-02 -1.83355110380934855E-02
 -1.85600643704293897E-02 -1.87872914540970770E-02 -1.90172221876722600E-02
 -1.92498867540541498E-02 -1.94853156218173090E-02 -1.97235395465277311E-02
 -1.99645895720216397E-02 -2.02084970316452339E-02 -2.04552935494536244E-02
 -2.07050110413673216E-02 -2.09576817162841211E-02 -2.12133380771448686E-02
 -2.14720129219509136E-02 -2.17337393447312698E-02 -2.19985507364576158E-02
 -2.22664807859048082E-02 -2.25375634804548912E-02 -2.28118331068423753E-02
 -2.30893242518383640E-02 -2.33700718028714907E-02 -2.36541109485828883E-02
 -2.39414771793130463E-02 -2.42322062875179600E-02 -2.45263343681117567E-02
 -2.48238978187335368E-02 -2.51249333399353181E-02 -2.54294779352885886E-02
 -2.57375689114064735E-02 -2.60492438778785231E-02 -2.63645407471152608E-02
 -2.66834977340993304E-02 -2.70061533560399594E-02 -2.73325464319279371E-02
 -2.76627160819870078E-02 -2.79967017270193116E-02 -2.83345430876403188E-02
 -2.86762801834005605E-02 -2.90219533317900534E-02 -2.93716031471217137E-02
 -2.97252705392901211E-02 -3.00829967124014719E-02 -3.04448231632710141E-02
 -3.08107916797834974E-02 -3.11809443391127539E-02 -3.15553235057960055E-02
 -3.19339718296583613E-02 -3.23169322435832088E-02 -3.27042479611239778E-02
 -3.30959624739520994E-02 -3.34921195491370838E-02 -3.38927632262529185E-02
 -3.42979378143067823E-02 -3.47076878884839540E-02 -3.51220582867044079E-02
 -3.55410941059852367E-02 -3.59648406986037283E-02 -3.63933436680554320E-02
 -3.68266488648013660E-02 -3.72648023817987450E-02 -3.77078505498089425E-02
 -3.81558399324771202E-02 -3.86088173211765751E-02 -3.90668297296123609E-02
 -3.95299243881767348E-02 -3.99981487380506942E-02 -4.04715504250443281E-02
 -4.09501772931691876E-02 -4.14340773779360225E-02 -4.19232988993700276E-02
 -4.24178902547370715E-02 -4.29179000109730299E-02 -4.34233768968086964E-02
 -4.39343697945826506E-02 -4.44509277317341814E-02 -4.49730998719681668E-02
 -4.55009355060839310E-02 -4.60344840424593837E-02 -4.65737949971825743E-02
 -4.71189179838214026E-02 -4.76699027028229735E-02 -4.82267989305340330E-02
 -4.87896565078324365E-02 -4.93585253283618311E-02 -4.99334553263586500E-02
 -5.05144964640627941E-02 -5.11016987187020572E-02 -5.16951120690401500E-02
 -5.22947864814787902E-02 -5.29007718957027959E-02 -5.35131182098589619E-02
 -5.41318752652573329E-02 -5.47570928305844279E-02 -5.53888205856177263E-02
 -5.60271081044298458E-02 -5.66720048380719987E-02 -5.73235600967247350E-02
 -5.79818230313044122E-02 -5.86468426145147284E-02 -5.93186676213304995E-02
 -5.99973466089019913E-02 -6.06829278958677873E-02 -6.13754595410634790E-02
 -6.20749893216143156E-02 -6.27815647103982383E-02 -6.34952328528680804E-02
 -6.42160405432194437E-02 -6.49440341998900189E-02 -6.56792598403789230E-02
 -6.64217630553714106E-02 -6.71715889821555695E-02 -6.79287822773186195E-02
 -6.86933870887082854E-02 -6.94654470266457547E-02 -7.02450051343753296E-02
 -7.10321038577377828E-02 -7.18267850140521247E-02 -7.26290897601917368E-02
 -7.34390585598432705E-02 -7.42567311499297278E-02 -7.50821465061857485E-02
 -7.59153428078691711E-02 -7.67563574015940470E-02 -7.76052267642712429E-02
 -7.84619864651431020E-02 -7.93266711268954816E-02 -8.01993143858317770E-02
 -8.10799488510952071E-02 -8.19686060629218616E-02 -8.28653164499151135E-02
 -8.37701092853229690E-02 -8.46830126423034346E-02 -8.56040533481626786E-02
 -8.65332569375506927E-02 -8.74706476046007847E-02 -8.84162481540022444E-02
 -8.93700799509860588E-02 -9.03321628702103280E-02 -9.13025152435304327E-02
 -9.22811538066388853E-02 -9.32680936445690889E-02 -9.42633481360414943E-02
 -9.52669288966386668E-02 -9.62788457207965770E-02 -9.72991065225948665E-02
 -9.83277172753468237E-02 -9.93646819499659079E-02 -1.00410002452096192E-01
 -1.01463678557995568E-01 -1.02525707849154712E-01 -1.03596085645659100E-01
 -1.04674804938269139E-01 -1.05761856319207329E-01 -1.06857227911642538E-01
 -1.07960905297858609E-01 -1.09072871446120129E-01 -1.10193106636206642E-01
 -1.11321588383610601E-01 -1.12458291362386137E-01 -1.13603187326648161E-01
 -1.14756245030736462E-01 -1.15917430148011674E-01 -1.17086705188286594E-01
 -1.18264029413876884E-01 -1.19449358754295604E-01 -1.20642645719589464E-01
 -1.21843839312292285E-01 -1.23052884938003051E-01 -1.24269724314576530E-01
 -1.25494295379979859E-01 -1.26726532198780301E-01 -1.27966364867264565E-01
 -1.29213719417187373E-01 -1.30468517718178634E-01 -1.31730677378845390E-01
 -1.33000111646526864E-01 -1.34276729305722514E-01 -1.35560434575187017E-01
 -1.36851127003788098E-01 -1.38148701365084337E-01 -1.39453047550630815E-01
 -1.40764050462013457E-01 -1.42081589901686622E-01 -1.43405540462660908E-01
 -1.44735771416989845E-01 -1.46072146603091424E-01 -1.47414524311920231E-01
 -1.48762757172149124E-01 -1.50116692034267363E-01 -1.51476169853640874E-01
 -1.52841025572528322E-01 -1.54211088001247276E-01 -1.55586179698454674E-01
 -1.56966116850532661E-01 -1.58350709150098801E-01 -1.59739759673799275E-01
 -1.61133064759482941E-01 -1.62530413882659652E-01 -1.63931589532301941E-01
 -1.65336367086083930E-01 -1.66744514685316619E-01 -1.68155793109398571E-01
 -1.69569955649872761E-01 -1.70986747984123055E-01 -1.72405908049106799E-01
 -1.73827165914911624E-01 -1.75250243658214927E-01 -1.76674855235650824E-01
 -1.78100706357570832E-01 -1.79527494362022838E-01 -1.80954908088968108E-01
 -1.82382627754737431E-01 -1.83810324827269139E-01 -1.85237661902041800E-01
 -1.86664292578624075E-01 -1.88089861337859321E-01 -1.89514003420263949E-01
 -1.90936344705672584E-01 -1.92356501593932055E-01 -1.93774080886686073E-01
 -1.95188679670860232E-01 -1.96599885204020969E-01 -1.98007274801271116E-01
 -1.99410415723745571E-01 -2.00808865069367043E-01 -2.02202169666169745E-01
 -2.03589865967706840E-01 -2.04971479950618929E-01 -2.06346527015104170E-01
 -2.07714511888716868E-01 -2.09074928532854781E-01 -2.10427260052012205E-01
 -2.11770978606677707E-01 -2.13105545330377427E-01 -2.14430410250064291E-01
 -2.15745012209922898E-01 -2.17048778799674241E-01 -2.18341126287890014E-01
 -2.19621459559360466E-01 -2.20889172056560612E-01 -2.22143645726613409E-01
 -2.23384250974143744E-01 -2.24610346618945245E-01 -2.25821279858456875E-01
 -2.27016386236892687E-01 -2.28194989621138267E-01 -2.29356402182261054E-01
 -2.30499924382570498E-01 -2.31624844970675287E-01 -2.32730440984127096E-01
 -2.33815977758524224E-01 -2.34880708942944216E-01 -2.35923876524909065E-01
 -2.36944710863667363E-01 -2.37942430730804844E-01 -2.38916243358049840E-01
 -2.39865344496311389E-01 -2.40788918483640230E-01 -2.41686138321385080E-01
 -2.42556165758586684E-01 -2.43398151389369877E-01 -2.44211234759751955E-01
 -2.44994544483447402E-01 -2.45747198367304659E-01 -2.46468303551350548E-01
 -2.47156956658718813E-01 -2.47812243955233436E-01 -2.48433241520547188E-01
 -2.49019015435094665E-01 -2.49568621977454025E-01 -2.50081107831866101E-01
 -2.50555510309854568E-01 -2.50990857588262395E-01 -2.51386168958316170E-01
 -2.51740455085282255E-01 -2.52052718285358524E-01 -2.52321952818842843E-01
 -2.52547145195026246E-01 -2.52727274488291187E-01 -2.52861312674891037E-01
 -2.52948224985160730E-01 -2.52986970268077260E-01 -2.52976501368344597E-01
 -2.52915765527208014E-01 -2.52803704797499029E-01 -2.52639256471275830E-01
 -2.52421353522796932E-01 -2.52148925076711217E-01 -2.51820896889581425E-01
 -2.51436191843717738E-01 -2.50993730460880526E-01 -2.50492431440506202E-01
 -2.49931212210906029E-01 -2.49308989492337707E-01 -2.48624679885686123E-01
 -2.47877200482830573E-01 -2.47065469489927803E-01 -2.46188406862970194E-01
 -2.45244934974476914E-01 -2.44233979297631715E-01 -2.43154469102897508E-01
 -2.42005338169880679E-01 -2.40785525532966005E-01 -2.39493976240429951E-01
 -2.38129642124539964E-01 -2.36691482593479885E-01 -2.35178465454699032E-01
 -2.33589567749235311E-01 -2.31923776595021808E-01 -2.30180090060831566E-01
 -2.28357518064731480E-01 -2.26455083281865671E-01 -2.24471822060794662E-01
 -2.22406785378192973E-01 -2.20259039808610196E-01 -2.18027668501185573E-01
 -2.15711772169445648E-01 -2.13310470120548740E-01 -2.10822901291317172E-01
 -2.08248225287020888E-01 -2.05585623443539062E-01 -2.02834299920621158E-01
 -1.99993482796480188E-01 -1.97062425160811378E-01 -1.94040406243205232E-01
 -1.90926732557311435E-01 -1.87720739041697920E-01 -1.84421790199358171E-01
 -1.81029281278740239E-01 -1.77542639453580009E-01 -1.73961324992691707E-01
 -1.70284832438079681E-01 -1.66512691816159325E-01 -1.62644469835479921E-01
 -1.58679771065900199E-01 -1.54618239141683600E-01 -1.50459557976295455E-01
 -1.46203452955168789E-01 -1.41849692105616876E-01 -1.37398087302311095E-01
 -1.32848495458066151E-01 -1.28200819683485623E-01 -1.23455010432721307E-01
 -1.18611066678692534E-01 -1.13669037053648600E-01 -1.08629020947882071E-01
 -1.03491169615962234E-01 -9.82556872872266812E-02 -9.29228322310397953E-02
 -8.74929177753582532E-02 -8.19663133540939337E-02 -7.63434455265277895E-02
 -7.06247989448124253E-02 -6.48109172893109736E-02 -5.89024042347781329E-02
 -5.28999243666867236E-02 -4.68042040401572892E-02 -4.06160322421206185E-02
 -3.43362614617447465E-02 -2.79658085060181145E-02 -2.15056552615107179E-02
 -1.49568494972241867E-02 -8.32050564404616770E-03 -1.59780552175505094E-03
  5.21000096032359864E-03  1.21015950496898231E-02  1.90755884407569389E-02
  2.61305226158676830E-02  3.32648681640914864E-02  4.04770240726867875E-02
  4.77653170666065899E-02  5.51280009940645979E-02  6.25632561500014256E-02
  7.00691886177266521E-02  7.76438296641189379E-02  8.52851351590815099E-02
  9.29909849389060766E-02  1.00759182228647132E-01  1.08587453135730552E-01
  1.16473446135901132E-01  1.24414731562518061E-01  1.32408801186964242E-01
  1.40453067894354883E-01  1.48544865347865679E-01  1.56681447750691483E-01
  1.64859989757443370E-01  1.73077586521124649E-01  1.81331253833755451E-01
  1.89617928530201485E-01  1.97934469234051280E-01  2.06277657448243806E-01
  2.14644199148898762E-01  2.23030727149326369E-01  2.31433804482000710E-01
  2.39849929001241968E-01  2.48275539747986940E-01  2.56707025652611109E-01
  2.65140737178148789E-01  2.73573001563751361E-01  2.82000142619273864E-01
  2.90418505891820666E-01  2.98824489623357725E-01  3.07214581683007859E-01
  3.15585401987700687E-01  3.23933748572640290E-01  3.32256643370374694E-01
  3.40551372200753988E-01  3.48815510923799310E-01  3.57046927380764767E-01
  3.65243748245188404E-01  3.73404282178239566E-01  3.81526895432307112E-01
  3.89609845475372585E-01  3.97651090278725694E-01  4.05648101025718799E-01
  4.13597711437959981E-01  4.21496033863324071E-01  4.29338457204727464E-01
  4.37119723649483094E-01  4.44834064453803801E-01  4.52475364447262385E-01
  4.60037325154292576E-01  4.67513604608777444E-01  4.74897921847281024E-01
  4.82184124324594066E-01  4.89366223292565683E-01  4.96438404838143610E-01
  5.03395024565460814E-01  5.10230593375583852E-01  5.16939759506555130E-01
  5.23517290067254670E-01  5.29958054237145371E-01  5.36257009247932848E-01
  5.42409189406039882E-01  5.48409698002416901E-01  5.54253702033171036E-01
  5.59936429406156622E-01  5.65453168262688988E-01  5.70799268115417147E-01
  5.75970142608522306E-01  5.80961273649123311E-01  5.85768216661483043E-01
  5.90386606816944659E-01  5.94812166083375393E-01  5.99040710921574404E-01
  6.03068160463524516E-01  6.06890545070803089E-01  6.10504015140153289E-01
  6.13904850027681137E-01  6.17089466998652303E-01  6.20054430119766242E-01
  6.22796459001440317E-01  6.25312437334025528E-01  6.27599421168937743E-01
  6.29654646884856395E-01  6.31475538804030179E-01  6.33059716471646938E-01
  6.34405001547684866E-01  6.35509424274122381E-01  6.36371229570369845E-01
  6.36988882756089225E-01  6.37361074847471176E-01  6.37486727421353150E-01
  6.37364997179840964E-01  6.36995280122966356E-01  6.36377215290042986E-01
  6.35510688158517190E-01  6.34395833781281726E-01  6.33033039522499674E-01
  6.31422947369870480E-01  6.29566456047226275E-01  6.27464722816279852E-01
  6.25119164863702448E-01  6.22531460330080111E-01  6.19703549207134996E-01
  6.16637633835131482E-01  6.13336178944382082E-01  6.09801911478189185E-01
  6.06037820173328634E-01  6.02047154656196737E-01  5.97833424044340145E-01
  5.93400395415924709E-01  5.88752091801378663E-01  5.83892789562479253E-01
  5.78827015320484861E-01  5.73559542597544159E-01  5.68095387743760449E-01
  5.62439805077246890E-01  5.56598281638331915E-01  5.50576531288871074E-01
  5.44380487880237407E-01  5.38016297547625477E-01  5.31490310540669419E-01
  5.24809072042478730E-01  5.17979311873597581E-01  5.11007933458887287E-01
  5.03902002071638822E-01  4.96668731940354768E-01  4.89315472255865525E-01
  4.81849692729955537E-01  4.74278968260804568E-01  4.66610962597195644E-01
  4.58853411359604113E-01  4.51014104865887722E-01  4.43100870264566349E-01
  4.35121553076907197E-01  4.27083998901220563E-01  4.18996035143400836E-01
  4.10865452580363999E-01  4.02699987049645991E-01  3.94507302025793261E-01
  3.86294971545786237E-01  3.78070463554814717E-01  3.69841124269129851E-01
  3.61614163718125603E-01  3.53396642056431620E-01  3.45195456801281719E-01
  3.37017331702342327E-01  3.28868806771812516E-01  3.20756229359027645E-01
  3.12685746558017952E-01  3.04663299245314656E-01  2.96694617173328568E-01
  2.88785215129098494E-01  2.80940390558074571E-01  2.73165222359566806E-01
  2.65464570548906875E-01  2.57843076833267848E-01  2.50305166335707208E-01
  2.42855049945279428E-01  2.35496727197889860E-01  2.28233989794913800E-01
  2.21070425626739814E-01  2.14009422965475066E-01  2.07054174785868184E-01
  2.00207683287676907E-01  1.93472764322198537E-01  1.86852051612531628E-01
  1.80348000761824695E-01  1.73962893000289359E-01  1.67698838500025149E-01
  1.61557779259734052E-01  1.55541491564924000E-01  1.49651587962326305E-01
  1.43889518758514912E-01  1.38256573094618002E-01  1.32753879589773832E-01
  1.27382406617357474E-01  1.22142962314908288E-01  1.17036194366599081E-01
  1.12062589600330650E-01  1.07222473557244319E-01  1.02516010147079700E-01
  9.79432013525827760E-02  9.35038871399961891E-02  8.91977457184641859E-02
  8.50242941813660058E-02  8.09828894707369795E-02  7.70727298778574044E-02
  7.32928571593671890E-02  6.96421591273574392E-02  6.61193727735200631E-02
  6.27230880702583510E-02  5.94517524322204990E-02  5.63036755750836518E-02
  5.32770349837917850E-02  5.03698820245239154E-02  4.75801484898910679E-02
  4.49056534525259302E-02  4.23441106286914157E-02  3.98931362121775837E-02
  3.75502567794616035E-02  3.53129174397172688E-02  3.31784903035496695E-02
  3.11442830879971044E-02  2.92075475452832842E-02  2.73654880283312335E-02
  2.56152701718969610E-02  2.39540292936743261E-02  2.23788785793248568E-02
  2.08869172451211227E-02  1.94752385752200823E-02  1.81409374021582609E-02
  1.68811174032350714E-02  1.56928982464341824E-02  1.45734222956251901E-02
  1.35198607762397859E-02  1.25294197271901223E-02  1.15993456999006640E-02
  1.07269307827708594E-02  9.90951725177592439E-03  9.14450196950974438E-03
  8.42934037144317007E-03  7.76154980058561469E-03  7.13871258241150809E-03
  6.55847884156582784E-03  6.01856874554496362E-03  5.51677431649381933E-03
  5.05096102032122872E-03  4.61906906720516153E-03  4.21911413520331333E-03
  3.84918786931970304E-03  3.50745819525061448E-03  3.19216926271482116E-03
  2.90164100446115274E-03  2.63426856442984005E-03  2.38852157424671767E-03
  2.16294303922435777E-03  1.95614806230098252E-03  1.76682248665888391E-03
  1.59372136993805045E-03  1.43566718671000342E-03  1.29154799528903748E-03
  1.16031556705252720E-03  1.04098332703255348E-03  9.32624201808316322E-04
  8.34368480081532841E-04  7.45401651716289578E-04  6.64962107111423850E-04
  5.92338867337436660E-04  5.26869356545752354E-04  4.67937139032486129E-04
                              </PP_AEWFC.2>
 <PP_AEWFC.3 type="real" size="   888" l="1" columns="3" label= "2P">
  9.33777074305955647E-08  9.55969009570733270E-08  9.78698209714600336E-08
  1.00197789587020048E-07  1.02582161753436098E-07  1.05024326392109464E-07
  1.07525706924111184E-07  1.10087762165862719E-07  1.12711987500493587E-07
  1.15399915461008664E-07  1.18153116767877477E-07  1.20973201483544053E-07
  1.23861819669706288E-07  1.26820662616471994E-07  1.29851463901714431E-07
  1.32956000206176650E-07  1.36136092713625905E-07  1.39393608026137099E-07
  1.42730459281519611E-07  1.46148607551043767E-07  1.49650062735192788E-07
  1.53236885037532232E-07  1.56911186137551673E-07  1.60675130393081676E-07
  1.64530936397112616E-07  1.68480878053069148E-07  1.72527286217904201E-07
  1.76672549978952414E-07  1.80919118144769854E-07  1.85269500841819701E-07
  1.89726270867011901E-07  1.94292065506336048E-07  1.98969587901469874E-07
  2.03761608935878183E-07  2.08670968755083411E-07  2.13700578632969107E-07
  2.18853422694799372E-07  2.24132559760969716E-07  2.29541125258882737E-07
  2.35082333080268446E-07  2.40759477650096042E-07  2.46575935838331166E-07
  2.52535169158028034E-07  2.58640725764680885E-07  2.64896242765157971E-07
  2.71305448329414201E-07  2.77872164099021011E-07  2.84600307431750053E-07
  2.91493893900967994E-07  2.98557039693445069E-07  3.05793964190664701E-07
  3.13208992540818182E-07  3.20806558314607340E-07  3.28591206268352254E-07
  3.36567595076396350E-07  3.44740500286725380E-07  3.53114817156709586E-07
  3.61695563771016625E-07  3.70487884041365467E-07  3.79497050931544094E-07
  3.88728469687029237E-07  3.98187681136925946E-07  4.07880365166841586E-07
  4.17812344142762890E-07  4.27989586558456224E-07  4.38418210684472286E-07
  4.49104488321048667E-07  4.60054848710876693E-07  4.71275882446131419E-07
  4.82774345557432660E-07  4.94557163686968848E-07  5.06631436318994036E-07
  5.19004441190506225E-07  5.31683638767489005E-07  5.44676676821420514E-07
  5.57991395172896379E-07  5.71635830513233584E-07  5.85618221342645981E-07
  5.99947013070345067E-07  6.14630863217830245E-07  6.29678646740400945E-07
  6.45099461509832231E-07  6.60902633932405733E-07  6.77097724683205285E-07
  6.93694534602483732E-07  7.10703110750639523E-07  7.28133752597996897E-07
  7.45997018369381346E-07  7.64303731557673380E-07  7.83064987605990039E-07
  8.02292160744333557E-07  8.21996911000895678E-07  8.42191191394092645E-07
  8.62887255308365800E-07  8.84097664050325541E-07  9.05835294591832183E-07
  9.28113347512120867E-07  9.50945355139695175E-07  9.74345189900479090E-07
  9.98327072872496226E-07  1.02290558255468493E-06  1.04809566385826673E-06
  1.07391263732399179E-06  1.10037220857095703E-06  1.12749047798352646E-06
  1.15528395064017690E-06  1.18376954649155658E-06  1.21296461079511493E-06
  1.24288692481182835E-06  1.27355471677155535E-06  1.30498667311375127E-06
  1.33720195001049491E-06  1.37022018517894088E-06  1.40406150999028724E-06
  1.43874656188255021E-06  1.47429649708521248E-06  1.51073300366332417E-06
  1.54807831488901884E-06  1.58635522294865546E-06  1.62558709299400685E-06
  1.66579787754604575E-06  1.70701213126016319E-06  1.74925502606186521E-06
  1.79255236666225800E-06  1.83693060646273473E-06  1.88241686385859224E-06
  1.92903893895165473E-06  1.97682533068198567E-06  2.02580525438924123E-06
  2.07600865981441146E-06  2.12746624955282731E-06  2.18020949796984419E-06
  2.23427067059069415E-06  2.28968284397631939E-06  2.34647992609732634E-06
  2.40469667721853042E-06  2.46436873130675112E-06  2.52553261797501735E-06
  2.58822578497645237E-06  2.65248662126175613E-06  2.71835448061396054E-06
  2.78586970587502653E-06  2.85507365377920850E-06  2.92600872040804658E-06
  2.99871836728264262E-06  3.07324714810900297E-06  3.14964073619278115E-06
  3.22794595254042595E-06  3.30821079466282183E-06  3.39048446609956000E-06
  3.47481740668188397E-06  3.56126132355246717E-06  3.64986922296114686E-06
  3.74069544285618664E-06  3.83379568628907398E-06  3.92922705565469379E-06
  4.02704808778734359E-06  4.12731878993436430E-06  4.23010067662885830E-06
  4.33545680748178636E-06  4.44345182591891211E-06  4.55415199888563403E-06
  4.66762525754410732E-06  4.78394123898404978E-06  4.90317132897551777E-06
  5.02538870579004901E-06  5.15066838511508686E-06  5.27908726608674312E-06
  5.41072417847248595E-06  5.54565993103242752E-06  5.68397736108322063E-06
  5.82576138529838534E-06  5.97109905177799165E-06  6.12007959341261352E-06
  6.27279448257708820E-06  6.42933748719061686E-06  6.58980472816906798E-06
  6.75429473830889771E-06  6.92290852264081730E-06  7.09574962028036335E-06
  7.27292416782164606E-06  7.45454096430895473E-06  7.64071153782045918E-06
  7.83155021371434210E-06  8.02717418456655868E-06  8.22770358185023408E-06
  8.43326154939767135E-06  8.64397431868387743E-06  8.85997128598710742E-06
  9.08138509145863977E-06  9.30835170016348352E-06  9.54101048512721209E-06
  9.77950431244856123E-06  1.00239796285220623E-05  1.02745865494250836E-05
  1.05314789525234305E-05  1.07948145703461371E-05  1.10647550867909529E-05
  1.13414662357107261E-05  1.16251179019464893E-05  1.19158842248599765E-05
  1.22139437044331017E-05  1.25194793099924460E-05  1.28326785916260759E-05
  1.31537337943575482E-05  1.34828419751430294E-05  1.38202051227650444E-05
  1.41660302806857038E-05  1.45205296729430960E-05  1.48839208331511255E-05
  1.52564267366931734E-05  1.56382759361748003E-05  1.60297027002228883E-05
  1.64309471557115243E-05  1.68422554334923228E-05  1.72638798177254227E-05
  1.76960788988862660E-05  1.81391177305467134E-05  1.85932679900205046E-05
  1.90588081429605231E-05  1.95360236120145558E-05  2.00252069496291175E-05
  2.05266580151037998E-05  2.10406841560051454E-05  2.15676003940364304E-05
  2.21077296154766513E-05  2.26614027663012495E-05  2.32289590520914914E-05
  2.38107461428516540E-05  2.44071203828559684E-05  2.50184470056401343E-05
  2.56451003542637505E-05  2.62874641069749657E-05  2.69459315084025856E-05
  2.76209056064080534E-05  2.83127994947379227E-05  2.90220365616148240E-05
  2.97490507444060925E-05  3.04942867905189349E-05  3.12582005246726837E-05
  3.20412591227001785E-05  3.28439413920304272E-05  3.36667380590182993E-05
  3.45101520632830672E-05  3.53746988592238044E-05  3.62609067248793377E-05
  3.71693170783127597E-05  3.81004848016979771E-05  3.90549785732933501E-05
  4.00333812074868902E-05  4.10362900031067252E-05  4.20643171001946765E-05
  4.31180898454423749E-05  4.41982511664970102E-05  4.53054599553440697E-05
  4.64403914609838229E-05  4.76037376916224194E-05  4.87962078266010875E-05
  5.00185286382947748E-05  5.12714449242145001E-05  5.25557199495528017E-05
  5.38721359004208761E-05  5.52214943480270780E-05  5.66046167240554190E-05
  5.80223448075058385E-05  5.94755412232659744E-05  6.09650899526886726E-05
  6.24918968564558224E-05  6.40568902100174342E-05  6.56610212518989836E-05
  6.73052647451762281E-05  6.89906195524266433E-05  7.07181092244685636E-05
  7.24887826032110917E-05  7.43037144389409061E-05  7.61640060223805495E-05
  7.80707858318626519E-05  8.00252101959671657E-05  8.20284639719813806E-05
  8.40817612405467913E-05  8.61863460168653248E-05  8.83434929788481775E-05
  9.05545082125946076E-05  9.28207299756003072E-05  9.51435294781010190E-05
  9.75243116829668539E-05  9.99645161245718398E-05  1.02465617747071110E-04
  1.05029127762529045E-04  1.07656594529350854E-04  1.10349604451476688E-04
  1.13109782898813369E-04  1.15938795149380625E-04  1.18838347353667168E-04
  1.21810187521695940E-04  1.24856106533311265E-04  1.27977939172210743E-04
  1.31177565184256690E-04  1.34456910360608893E-04  1.37817947646240706E-04
  1.41262698274396899E-04  1.44793232927583249E-04  1.48411672925668597E-04
  1.52120191441710466E-04  1.55921014746115191E-04  1.59816423479760416E-04
  1.63808753956723620E-04  1.67900399497265335E-04  1.72093811791738059E-04
  1.76391502296096534E-04  1.80796043659704861E-04  1.85310071186147878E-04
  1.89936284327764274E-04  1.94677448214638886E-04  1.99536395218806217E-04
  2.04516026554418866E-04  2.09619313914674176E-04  2.14849301146276944E-04
  2.20209105962260795E-04  2.25701921693981797E-04  2.31331019083130758E-04
  2.37099748114615857E-04  2.43011539891189245E-04  2.49069908550705952E-04
  2.55278453226915692E-04  2.61640860054714725E-04  2.68160904220787473E-04
  2.74842452060604847E-04  2.81689463202735235E-04  2.88705992761476645E-04
  2.95896193578799123E-04  3.03264318516638658E-04  3.10814722800575600E-04
  3.18551866415962446E-04  3.26480316557584702E-04  3.34604750133946126E-04
  3.42929956327307067E-04  3.51460839210601943E-04  3.60202420422394603E-04
  3.69159841901049344E-04  3.78338368679310695E-04  3.87743391740507184E-04
  3.97380430937612059E-04  4.07255137976413745E-04  4.17373299464074649E-04
  4.27740840024366765E-04  4.38363825480904163E-04  4.49248466109710364E-04
  4.60401119962450711E-04  4.71828296261737402E-04  4.83536658869882657E-04
  4.95533029832529175E-04  5.07824392998590195E-04  5.20417897717952290E-04
  5.33320862618434253E-04  5.46540779463497634E-04  5.60085317092217380E-04
  5.73962325443044493E-04  5.88179839662949285E-04  6.02746084303517975E-04
  6.17669477605596183E-04  6.32958635874117446E-04  6.48622377944749998E-04
  6.64669729744056851E-04  6.81109928944764590E-04  6.97952429717913219E-04
  7.15206907583600202E-04  7.32883264362059299E-04  7.50991633226821137E-04
  7.69542383861764002E-04  7.88546127723864683E-04  8.08013723413340411E-04
  8.27956282153128362E-04  8.48385173379522873E-04  8.69312030445857438E-04
  8.90748756441078955E-04  9.12707530125198528E-04  9.35200811983423171E-04
  9.58241350400824868E-04  9.81842187959666842E-04  1.00601666786124437E-03
  1.03077844047424496E-03  1.05614147001165093E-03  1.08212004133810785E-03
  1.10872876690957232E-03  1.13598259384748920E-03  1.16389681114947722E-03
  1.19248705703849339E-03  1.22176932645266605E-03  1.25175997867761125E-03
  1.28247574512307450E-03  1.31393373724634404E-03  1.34615145462429662E-03
  1.37914679317616552E-03  1.41293805353927162E-03  1.44754394959908700E-03
  1.48298361717600583E-03  1.51927662287101948E-03  1.55644297307213969E-03
  1.59450312312385566E-03  1.63347798666128841E-03  1.67338894511046628E-03
  1.71425785735755329E-03  1.75610706958865517E-03  1.79895942530230264E-03
  1.84283827549664141E-03  1.88776748903183135E-03  1.93377146317078247E-03
  1.98087513429981606E-03  2.02910398883108254E-03  2.07848407428891336E-03
  2.12904201057981810E-03  2.18080500144932814E-03  2.23380084612724095E-03
  2.28805795116287201E-03  2.34360534245231815E-03  2.40047267745661669E-03
  2.45869025761419292E-03  2.51828904094889439E-03  2.57930065487505010E-03
  2.64175740920104957E-03  2.70569230932927920E-03  2.77113906965647302E-03
  2.83813212717505536E-03  2.90670665527696355E-03  2.97689857775990628E-03
  3.04874458303361741E-03  3.12228213853070870E-03  3.19754950532158367E-03
  3.27458575293540196E-03  3.35343077438328202E-03  3.43412530138386676E-03
  3.51671091979453582E-03  3.60123008524735125E-03  3.68772613899103928E-03
  3.77624332393074408E-03  3.86682680087099872E-03  3.95952266496115389E-03
  4.05437796234411982E-03  4.15144070700330589E-03  4.25075989780235308E-03
  4.35238553572405828E-03  4.45636864130503386E-03  4.56276127226733219E-03
  4.67161654133208936E-03  4.78298863422198239E-03  4.89693282785102872E-03
  5.01350550870169592E-03  5.13276419137815784E-03  5.25476753732838798E-03
  5.37957537374309566E-03  5.50724871262621082E-03  5.63784977003413401E-03
  5.77144198546056166E-03  5.90809004138052700E-03  6.04785988294714687E-03
  6.19081873784190113E-03  6.33703513624964739E-03  6.48657893096403829E-03
  6.63952131762435456E-03  6.79593485508150821E-03  6.95589348586942834E-03
  7.11947255676760680E-03  7.28674883946936643E-03  7.45780055134707270E-03
  7.63270737630037787E-03  7.81155048564988099E-03  7.99441255910245292E-03
  8.18137780577530768E-03  8.37253198527390836E-03  8.56796242876530466E-03
  8.76775806007847221E-03  8.97200941681979870E-03  9.18080867150329778E-03
  9.39424965262403329E-03  9.61242786570070881E-03  9.83544051428461748E-03
  1.00633865209336128E-02  1.02963665480729216E-02  1.05344830187550365E-02
  1.07778401373295838E-02  1.10265439100193999E-02  1.12807021653196348E-02
  1.15404245742142860E-02  1.18058226702379213E-02  1.20770098693751323E-02
  1.23541014897100964E-02  1.26372147708001814E-02  1.29264688928206542E-02
  1.32219849954693363E-02  1.35238861965364023E-02  1.38322976100939670E-02
  1.41473463643720550E-02  1.44691616193076515E-02  1.47978745836596544E-02
  1.51336185316280659E-02  1.54765288190644688E-02  1.58267428992587104E-02
  1.61844003381759888E-02  1.65496428290715855E-02  1.69226142065904694E-02
  1.73034604603369557E-02  1.76923297477593472E-02  1.80893724062757520E-02
  1.84947409647666129E-02  1.89085901544216277E-02  1.93310769187431016E-02
  1.97623604226451408E-02  2.02026020607900848E-02  2.06519654651536461E-02
  2.11106165115594463E-02  2.15787233251605211E-02  2.20564562850145730E-02
  2.25439880277520134E-02  2.30414934499944893E-02  2.35491497095705223E-02
  2.40671362256691009E-02  2.45956346779345400E-02  2.51348290040606312E-02
  2.56849053960352472E-02  2.62460522951537302E-02  2.68184603858017193E-02
  2.74023225874548866E-02  2.79978340451890149E-02  2.86051921187786135E-02
  2.92245963703592279E-02  2.98562485500062508E-02  3.05003525796859361E-02
  3.11571145356124811E-02  3.18267426289046140E-02  3.25094471838682716E-02
  3.32054406145032149E-02  3.39149373992390091E-02  3.46381540536263161E-02
  3.53753091004025896E-02  3.61266230376144221E-02  3.68923183047979372E-02
  3.76726192466778770E-02  3.84677520740565951E-02  3.92779448225639774E-02
  4.01034273092924776E-02  4.09444310864251759E-02  4.18011893919527505E-02
  4.26739370980342494E-02  4.35629106570320848E-02  4.44683480439684101E-02
  4.53904886960463869E-02  4.63295734495968239E-02  4.72858444743887926E-02
  4.82595452038340339E-02  4.92509202622688907E-02  5.02602153894832551E-02
  5.12876773621097279E-02  5.23335539105749328E-02  5.33980936330962913E-02
  5.44815459068156011E-02  5.55841607950694275E-02  5.67061889501704192E-02
  5.78478815131356974E-02  5.90094900104676523E-02  6.01912662462066178E-02
  6.13934621897218313E-02  6.26163298603278906E-02  6.38601212087802766E-02
  6.51250879932205595E-02  6.64114816512896278E-02  6.77195531690178848E-02
  6.90495529461226387E-02  7.04017306553307437E-02  7.17763350982979359E-02
  7.31736140584339639E-02  7.45938141492426959E-02  7.60371806569421910E-02
  7.75039573799755771E-02  7.89943864656778710E-02  8.05087082413310784E-02
  8.20471610403956803E-02  8.36099810258861265E-02  8.51974020110199681E-02
  8.68096552733213234E-02  8.84469693652021882E-02  9.01095699221104024E-02
  9.17976794675023910E-02  9.35115172112484794E-02  9.52512988457500515E-02
  9.70172363403639521E-02  9.88095377314987117E-02  1.00628406907406820E-01
  1.02474043391624289E-01  1.04346642125529465E-01  1.06246393245195303E-01
  1.08173481855152936E-01  1.10128087801655491E-01  1.12110385445257005E-01
  1.14120543427003340E-01  1.16158724433940694E-01  1.18225084965175878E-01
  1.20319775096033324E-01  1.22442938236902193E-01  1.24594710893019198E-01
  1.26775222425847545E-01  1.28984594810162168E-01  1.31222942388326352E-01
  1.33490371626204946E-01  1.35786980870642171E-01  1.38112860100164603E-01
  1.40468090675470697E-01  1.42852745091618133E-01  1.45266886729069011E-01
  1.47710569597017088E-01  1.50183838077283943E-01  1.52686726669114231E-01
  1.55219259727210596E-01  1.57781451192589350E-01  1.60373304322207089E-01
  1.62994811416501573E-01  1.65645953533210238E-01  1.68326700194178919E-01
  1.71037009087171787E-01  1.73776825758535897E-01  1.76546083286666655E-01
  1.79344701945975349E-01  1.82172588860793211E-01  1.85029637639430145E-01
  1.87915727986382564E-01  1.90830725299778736E-01  1.93774480252368070E-01
  1.96746828342306890E-01  1.99747589421344796E-01  2.02776567203145935E-01
  2.05833548747484413E-01  2.08918303909969905E-01  2.12030584769554498E-01
  2.15170125034564619E-01  2.18336639418716061E-01  2.21529822987679897E-01
  2.24749350486557364E-01  2.27994875649338569E-01  2.31266030479788942E-01
  2.34562424515768392E-01  2.37883644083621060E-01  2.41229251542232737E-01
  2.44598784511239703E-01  2.47991755100123334E-01  2.51407649143519207E-01
  2.54845925438532239E-01  2.58306014990474175E-01  2.61787320282961089E-01
  2.65289214580719135E-01  2.68811041262874861E-01  2.72352113212185443E-01
  2.75911712284841071E-01  2.79489088885314041E-01  2.83083461676239156E-01
  2.86694017493732412E-01  2.90319911548983567E-01  2.93960268010983350E-01
  2.97614181117525356E-01  3.01280717023006017E-01  3.04958916645999556E-01
  3.08647799822741264E-01  3.12346371202979867E-01  3.16053628415791765E-01
  3.19768573100060793E-01  3.23490225422420230E-01  3.27217642803344255E-01
  3.30949943482335640E-01  3.34686335180157002E-01  3.38426148703352525E-01
  3.42168875616069845E-01  3.45914207832085763E-01  3.49662075078801315E-01
  3.53412674646784664E-01  3.57166485730126659E-01  3.60924258947167842E-01
  3.64686971720410147E-01  3.68455742809559006E-01  3.72231704381080886E-01
  3.76015839206424451E-01  3.79808801282740083E-01  3.83610746574497175E-01
  3.87421204171307876E-01  3.91239013654257339E-01  3.95062339170011378E-01
  3.98888753972063803E-01  4.02715374628401512E-01  4.06539015785134350E-01
  4.10356338127890574E-01  4.14163970752668809E-01  4.17958598675814086E-01
  4.21737015445871000E-01  4.25496146602886871E-01  4.29233051694609957E-01
  4.32944912439703067E-01  4.36629013785859499E-01  4.40282722416173389E-01
  4.43903465487663351E-01  4.47488711368104031E-01  4.51035953194482420E-01
  4.54542695371134675E-01  4.58006442803880531E-01  4.61424692701062455E-01
  4.64794928606931224E-01  4.68114616320143451E-01  4.71381201411267381E-01
  4.74592108142975033E-01  4.77744739577275368E-01  4.80836478654090071E-01
  4.83864690109499118E-01  4.86826723112462334E-01  4.89719914487499242E-01
  4.92541592374892812E-01  4.95289080267777404E-01  4.97959701340386529E-01
  5.00550782955875517E-01  5.03059661278399406E-01  5.05483685963039053E-01
  5.07820224870340731E-01  5.10066668717732097E-01  5.12220435672552599E-01
  5.14278975874863375E-01  5.16239775854415828E-01  5.18100362808571413E-01
  5.19858308778821443E-01  5.21511234721716233E-01  5.23056814447299900E-01
  5.24492778448243269E-01  5.25816917644355897E-01  5.27027087041593179E-01
  5.28121209301084416E-01  5.29097278255349579E-01  5.29953362377852844E-01
  5.30687608209406858E-01  5.31298243761324951E-01  5.31783581909324954E-01
  5.32142023777011808E-01  5.32372062131500901E-01  5.32472284800264650E-01
  5.32441378102422314E-01  5.32278130299001839E-01  5.31981435097035216E-01
  5.31550295179503585E-01  5.30983825744588578E-01  5.30281258085903540E-01
  5.29441943210515409E-01  5.28465355444550533E-01  5.27351096005616027E-01
  5.26098896597334997E-01  5.24708622945222136E-01  5.23180278217989403E-01
  5.21514006337507996E-01  5.19710095187370102E-01  5.17768979590714440E-01
  5.15691243992063564E-01  5.13477624896939489E-01  5.11129012962981744E-01
  5.08646454618211674E-01  5.06031153161223046E-01  5.03284469408100787E-01
  5.00407921684811186E-01  4.97403185070243836E-01  4.94272089950281379E-01
  4.91016619851406155E-01  4.87638908377745151E-01  4.84141235211189902E-01
  4.80526021375658807E-01  4.76795823598324175E-01  4.72953327701628901E-01
  4.69001341148287954E-01  4.64942784935762632E-01  4.60780684658852802E-01
  4.56518160784429750E-01  4.52158418500723858E-01  4.47704737137764375E-01
  4.43160459109388283E-01  4.38528978551176341E-01  4.33813730098374206E-01
  4.29018177609171769E-01  4.24145802914746739E-01  4.19200094975852366E-01
  4.14184539620176095E-01  4.09102609701376463E-01  4.03957755815519570E-01
  3.98753398061879982E-01  3.93492918645591883E-01  3.88179655299138449E-01
  3.82816895750122066E-01  3.77407873491099444E-01  3.71955764533081545E-01
  3.66463685174182485E-01  3.60934691092676285E-01  3.55371777606326655E-01
  3.49777880901251392E-01  3.44155880267078829E-01  3.38508601527922726E-01
  3.32838821286568110E-01  3.27149271884321080E-01  3.21442647139818904E-01
  3.15721608746763860E-01  3.09988793015378850E-01  3.04246817859482876E-01
  2.98498290054945103E-01  2.92745812449679843E-01  2.86991990935722585E-01
  2.81239441098077803E-01  2.75490794448056131E-01  2.69748703960253189E-01
  2.64015848796602337E-01  2.58294938185789746E-01  2.52588714306261231E-01
  2.46899954041138264E-01  2.41231469565421408E-01  2.35586107802515043E-01
  2.29966748652162739E-01  2.24376301991356275E-01  2.18817703534888996E-01
  2.13293909632002426E-01  2.07807891008281703E-01  2.02362625546184532E-01
  1.96961090314154902E-01  1.91606252903582491E-01  1.86301062167255921E-01
  1.81048438532540185E-01  1.75851264106527988E-01  1.70712372601771689E-01
  1.65634539205832265E-01  1.60620470627938217E-01  1.55672795406574249E-01
  1.50794054515187959E-01  1.45986692386435662E-01  1.41253048552067467E-01
  1.36595349849523595E-01  1.32015703246016358E-01  1.27516089401283644E-01
  1.23098357011915877E-01  1.18764217877571007E-01  1.14515242726506122E-01
  1.10352857877766969E-01  1.06278342662847636E-01  1.02292827588498197E-01
  9.83972932561543029E-02  9.45925700144002041E-02  9.08793382762416030E-02
  8.72581294985305123E-02  8.37293277813480064E-02  8.02931720236954999E-02
  7.69497586193912675E-02  7.36990446717256248E-02  7.05408516073557923E-02
  6.74748691952371665E-02  6.45006599697564575E-02  6.16176639590424804E-02
  5.88252036281094043E-02  5.61224890992524997E-02  5.35086236353389602E-02
  5.09826091822082744E-02  4.85433520345270667E-02  4.61896686675168019E-02
  4.39202916449201453E-02  4.17338754268476581E-02  3.96290022477620504E-02
  3.76041880688710792E-02  3.56578883792514623E-02  3.37885038821434461E-02
  3.19943861908524377E-02  3.02738434849630436E-02  2.86251458602965435E-02
  2.70465306080019882E-02  2.55362074570435124E-02  2.40923635962027732E-02
  2.27131684106056629E-02  2.13967781504995659E-02  2.01413405158163070E-02
  1.89449988648533879E-02  1.78058962518410878E-02  1.67221793818707505E-02
  1.56920023687943354E-02  1.47135301181308582E-02  1.37849416128701611E-02
  1.29044331068986044E-02  1.20702209807205755E-02  1.12805443579339481E-02
  1.05336676365131825E-02  9.82788288112546038E-03  9.16151183527476667E-03
  8.53290782361493250E-03  7.94045757397160608E-03  7.38258279395768297E-03
                              </PP_AEWFC.3>
 <PP_AEWFC.4 type="real" size="   888" l="1" columns="3" label= "0P">
  2.27436700891071029E-06  2.32841942104712008E-06  2.38378043544765460E-06
  2.44048225457696282E-06  2.49855788069246996E-06  2.55804114348745917E-06
  2.61896671295951658E-06  2.68137012122578277E-06  2.74528779104566870E-06
  2.81075705003384500E-06  2.87781615593002402E-06  2.94650432471402007E-06
  3.01686174662321869E-06  3.08892961608555588E-06  3.16275015752130257E-06
  3.23836664520222892E-06  3.31582343734772468E-06  3.39516599842255321E-06
  3.47644092635444167E-06  3.55969598657329184E-06  3.64498013383524741E-06
  3.73234354811649184E-06  3.82183766318161691E-06  3.91351519587253377E-06
  4.00743018402308860E-06  4.10363801265468639E-06  4.20219545399221492E-06
  4.30316069856679304E-06  4.40659339152746577E-06  4.51255467152961773E-06
  4.62110720368174768E-06  4.73231522383748715E-06  4.84624457188591713E-06
  4.96296273768725669E-06  5.08253889810457163E-06  5.20504396245908778E-06
  5.33055061449832224E-06  5.45913335730382452E-06  5.59086855985776750E-06
  5.72583450228234350E-06  5.86411142623040826E-06  6.00578158145134590E-06
  6.15092927932778551E-06  6.29964094157512856E-06  6.45200515647801275E-06
  6.60811273032647414E-06  6.76805674607843870E-06  6.93193261803191368E-06
  7.09983815270101770E-06  7.27187360721977569E-06  7.44814175221384929E-06
  7.62874793444634225E-06  7.81380014150458518E-06  8.00340906910015325E-06
  8.19768818762210749E-06  8.39675381412532972E-06  8.60072518140118302E-06
  8.80972451391859791E-06  9.02387710088935966E-06  9.24331137481844564E-06
  9.46815899016726522E-06  9.69855490377847937E-06  9.93463745946330772E-06
  1.01765484713968248E-05  1.04244333129561276E-05  1.06784410055985267E-05
  1.09387243102701996E-05  1.12054398227079647E-05  1.14787480686023490E-05
  1.17588136031910664E-05  1.20458051129026185E-05  1.23398955183977652E-05
  1.26412620819988877E-05  1.29500865167167234E-05  1.32665550977193650E-05
  1.35908587778710934E-05  1.39231933051709936E-05  1.42637593430308931E-05
  1.46127625944968616E-05  1.49704139289843645E-05  1.53369295118929519E-05
  1.57125309381461277E-05  1.60974453690280461E-05  1.64919056718522231E-05
  1.68961505635776024E-05  1.73104247582877419E-05  1.77349791179534592E-05
  1.81700708069658311E-05  1.86159634507848272E-05  1.90729272986950478E-05
  1.95412393903239242E-05  2.00211837264138809E-05  2.05130514439964744E-05
  2.10171409960423381E-05  2.15337583355037048E-05  2.20632171039102096E-05
  2.26058388248125730E-05  2.31619531020919368E-05  2.37318978232930099E-05
  2.43160193679874171E-05  2.49146728213527588E-05  2.55282221931722070E-05
  2.61570406423357023E-05  2.68015107069814245E-05  2.74620245404365696E-05
  2.81389841530505855E-05  2.88328016600984464E-05  2.95438995359329490E-05
  3.02727108745207687E-05  3.10196796565214203E-05  3.17852610230729289E-05
  3.25699215564536382E-05  3.33741395677933399E-05  3.41984053920064767E-05
  3.50432216901250075E-05  3.59091037592272822E-05  3.67965798501477536E-05
  3.77061914931611593E-05  3.86384938318414726E-05  3.95940559653004285E-05
  4.05734612990140894E-05  4.15773079044525637E-05  4.26062088877331182E-05
  4.36607927675236436E-05  4.47417038624254540E-05  4.58496026880726468E-05
  4.69851663641932462E-05  4.81490890318777523E-05  4.93420822813122055E-05
  5.05648755902372157E-05  5.18182167733982811E-05  5.31028724432650124E-05
  5.44196284822993199E-05  5.57692905270601265E-05  5.71526844644404660E-05
  5.85706569403404682E-05  6.00240758810846324E-05  6.15138310279039676E-05
  6.30408344848062404E-05  6.46060212801729611E-05  6.62103499424165340E-05
  6.78548030900523089E-05  6.95403880365489394E-05  7.12681374103190675E-05
  7.30391097902315561E-05  7.48543903570299832E-05  7.67150915610543248E-05
  7.86223538066814693E-05  8.05773461538745236E-05  8.25812670372843215E-05
  8.46353450033416422E-05  8.67408394657826127E-05  8.88990414800729204E-05
  9.11112745372077889E-05  9.33788953773260198E-05  9.57032948236703345E-05
  9.80858986373916796E-05  1.00528168393728957E-04  1.03031602380085832E-04
  1.05597736516499900E-04  1.08228145299123910E-04  1.10924442767280140E-04
  1.13688283494682143E-04  1.16521363605345625E-04  1.19425421814876271E-04
  1.22402240497778428E-04  1.25453646781389927E-04  1.28581513667055296E-04
  1.31787761179305178E-04  1.35074357543739869E-04  1.38443320394203277E-04
  1.41896718010070533E-04  1.45436670584448709E-04  1.49065351523901604E-04
  1.52784988780560975E-04  1.56597866217513345E-04  1.60506325008095507E-04
  1.64512765070056285E-04  1.68619646535511305E-04  1.72829491257357325E-04
  1.77144884353268008E-04  1.81568475788116974E-04  1.86102981995665178E-04
  1.90751187540732012E-04  1.95515946822567995E-04  2.00400185820642015E-04
  2.05406903883842087E-04  2.10539175564039772E-04  2.15800152495363953E-04
  2.21193065319975890E-04  2.26721225661840193E-04  2.32388028149355851E-04
  2.38196952488294164E-04  2.44151565586124390E-04  2.50255523729050371E-04
  2.56512574813076775E-04  2.62926560630337858E-04  2.69501419212185588E-04
  2.76241187230261988E-04  2.83150002457153538E-04  2.90232106287917021E-04
  2.97491846324116516E-04  3.04933679021787707E-04  3.12562172404967100E-04
  3.20382008846365829E-04  3.28397987916795211E-04  3.36615029305128055E-04
  3.45038175810335568E-04  3.53672596407625785E-04  3.62523589390162935E-04
  3.71596585588558300E-04  3.80897151669726524E-04  3.90430993517233856E-04
  4.00203959695089203E-04  4.10222044996879016E-04  4.20491394082577114E-04
  4.31018305204868132E-04  4.41809234027378298E-04  4.52870797537003147E-04
  4.64209778052471884E-04  4.75833127331729141E-04  4.87747970780328050E-04
  4.99961611763327760E-04  5.12481536023336247E-04  5.25315416207061702E-04
  5.38471116503120737E-04  5.51956697393840199E-04  5.65780420523662652E-04
  5.79950753687056208E-04  5.94476375938882595E-04  6.09366182830038509E-04
  6.24629291771432887E-04  6.40275047529495576E-04  6.56313027856271058E-04
  6.72753049257318169E-04  6.89605172900838214E-04  7.06879710671383279E-04
  7.24587231371546007E-04  7.42738567075241205E-04  7.61344819636248908E-04
  7.80417367355713387E-04  7.99967871812310555E-04  8.20008284859109066E-04
  8.40550855791063903E-04  8.61608138687228729E-04  8.83192999931777336E-04
  9.05318625918200308E-04  9.27998530941007821E-04  9.51246565279424499E-04
  9.75076923477582558E-04  9.99504152825921423E-04  1.02454316204858890E-03
  1.05020923020172799E-03  1.07651801578765097E-03  1.10348556608997369E-03
  1.13112832673497058E-03  1.15946315148452231E-03  1.18850731226609069E-03
  1.21827850944535411E-03  1.24879488234719131E-03  1.28007502003084687E-03
  1.31213797232531716E-03  1.34500326113102696E-03  1.37869089199408701E-03
  1.41322136595950260E-03  1.44861569170988283E-03  1.48489539799632531E-03
  1.52208254636829752E-03  1.56019974420953597E-03  1.59927015808708126E-03
  1.63931752742073810E-03  1.68036617848045717E-03  1.72244103871920830E-03
  1.76556765144919884E-03  1.80977219086935859E-03  1.85508147745222377E-03
  1.90152299369858988E-03  1.94912490026836679E-03  1.99791605249637809E-03
  2.04792601730194486E-03  2.09918509050131168E-03  2.15172431453221867E-03
  2.20557549660002844E-03  2.26077122725510966E-03  2.31734489941134904E-03
  2.37533072781583986E-03  2.43476376898010653E-03  2.49567994158332064E-03
  2.55811604735829484E-03  2.62210979247122673E-03  2.68769980940635183E-03
  2.75492567936700457E-03  2.82382795520470060E-03  2.89444818488823058E-03
  2.96682893552488794E-03  3.04101381794627187E-03  3.11704751187135342E-03
  3.19497579165975302E-03  3.27484555266840385E-03  3.35670483822518703E-03
  3.44060286723312176E-03  3.52659006241936917E-03  3.61471807924316135E-03
  3.70503983547743575E-03  3.79760954147900613E-03  3.89248273116246223E-03
  3.98971629369339071E-03  4.08936850591664052E-03  4.19149906553586450E-03
  4.29616912506072032E-03  4.40344132653852464E-03  4.51337983708754477E-03
  4.62605038524920020E-03  4.74152029817713223E-03  4.85985853968119285E-03
  4.98113574914472827E-03  5.10542428133420323E-03  5.23279824712005216E-03
  5.36333355512862674E-03  5.49710795434484468E-03  5.63420107768606519E-03
  5.77469448656768233E-03  5.91867171648158448E-03  6.06621832360887403E-03
  6.21742193248863654E-03  6.37237228476504949E-03  6.53116128903532406E-03
  6.69388307182172421E-03  6.86063402969077328E-03  7.03151288254385675E-03
  7.20662072810313459E-03  7.38606109761775001E-03  7.56994001281525303E-03
  7.75836604412381056E-03  7.95145037019131043E-03  8.14930683872754254E-03
  8.35205202869660109E-03  8.55980531388654542E-03  8.77268892788414523E-03
  8.99082803048296963E-03  9.21435077555339890E-03  9.44338838040371768E-03
  9.67807519666184952E-03  9.91854878270765489E-03  1.01649499776864816E-02
  1.04174229771346709E-02  1.06761154102486908E-02  1.09411784188297809E-02
  1.12127667379358382E-02  1.14910387782742214E-02  1.17761567103681561E-02
  1.20682865505308077E-02  1.23675982486811664E-02  1.26742657780361950E-02
  1.29884672267148206E-02  1.33103848912892019E-02  1.36402053723190756E-02
  1.39781196719055405E-02  1.43243232933017925E-02  1.46790163426180603E-02
  1.50424036326582654E-02  1.54146947889272912E-02  1.57961043578471322E-02
  1.61868519172217833E-02  1.65871621889887126E-02  1.69972651542981759E-02
  1.74173961709607229E-02  1.78477960933035341E-02  1.82887113944764784E-02
  1.87403942912500766E-02  1.92031028713474522E-02  1.96771012233498271E-02
  2.01626595692205625E-02  2.06600543994899383E-02  2.11695686111442946E-02
  2.16914916482622115E-02  2.22261196454431875E-02  2.27737555740706692E-02
  2.33347093914515469E-02  2.39092981928809359E-02  2.44978463666741149E-02
  2.51006857522115823E-02  2.57181558010426692E-02  2.63506037410913482E-02
  2.69983847440051460E-02  2.76618620956973656E-02  2.83414073701269524E-02
  2.90374006063596340E-02  2.97502304889590112E-02  3.04802945317473942E-02
  3.12279992649769703E-02  3.19937604259645444E-02  3.27780031532302479E-02
  3.35811621841852412E-02  3.44036820564165083E-02  3.52460173125976814E-02
  3.61086327090757372E-02  3.69920034281805074E-02  3.78966152942943474E-02
  3.88229649937300650E-02  3.97715602984498803E-02  4.07429202936535131E-02
  4.17375756092934272E-02  4.27560686555482142E-02  4.37989538622955282E-02
  4.48667979226235261E-02  4.59601800403857882E-02  4.70796921818616917E-02
  4.82259393315502202E-02  4.93995397521291429E-02  5.06011252486191498E-02
  5.18313414367373090E-02  5.30908480155002638E-02  5.43803190441002962E-02
  5.57004432230784122E-02  5.70519241798256652E-02  5.84354807583751731E-02
  5.98518473135450993E-02  6.13017740094456975E-02  6.27860271223659450E-02
  6.43053893480552280E-02  6.58606601133341074E-02  6.74526558921034053E-02
  6.90822105257438146E-02  7.07501755479162803E-02  7.24574205137383104E-02
  7.42048333332582244E-02  7.59933206093014596E-02  7.78238079796490650E-02
  7.96972404635630238E-02  8.16145828125423856E-02  8.35768198652800665E-02
  8.55849569068575233E-02  8.76400200321202083E-02  8.97430565132231739E-02
  9.18951351711241038E-02  9.40973467510997502E-02  9.63508043022236332E-02
  9.86566435607755809E-02  1.01016023337420241E-01  1.03430125907980938E-01
  1.05900157407895129E-01  1.08427348230215270E-01  1.11012953427121377E-01
  1.13658253114549287E-01  1.16364552880017694E-01  1.19133184193548028E-01
  1.21965504821602760E-01  1.24862899243716560E-01  1.27826779071574720E-01
  1.30858583470631035E-01  1.33959779584055194E-01  1.37131862958854850E-01
  1.40376357973558408E-01  1.43694818267656288E-01  1.47088827172547537E-01
  1.50559998143894536E-01  1.54109975194630627E-01  1.57740433328619034E-01
  1.61453078974854364E-01  1.65249650422021360E-01  1.69131918252739655E-01
  1.73101685777029279E-01  1.77160789465163337E-01  1.81311099379550117E-01
  1.85554519605164420E-01  1.89892988677516333E-01  1.94328480008551824E-01
  1.98863002310004616E-01  2.03498600013887782E-01  2.08237353688615567E-01
  2.13081380451233870E-01  2.18032834375267187E-01  2.23093906893931326E-01
  2.28266827196869942E-01  2.33553862620730079E-01  2.38957319033240939E-01
  2.44479541210482570E-01  2.50122913205306052E-01  2.55889858706867868E-01
  2.61782841391198784E-01  2.67804365262388100E-01  2.73956974982178414E-01
  2.80243256187482415E-01  2.86665835796057145E-01  2.93227382299778960E-01
  2.99930606043149695E-01  3.06778259486021221E-01  3.13773137451145212E-01
  3.20918077355832276E-01  3.28215959425122328E-01  3.35669706884944408E-01
  3.43282286136231851E-01  3.51056706909153859E-01  3.58996022394496905E-01
  3.67103329350225938E-01  3.75381768184558540E-01  3.83834523014583817E-01
  3.92464821696942356E-01  4.01275935828242558E-01  4.10271180716905437E-01
  4.19453915325365689E-01  4.28827542178371157E-01  4.38395507234921766E-01
  4.48161299725829410E-01  4.58128451955765126E-01  4.68300539064438359E-01
  4.78681178744608249E-01  4.89274030919139402E-01  5.00082797375909327E-01
  5.11111221353684697E-01  5.22363087077358568E-01  5.33842219244747951E-01
  5.45552482463764532E-01  5.57497780631020734E-01  5.69682056251655800E-01
  5.82109289702271493E-01  5.94783498435714986E-01  6.07708736116297721E-01
  6.20889091687417571E-01  6.34328688372766458E-01  6.48031682609600201E-01
  6.62002262899907823E-01  6.76244648584466312E-01  6.90763088539834147E-01
  7.05561859795950874E-01  7.20645266057746037E-01  7.36017636139207898E-01
  7.51683322308712487E-01  7.67646698541155970E-01  7.83912158659371028E-01
  8.00484114376285638E-01  8.17366993235696504E-01  8.34565236443069569E-01
  8.52083296570612769E-01  8.69925635149740084E-01  8.88096720148427332E-01
  9.06601023318410415E-01  9.25443017401884727E-01  9.44627173210291882E-01
  9.64157956572893160E-01  9.84039825131526658E-01  1.00427722498060557E+00
  1.02487458716197222E+00  1.04583632401209936E+00  1.06716682532917573E+00
  1.08887045437143160E+00  1.11095154369152627E+00  1.13341439080193185E+00
  1.15626325363321136E+00  1.17950234580880275E+00  1.20313583173632743E+00
  1.22716782150231785E+00  1.25160236553560944E+00  1.27644344906977047E+00
  1.30169498640240500E+00  1.32736081492324187E+00  1.35344468889140734E+00
  1.37995027299096851E+00  1.40688113566253437E+00  1.43424074216362385E+00
  1.46203244736353399E+00  1.49025948829338617E+00  1.51892497644750368E+00
  1.54803188977241457E+00  1.57758306437882090E+00  1.60758118598565680E+00
  1.63802878108175376E+00  1.66892820774143180E+00  1.70028164615000432E+00
  1.73209108884094687E+00  1.76435833060482183E+00  1.79708495803309964E+00
  1.83027233875424056E+00  1.86392161036262505E+00  1.89803366896557346E+00
  1.93260915736074690E+00  1.96764845288606516E+00  2.00315165493931824E+00
  2.03911857206498892E+00  2.07554870867651875E+00  2.11244125143498485E+00
  2.14979505525917203E+00  2.18760862887354079E+00  2.22588011999535418E+00
  2.26460730017029732E+00  2.30378754918242690E+00  2.34341783900547318E+00
  2.38349471739067331E+00  2.42401429109817679E+00  2.46497220863927913E+00
  2.50636364259037991E+00  2.54818327154116586E+00  2.59042526166765574E+00
  2.63308324777160241E+00  2.67615031393197711E+00  2.71961897379824613E+00
  2.76348115045548059E+00  2.80772815576261880E+00  2.85235066933003001E+00
  2.89733871715426083E+00  2.94268164974467350E+00  2.98836811977920958E+00
  3.03438605941364470E+00  3.08072265724616612E+00  3.12736433470057662E+00
  3.17429672201579871E+00  3.22150463390391018E+00  3.26897204480348735E+00
  3.31668206354079986E+00  3.36461690765098176E+00  3.41275787738714609E+00
  3.46108532920412060E+00  3.50957864871722824E+00  3.55821622333919585E+00
  3.60697541460127091E+00  3.65583252982280671E+00  3.70476279336659653E+00
  3.75374031758657445E+00  3.80273807338374725E+00  3.85172786008339907E+00
  3.90068027499978687E+00  3.94956468273979411E+00  3.99834918398065042E+00
  4.04700058371031357E+00  4.09548435925299081E+00  4.14376462811888935E+00
  4.19180411526242480E+00  4.23956412010456951E+00  4.28700448353098018E+00
  4.33408355482083785E+00  4.38075815818835590E+00  4.42698355951969091E+00
  4.47271343347352346E+00  4.51789983069913248E+00  4.56249314527486582E+00
  4.60644208293062007E+00  4.64969363024445670E+00  4.69219302439693475E+00
  4.73388372411954794E+00  4.77470738227835856E+00  4.81460382017743616E+00
  4.85351100331641483E+00  4.89136501954958725E+00  4.92810006003944689E+00
  4.96364840277967723E+00  4.99794039901507059E+00  5.03090446348660070E+00
  5.06246706894247822E+00  5.09255274447832385E+00  5.12108407891082340E+00
  5.14798173013730764E+00  5.17316444099247263E+00  5.19654906184898735E+00
  5.21805058222507245E+00  5.23758217318692143E+00  5.25505524168244609E+00
  5.27037949956056284E+00  5.28346305150034379E+00  5.29421250618811978E+00
  5.30253311438902664E+00  5.30832894142551126E+00  5.31150308197614240E+00
  5.31195792471627737E+00  5.30959547368911799E+00  5.30431773586659627E+00
  5.29602718065426092E+00  5.28462726868338883E+00  5.27002304168626079E+00
  5.25212175410166449E+00  5.23083350724101592E+00  5.20607181969046273E+00
  5.17775405283643764E+00  5.14580158628579110E+00  5.11013962437428493E+00
  5.07069653215640326E+00  5.02740265293890598E+00  4.98018864131739480E+00
  4.92898347442785312E+00  4.87371243682957367E+00  4.81429545535907177E+00
  4.75064616186063748E+00  4.68267195097833788E+00  4.61027507186448648E+00
  4.53335457260511632E+00  4.45180875156745337E+00  4.36553771120836487E+00
  4.27444568351754839E+00  4.17844293337246953E+00  4.07744717477453200E+00
  3.97138455380495081E+00  3.86019030768852955E+00  3.74380921539488742E+00
  3.62219593959799102E+00  3.49531534515905573E+00  3.36314284387510165E+00
  3.22566478904394582E+00  3.08287893409232527E+00  2.93479496002321749E+00
  2.78143506667954421E+00  2.62283461728107481E+00  2.45904283281171132E+00
  2.29012352883317272E+00  2.11615588529278797E+00  1.93723524140066483E+00
  1.75347391215984127E+00  1.56500201972088027E+00  1.37196833084637082E+00
  1.17454109636642690E+00  9.72908887365775299E-01  7.67281420843604511E-01
  5.57890367769345752E-01  3.44990138978629013E-01  1.28858641257359102E-01
 -9.02020037351194126E-02 -3.11864783684244473E-01 -5.35777171166099242E-01
 -7.61560560150713051E-01 -9.88809768603435946E-01 -1.21709261697449489E+00
 -1.44594959452952421E+00 -1.67489362279662468E+00 -1.90340992066279813E+00
 -2.13095598818847387E+00 -2.35696172409149574E+00 -2.58082968005400959E+00
 -2.80193546497254209E+00 -3.01962832055042885E+00 -3.23323188318776200E+00
 -3.44204512795626094E+00 -3.64534352369320525E+00 -3.84238042089241461E+00
 -4.03238867570282356E+00 -4.21458251399489470E+00 -4.38815967209841951E+00
 -4.55230383395452609E+00 -4.70618734582568621E+00 -4.84897423916638015E+00
 -4.97982359161560595E+00 -5.09789323026119323E+00 -5.20234375065663013E+00
 -5.29234290260980789E+00 -5.36707035969681989E+00 -5.42572283671935018E+00
 -5.46751955808921419E+00 -5.49170811537247783E+00 -5.49757071008272202E+00
 -5.48443070596649740E+00 -5.45165953398981262E+00 -5.39868395282993863E+00
 -5.32499360812439271E+00 -5.23014882614424614E+00 -5.11378867786768510E+00
 -4.97563927780249049E+00 -4.81552219013667671E+00 -4.63336292849562614E+00
 -4.42919952641231784E+00 -4.20319108651085482E+00 -3.95562615557400221E+00
 -3.68693092549223822E+00 -3.39767716784148810E+00 -3.08858973284136074E+00
 -2.76055350280938416E+00 -2.41461973339695080E+00 -2.05201163162710776E+00
 -1.67412896387799481E+00 -1.28255160909334420E+00 -8.79041900628108719E-01
 -4.65545558164187190E-01 -4.41910391319594031E-02  3.82712831255671959E-01
  8.12681163617742452E-01  1.24305941556366384E+00  1.67103206382793479E+00
  2.09363374423825288E+00  2.50776305654123588E+00  2.91019909310899250E+00
  3.29762089998225738E+00  3.66663006297124383E+00  4.01377643115761451E+00
  4.33558697897649381E+00  4.62859799560380214E+00  4.88939065054542255E+00
  5.11462957985329414E+00  5.30110455310618889E+00  5.44577518326208754E+00
  5.54581831308543194E+00  5.59867745629216351E+00  5.60211424917815037E+00
  5.55426146900051698E+00  5.45367655165519682E+00  5.29939501283144487E+00
  5.09098322854646135E+00  4.82858953710386984E+00  4.51299205909687284E+00
  4.14564261256319444E+00  3.72870551068261458E+00  3.26508948780127861E+00
  2.75847126976449974E+00  2.21330971776636476E+00  1.63484888720176880E+00
  1.02910808203848236E+00  4.02857828905832216E-01 -2.36419641421590443E-01
 -8.80586897786017508E-01 -1.52092576580397343E+00 -2.14823045563142578E+00
 -2.75292021810809207E+00 -3.32517143292419481E+00 -3.85506867491161609E+00
 -4.33277439555680299E+00 -4.74871608201005735E+00 -5.09378778699271884E+00
 -5.35956417694361509E+00 -5.53852425678529947E+00 -5.62427977965064319E+00
 -5.61180284601552071E+00 -5.49764848633652292E+00 -5.28016606011179324E+00
 -4.95969037215669672E+00 -4.53870644599147255E+00 -4.02198082117648514E+00
 -3.41665037058316079E+00 -2.73225940020431368E+00 -1.98073933999937224E+00
 -1.17632342044307170E+00 -3.35388773098657555E-01  5.23777895361888013E-01
  1.38129390769725258E+00  2.21607556756722968E+00  3.00631205702730586E+00
  3.73001346288745461E+00  4.36562646487001516E+00  4.89270531580175128E+00
  5.29262095288416390E+00  5.54929143362254695E+00  5.64991176717188193E+00
  5.58565138868803679E+00  5.35229218568651444E+00  4.95077723147117332E+00
  4.38763449902549674E+00  3.67523793857468029E+00  2.83187939947047562E+00
  1.88162136620087139E+00  8.53901921377487438E-01 -2.17122056965506655E-01
 -1.29349964331212197E+00 -2.33467782291554116E+00 -3.29894145286754226E+00
 -4.14506722193848276E+00 -4.83414702393034101E+00 -5.33151329319555956E+00
 -5.60868000057913552E+00 -5.64521037925671454E+00 -5.43040670615403087E+00
 -4.96469414657797792E+00 -4.26058976017423863E+00 -3.34314966708906525E+00
 -2.24978866412666889E+00 -1.02938901073171252E+00  2.59335859104897981E-01
  1.55023564164049921E+00  2.77283856249364380E+00  3.85608437240584534E+00
  4.73252579098656323E+00  5.34279477040441009E+00  5.64005067375186897E+00
  5.59411240958859679E+00  5.19494814968623420E+00  4.45516283843118632E+00
  3.41115157404445757E+00  2.12266582811874027E+00  6.70590836452770844E-01
 -8.47163158128227400E-01 -2.32156798916933615E+00 -3.63995933101493296E+00
 -4.69469745201689737E+00 -5.39240128781370576E+00 -5.66303357027744614E+00
 -5.46801424086162413E+00 -4.80643197692668167E+00 -3.71850192299262527E+00
 -2.28557183405048914E+00 -6.26160715228742615E-01  1.11216213107648376E+00
  2.76475913905765669E+00  4.16507704134764012E+00  5.16178291681749535E+00
                              </PP_AEWFC.4>
 <PP_PSWFC.1 type="real" size="   888" l="0" columns="3" label= "1S">
  4.07159135844123096E-04  4.12280566522452000E-04  4.17466416838535332E-04
  4.22717497090523771E-04  4.28034627768821506E-04  4.33418639684285173E-04
  4.38870374098038955E-04  4.44390682852920603E-04  4.49980428506580423E-04
  4.55640484466257091E-04  4.61371735125244394E-04  4.67175076001077622E-04
  4.73051413875457284E-04  4.79001666935932103E-04  4.85026764919366292E-04
  4.91127649257206973E-04  4.97305273222582982E-04  5.03560602079252567E-04
  5.09894613232422518E-04  5.16308296381469108E-04  5.22802653674573291E-04
  5.29378699865306170E-04  5.36037462471182177E-04  5.42779981934205348E-04
  5.49607311783438502E-04  5.56520518799611037E-04  5.63520683181803527E-04
  5.70608898716225038E-04  5.77786272947113533E-04  5.85053927349788523E-04
  5.92412997505876028E-04  5.99864633280740539E-04  6.07409999003147836E-04
  6.15050273647187065E-04  6.22786651016482757E-04  6.30620339930719996E-04
  6.38552564414518941E-04  6.46584563888684188E-04  6.54717593363858346E-04
  6.62952923636614313E-04  6.71291841488008147E-04  6.79735649884635035E-04
  6.88285668182211344E-04  6.96943232331716147E-04  7.05709695088130393E-04
  7.14586426221792905E-04  7.23574812732421992E-04  7.32676259065826656E-04
  7.41892187333341945E-04  7.51224037534027416E-04  7.60673267779654258E-04
  7.70241354522528915E-04  7.79929792786178020E-04  7.89740096398934338E-04
  7.99673798230465002E-04  8.09732450431266903E-04  8.19917624675180917E-04
  8.30230912404953184E-04  8.40673925080884189E-04  8.51248294432609348E-04
  8.61955672714037656E-04  8.72797732961505426E-04  8.83776169255171690E-04
  8.94892696983701328E-04  9.06149053112281365E-04  9.17546996453999703E-04
  9.29088307944644291E-04  9.40774790920954830E-04  9.52608271402373419E-04
  9.64590598376342812E-04  9.76723644087184716E-04  9.89009304328617974E-04
  1.00144949873995316E-03  1.01404617110600957E-03  1.02680128966081154E-03
  1.03971684739509202E-03  1.05279486236767306E-03  1.06603737802075894E-03
  1.07944646349919298E-03  1.09302421397373321E-03  1.10677275096838514E-03
  1.12069422269185995E-03  1.13479080437319576E-03  1.14906469860159930E-03
  1.16351813567056625E-03  1.17815337392631974E-03  1.19297270012063794E-03
  1.20797842976811624E-03  1.22317290750791974E-03  1.23855850747009054E-03
  1.25413763364645128E-03  1.26991272026618176E-03  1.28588623217611403E-03
  1.30206066522580788E-03  1.31843854665747635E-03  1.33502243550079943E-03
  1.35181492297271649E-03  1.36881863288223810E-03  1.38603622204034769E-03
  1.40347038067506458E-03  1.42112383285171147E-03  1.43899933689848030E-03
  1.45709968583734037E-03  1.47542770782036641E-03  1.49398626657155746E-03
  1.51277826183419777E-03  1.53180662982385554E-03  1.55107434368707028E-03
  1.57058441396580638E-03  1.59033988906775265E-03  1.61034385574252174E-03
  1.63059943956384771E-03  1.65110980541784027E-03  1.67187815799737811E-03
  1.69290774230272060E-03  1.71420184414840140E-03  1.73576379067650862E-03
  1.75759695087640729E-03  1.77970473611099790E-03  1.80209060064959506E-03
  1.82475804220749130E-03  1.84771060249231669E-03  1.87095186775725845E-03
  1.89448546936123608E-03  1.91831508433612150E-03  1.94244443596107538E-03
  1.96687729434411734E-03  1.99161747701099776E-03  2.01666884950146884E-03
  2.04203532597305908E-03  2.06772086981242033E-03  2.09372949425436997E-03
  2.12006526300871027E-03  2.14673229089491985E-03  2.17373474448482543E-03
  2.20107684275335381E-03  2.22876285773744359E-03  2.25679711520325758E-03
  2.28518399532176434E-03  2.31392793335281378E-03  2.34303342033781231E-03
  2.37250500380108620E-03  2.40234728846007006E-03  2.43256493694441389E-03
  2.46316267052412025E-03  2.49414526984684075E-03  2.52551757568441129E-03
  2.55728448968878860E-03  2.58945097515747135E-03  2.62202205780853216E-03
  2.65500282656540125E-03  2.68839843435147736E-03  2.72221409889474757E-03
  2.75645510354249586E-03  2.79112679808624694E-03  2.82623459959707810E-03
  2.86178399327139928E-03  2.89778053328737344E-03  2.93422984367208619E-03
  2.97113761917959041E-03  3.00850962618000404E-03  3.04635170355972793E-03
  3.08466976363300270E-03  3.12346979306488874E-03  3.16275785380583678E-03
  3.20254008403799903E-03  3.24282269913339161E-03  3.28361199262411189E-03
  3.32491433718471461E-03  3.36673618562692003E-03  3.40908407190681530E-03
  3.45196461214466446E-03  3.49538450565754777E-03  3.53935053600493632E-03
  3.58386957204738770E-03  3.62894856901853488E-03  3.67459456961049570E-03
  3.72081470507291826E-03  3.76761619632580338E-03  3.81500635508628212E-03
  3.86299258500953126E-03  3.91158238284397206E-03  3.96078333960097999E-03
  4.01060314173924248E-03  4.06104957236396932E-03  4.11213051244113757E-03
  4.16385394202694204E-03  4.21622794151267372E-03  4.26926069288518194E-03
  4.32296048100313385E-03  4.37733569488928369E-03  4.43239482903889058E-03
  4.48814648474456668E-03  4.54459937143769210E-03  4.60176230804664865E-03
  4.65964422437205317E-03  4.71825416247919922E-03  4.77760127810794924E-03
  4.83769484210026975E-03  4.89854424184562372E-03  4.96015898274448832E-03
  5.02254868969011833E-03  5.08572310856892067E-03  5.14969210777955350E-03
  5.21446567977104040E-03  5.28005394260013926E-03  5.34646714150813218E-03
  5.41371565051739639E-03  5.48180997404788036E-03  5.55076074855381189E-03
  5.62057874418086991E-03  5.69127486644400906E-03  5.76286015792630731E-03
  5.83534579999899893E-03  5.90874311456298946E-03  5.98306356581214047E-03
  6.05831876201851516E-03  6.13452045733995591E-03  6.21168055365019928E-03
  6.28981110239180529E-03  6.36892430645225483E-03  6.44903252206335993E-03
  6.53014826072443114E-03  6.61228419114937710E-03  6.69545314123807904E-03
  6.77966810007235837E-03  6.86494221993672396E-03  6.95128881836438485E-03
  7.03872138020866789E-03  7.12725355974023859E-03  7.21689918277044779E-03
  7.30767224880102522E-03  7.39958693320056857E-03  7.49265758940807335E-03
  7.58689875116383763E-03  7.68232513476813095E-03  7.77895164136783827E-03
  7.87679335927158296E-03  7.97586556629354196E-03  8.07618373212635327E-03
  8.17776352074348414E-03  8.28062079283133946E-03  8.38477160825155596E-03
  8.49023222853381547E-03  8.59701911939951026E-03  8.70514895331664894E-03
  8.81463861208643326E-03  8.92550518946177290E-03  9.03776599379821008E-03
  9.15143855073764084E-03  9.26654060592512624E-03  9.38309012775932413E-03
  9.50110531017682274E-03  9.62060457547085288E-03  9.74160657714475547E-03
  9.86413020280059970E-03  9.98819457706342714E-03  1.01138190645414378E-02
  1.02410232728226639E-02  1.03698270555084744E-02  1.05002505152843317E-02
  1.06323140070283487E-02  1.07660381409579037E-02  1.09014437858149446E-02
  1.10385520720903303E-02  1.11773843952876293E-02  1.13179624192269457E-02
  1.14603080793891175E-02  1.16044435863008385E-02  1.17503914289611398E-02
  1.18981743783096467E-02  1.20478154907372528E-02  1.21993381116394534E-02
  1.23527658790130654E-02  1.25081227270966815E-02  1.26654328900553288E-02
  1.28247209057100221E-02  1.29860116193124108E-02  1.31493301873653184E-02
  1.33147020814895576E-02  1.34821530923374417E-02  1.36517093335537295E-02
  1.38233972457843021E-02  1.39972436007332855E-02  1.41732755052690080E-02
  1.43515204055793665E-02  1.45320060913772409E-02  1.47147607001562909E-02
  1.48998127214978772E-02  1.50871910014295646E-02  1.52769247468357086E-02
  1.54690435299208312E-02  1.56635772927261399E-02  1.58605563516999309E-02
  1.60600114023223828E-02  1.62619735237851636E-02  1.64664741837267162E-02
  1.66735452430234639E-02  1.68832189606377449E-02  1.70955279985229927E-02
  1.73105054265865962E-02  1.75281847277112719E-02  1.77485998028353020E-02
  1.79717849760923296E-02  1.81977750000113167E-02  1.84266050607771077E-02
  1.86583107835524009E-02  1.88929282378614595E-02  1.91304939430363835E-02
  1.93710448737263868E-02  1.96146184654706381E-02  1.98612526203354282E-02
  2.01109857126160196E-02  2.03638565946038796E-02  2.06199046024199834E-02
  2.08791695619144416E-02  2.11416917946334569E-02  2.14075121238537537E-02
  2.16766718806853942E-02  2.19492129102434007E-02  2.22251775778886280E-02
  2.25046087755387501E-02  2.27875499280495927E-02  2.30740449996675416E-02
  2.33641385005536016E-02  2.36578754933794225E-02  2.39553015999960789E-02
  2.42564630081759901E-02  2.45614064784284297E-02  2.48701793508893237E-02
  2.51828295522856065E-02  2.54994056029747770E-02  2.58199566240600899E-02
  2.61445323445817189E-02  2.64731831087845829E-02  2.68059598834629806E-02
  2.71429142653826679E-02  2.74840984887807400E-02  2.78295654329434664E-02
  2.81793686298629741E-02  2.85335622719724430E-02  2.88922012199606879E-02
  2.92553410106662568E-02  2.96230378650511224E-02  2.99953486962547186E-02
  3.03723311177278472E-02  3.07540434514474437E-02  3.11405447362118060E-02
  3.15318947360166413E-02  3.19281539485121446E-02  3.23293836135409712E-02
  3.27356457217573768E-02  3.31470030233274732E-02  3.35635190367103917E-02
  3.39852580575206870E-02  3.44122851674714819E-02  3.48446662433983950E-02
  3.52824679663641810E-02  3.57257578308434603E-02  3.61746041539877730E-02
  3.66290760849700830E-02  3.70892436144086776E-02  3.75551775838700239E-02
  3.80269496954497299E-02  3.85046325214314158E-02  3.89882995140225855E-02
  3.94780250151668954E-02  3.99738842664321206E-02  4.04759534189725115E-02
  4.09843095435654045E-02  4.14990306407200804E-02  4.20201956508585162E-02
  4.25478844645665530E-02  4.30821779329139884E-02  4.36231578778425583E-02
  4.41709071026199843E-02  4.47255094023586014E-02  4.52870495745969839E-02
  4.58556134299422935E-02  4.64312878027720033E-02  4.70141605619922021E-02
  4.76043206218508611E-02  4.82018579528033786E-02  4.88068635924278141E-02
  4.94194296563874938E-02  5.00396493494376648E-02  5.06676169764737339E-02
  5.13034279536176141E-02  5.19471788193387671E-02  5.25989672456068508E-02
  5.32588920490716378E-02  5.39270532022667615E-02  5.46035518448331619E-02
  5.52884902947573600E-02  5.59819720596207993E-02  5.66841018478546135E-02
  5.73949855799953459E-02  5.81147303999361778E-02  5.88434446861677285E-02
  5.95812380630032223E-02  6.03282214117812354E-02  6.10845068820400072E-02
  6.18502079026563081E-02  6.26254391929418619E-02  6.34103167736900508E-02
  6.42049579781649449E-02  6.50094814630244461E-02  6.58240072191692699E-02
  6.66486565825086946E-02  6.74835522446338987E-02  6.83288182633890046E-02
  6.91845800733296157E-02  7.00509644960582989E-02  7.09280997504259381E-02
  7.18161154625872045E-02  7.27151426758981950E-02  7.36253138606432073E-02
  7.45467629235779389E-02  7.54796252172746512E-02  7.64240375492557800E-02
  7.73801381909002273E-02  7.83480668861068902E-02  7.93279648596989795E-02
  8.03199748255525314E-02  8.13242409944308908E-02  8.23409090815069994E-02
  8.33701263135537690E-02  8.44120414357826393E-02  8.54668047183097523E-02
  8.65345679622278457E-02  8.76154845052605213E-02  8.87097092269759496E-02
  8.98173985535348635E-02  9.09387104619480691E-02  9.20738044838164404E-02
  9.32228417085249200E-02  9.43859847858625478E-02  9.55633979280379464E-02
  9.67552469110605218E-02  9.79616990754529210E-02  9.91829233262615656E-02
  1.00419090132330704E-01  1.01670371524803307E-01  1.02936941094811857E-01
  1.04218973990316738E-01  1.05516646912054160E-01  1.06830138108549258E-01
  1.08159627370152570E-01  1.09505296022051474E-01  1.10867326916208694E-01
  1.12245904422180146E-01  1.13641214416760547E-01  1.15053444272403230E-01
  1.16482782844356550E-01  1.17929420456461348E-01  1.19393548885550066E-01
  1.20875361344386603E-01  1.22375052463078490E-01  1.23892818268897004E-01
  1.25428856164436636E-01  1.26983364904043605E-01  1.28556544568436182E-01
  1.30148596537437045E-01  1.31759723460743411E-01  1.33390129226650889E-01
  1.35040018928644284E-01  1.36709598829761025E-01  1.38399076324640713E-01
  1.40108659899166127E-01  1.41838559087596600E-01  1.43588984427081373E-01
  1.45360147409455326E-01  1.47152260430207321E-01  1.48965536734509629E-01
  1.50800190360177666E-01  1.52656436077444946E-01  1.54534489325431096E-01
  1.56434566145174647E-01  1.58356883109080221E-01  1.60301657246645218E-01
  1.62269105966329041E-01  1.64259446973418627E-01  1.66272898183718071E-01
  1.68309677632903804E-01  1.70370003381393464E-01  1.72454093414561083E-01
  1.74562165538102443E-01  1.76694437268364979E-01  1.78851125717474607E-01
  1.81032447473067987E-01  1.83238618472408299E-01  1.85469853870667167E-01
  1.87726367903189001E-01  1.90008373741520242E-01  1.92316083342951138E-01
  1.94649707293318680E-01  1.97009454642869175E-01  1.99395532734936570E-01
  2.01808147027146279E-01  2.04247500904858464E-01  2.06713795486631075E-01
  2.09207229421430552E-01  2.11727998677252977E-01  2.14276296320838722E-01
  2.16852312288238841E-01  2.19456233145933072E-01  2.22088241842106154E-01
  2.24748517447736162E-01  2.27437234887232581E-01  2.30154564658293620E-01
  2.32900672540520687E-01  2.35675719292424868E-01  2.38479860336537702E-01
  2.41313245432268619E-01  2.44176018335960393E-01  2.47068316447773301E-01
  2.49990270445085871E-01  2.52942003902023538E-01  2.55923632894459685E-01
  2.58935265590149399E-01  2.61977001823643363E-01  2.65048932655568670E-01
  2.68151139915491166E-01  2.71283695728086860E-01  2.74446662022225341E-01
  2.77640090022509334E-01  2.80864019722359692E-01  2.84118479338471508E-01
  2.87403484746205251E-01  2.90719038895374648E-01  2.94065131205432317E-01
  2.97441736940000090E-01  3.00848816560283672E-01  3.04286315056680412E-01
  3.07754161257590142E-01  3.11252267115488257E-01  3.14780526969810459E-01
  3.18338816785704470E-01  3.21926993367830927E-01  3.25544893549341352E-01
  3.29192333355643463E-01  3.32869107141627985E-01  3.36574986701950296E-01
  3.40309720354495859E-01  3.44073031996712797E-01  3.47864620133041424E-01
  3.51684156873695031E-01  3.55531286904868127E-01  3.59405626430044201E-01
  3.63306762080296608E-01  3.67234249794666623E-01  3.71187613670669991E-01
  3.75166344784303774E-01  3.79169899977588654E-01  3.83197700615469983E-01
  3.87249131312275729E-01  3.91323538626345113E-01  3.95420229721825001E-01
  3.99538470999881379E-01  4.03677486699880073E-01  4.07836457467961933E-01
  4.12014518893955239E-01  4.16210760018928649E-01  4.20424221814265864E-01
  4.24653895628515132E-01  4.28898721605688760E-01  4.33157587077210471E-01
  4.37429324928051200E-01  4.41712711933308688E-01  4.46006467071549284E-01
  4.50309249817363422E-01  4.54619658411955674E-01  4.58936228110546074E-01
  4.63257429414397015E-01  4.67581666290808218E-01  4.71907274376909158E-01
  4.76232519171427338E-01  4.80555594222413451E-01  4.84874619315059929E-01
  4.89187638652665846E-01  4.93492619042278535E-01  4.97787448092601892E-01
  5.02069932426970955E-01  5.06337795905574484E-01  5.10588677874658559E-01
  5.14820131450944185E-01  5.19029621838994371E-01  5.23214524683882631E-01
  5.27372124479266402E-01  5.31499613040979479E-01  5.35594088036546068E-01
  5.39652551587613050E-01  5.43671908964425077E-01  5.47648967382395657E-01
  5.51580434887598337E-01  5.55462919364242413E-01  5.59292927682113139E-01
  5.63066864986595306E-01  5.66781034128133299E-01  5.70431635272580118E-01
  5.74014765712320907E-01  5.77526419866048912E-01  5.80962489489379452E-01
  5.84318764136553259E-01  5.87590931894054869E-01  5.90774580361445367E-01
  5.93865197933919675E-01  5.96858175421417836E-01  5.99748808013907286E-01
  6.02532297577837994E-01  6.05203755358113660E-01  6.07758205119111827E-01
  6.10190586707050731E-01  6.12495760059173833E-01  6.14668509731703727E-01
  6.16703549979435106E-01  6.18595530341093824E-01  6.20339041811904246E-01
  6.21928623659860902E-01  6.23358770898612469E-01  6.24623942377846686E-01
  6.25718569607207842E-01  6.26637066358346595E-01  6.27373839008658063E-01
  6.27923297647950074E-01  6.28279868053483348E-01  6.28438004567727915E-01
  6.28392203789525206E-01  6.28137019183233059E-01  6.27667076672163371E-01
  6.26977091209626414E-01  6.26061884240182720E-01  6.24916402196149745E-01
  6.23535736057421075E-01  6.21915141882456224E-01  6.20050062302905158E-01
  6.17936149085508646E-01  6.15569286750564881E-01  6.12945617070761228E-01
  6.10061564536886536E-01  6.06913862803856174E-01  6.03499582022863468E-01
  5.99816156880664364E-01  5.95861415436636066E-01  5.91633608677983980E-01
  5.87131440571127761E-01  5.82354098504358042E-01  5.77301284092821665E-01
  5.71973244167253370E-01  5.66370801627972043E-01  5.60495386088904479E-01
  5.54349064106071654E-01  5.47934568678655309E-01  5.41255327697525823E-01
  5.34315491139639276E-01  5.27119956628521180E-01  5.19674392943974550E-01
  5.11985261131398528E-01  5.04059832773512517E-01  4.95906204887188728E-01
  4.87533311034719918E-01  4.78950928102001849E-01  4.70169678082551390E-01
  4.61201024293550033E-01  4.52057261611971462E-01  4.42751499882455102E-01
  4.33297639693673076E-01  4.23710340227884452E-01  4.14004978508348997E-01
  4.04197599082012582E-01  3.94304853453766035E-01  3.84343929508700222E-01
  3.74332469837033832E-01  3.64288478275160144E-01  3.54230214887396477E-01
  3.44176079885086472E-01  3.34144485668435798E-01  3.24153717181258849E-01
  3.14221782800647997E-01  3.04366256340930619E-01  2.94604111087586162E-01
  2.84951548430299739E-01  2.75423825920389165E-01  2.66035086858018965E-01
  2.56798196058281303E-01  2.47724589490724206E-01  2.38824145703556756E-01
  2.30105086737869502E-01  2.21573920161462490E-01  2.13235438026116053E-01
  2.05092787386226244E-01  1.97147631685640451E-01  1.89400427423674300E-01
  1.81850843778195465E-01  1.74498254884365323E-01  1.67341915109683687E-01
  1.60380949172189147E-01  1.53614341274602134E-01  1.47040927580168984E-01
  1.40659391683801260E-01  1.34468262259476806E-01  1.28465912794628462E-01
  1.22650563107455937E-01  1.17020282125681191E-01  1.11572991480696992E-01
  1.06306470074057677E-01  1.01218359468345231E-01  9.63061695397542800E-02
  9.15672844958275167E-02  8.69989693860971081E-02  8.25983769418191238E-02
  7.83625542550044352E-02  7.42884497323074017E-02  7.03729203498146411E-02
  6.66127388253515001E-02  6.30046006363574884E-02  5.95451312569463681E-02
  5.62308935767348791E-02  5.30583949391004589E-02  5.00240942017832757E-02
  4.71244089668143087E-02  4.43557227551402908E-02  4.17143917704155195E-02
  3.91967517755756473E-02  3.67991250863134653E-02  3.45178271862033037E-02
  3.23491731169772076E-02  3.02894839438311789E-02  2.83350931924486703E-02
  2.64823527176655804E-02  2.47276385236316239E-02  2.30673565949766797E-02
  2.14979484043520859E-02  2.00158959476799299E-02  1.86177267491395536E-02
  1.73000187953760570E-02  1.60594048801583900E-02  1.48925766950439974E-02
  1.37962888388159250E-02  1.27673625735757121E-02  1.18026889667853466E-02
  1.08992319092423521E-02  1.00540310118935640E-02  9.26420401382984163E-03
  8.52694878076073158E-03  7.83954518505730093E-03  7.19935679968634716E-03
  6.60383200272339054E-03  6.05050488849487571E-03  5.53699605191671374E-03
  5.06101304604394432E-03  4.62035038750038731E-03  4.21288945829433048E-03
  3.83659828296995355E-03  3.48953087534368970E-03  3.16982636314561660E-03
  2.87570803205187443E-03  2.60548220541086681E-03  2.35753674699744949E-03
  2.13033949890093421E-03  1.92243666425451838E-03  1.73245095913200924E-03
  1.55907957155644551E-03  1.40109211023523549E-03  1.25732851353218210E-03
  1.12669673062809790E-03  1.00817037706653237E-03  9.00786407403596744E-04
  8.03642725131611577E-04  7.15895672394754705E-04  6.36757570670936995E-04
  5.65494302272102575E-04  5.01422815882588010E-04  4.43908641278265915E-04
  3.92363477819279922E-04  3.46242825682436400E-04  3.05043581420011921E-04
  2.68301717994132171E-04  2.35590050317936272E-04  2.06516029100785135E-04
  1.80719573581981799E-04  1.57871006378073274E-04  1.37669076533611221E-04
  1.19839013595778233E-04  1.04130672176604586E-04  9.03167767837880430E-05
  7.81912420467690183E-05  6.75675497854790906E-05  5.82772275443276433E-05
  5.01684202277350878E-05  4.31045238117004417E-05  3.69628982338399514E-05
  3.16336712379898467E-05  2.70186212938313688E-05  2.30301192489811169E-05
  1.95901510675681504E-05  1.66294167689793973E-05  1.40864906783225247E-05
  1.19070413457372770E-05  1.00431193297081752E-05  8.45250564539864759E-06
  7.09810791251922926E-06  5.94741075115026337E-06  4.97197818512442486E-06
  4.14700074385435735E-06  3.45088158011606719E-06  2.86486515393146688E-06
  2.37270397009541102E-06  1.96035673674705519E-06  1.61571770488996068E-06
  1.32837617115908117E-06  1.08940231473091747E-06  8.91155148147008466E-07
  7.27113172176731223E-07  5.91725272042907374E-07  4.80278754352501857E-07
  3.88782950656535474E-07  3.13867778014736762E-07  2.52695273543262195E-07
  2.02881945546057195E-07  1.62431489425990426E-07  1.29676731186294607E-07
  1.03229418463379192E-07  8.19367593600950012E-08  6.48443012073590403E-08
  5.11642363925949567E-08  4.02482262726323011E-08  3.15642895199347966E-08
  2.46772874879036024E-08  1.92324385206364247E-08  1.49413531081477552E-08
  1.15703552834813118E-08  8.93073407083603058E-09  6.87059026688000596E-09
  5.26804605242540130E-09  4.02564345590695428E-09  3.06572565638911056E-09
  2.32661952976494975E-09  1.75951375743779053E-09  1.32591601744470711E-09
  9.95581477297759928E-10  7.44827746769341281E-10  5.55179050964436084E-10
  4.12276686128757600E-10  3.05002542998144435E-10  2.24779487972398030E-10
  1.65016471685027428E-10  1.20668834938051657E-10  8.78899991608190321E-11
  6.37585480632369465E-11  4.60649072112115376E-11  3.31446774999622117E-11
  2.37490965280727109E-11  1.69452014065984805E-11  1.20390044398738989E-11
  8.51640629198496070E-12  5.99819082771734282E-12  4.20589058570172460E-12
  2.93593717673901405E-12  2.04015326625728276E-12  1.41117321769366044E-12
  9.71571453040521756E-13  6.65766960683117538E-13  4.54042977714822525E-13
  3.08156713585310534E-13  2.08123714574929907E-13  1.39868919515875110E-13
  9.35281475892145287E-14  6.22238960423145411E-14  4.11851255211184907E-14
  2.71184028760912630E-14  1.77622420035946073E-14  1.15721524338824157E-14
  7.49870195185343323E-15  4.83262278140412697E-15  3.09722656631826691E-15
  1.97391814561910107E-15  1.25089763867958046E-15  7.88164543306175951E-16
  4.93722783959289488E-16  3.07462661807111158E-16  1.90331966612662550E-16
  1.17112969211664995E-16  7.16213845516097140E-17  4.35305157517625841E-17
  2.62918363824355005E-17  1.57793232782782987E-17  9.40950041784401750E-18
                              </PP_PSWFC.1>
 <PP_PSWFC.2 type="real" size="   888" l="0" columns="3" label= "2S">
 -1.15788970579762495E-05 -1.17245414351489022E-05 -1.18720177847178216E-05
 -1.20213491497401601E-05 -1.21725588631068944E-05 -1.23256705511879617E-05
 -1.24807081375233215E-05 -1.26376958465603967E-05 -1.27966582074384661E-05
 -1.29576200578207483E-05 -1.31206065477745103E-05 -1.32856431437000895E-05
 -1.34527556323092595E-05 -1.36219701246536128E-05 -1.37933130602036488E-05
 -1.39668112109790223E-05 -1.41424916857308462E-05 -1.43203819341765039E-05
 -1.45005097512877115E-05 -1.46829032816325456E-05 -1.48675910237719341E-05
 -1.50546018347115292E-05 -1.52439649344095016E-05 -1.54357099103409994E-05
 -1.56298667221200375E-05 -1.58264657061793566E-05 -1.60255375805092689E-05
 -1.62271134494559748E-05 -1.64312248085801978E-05 -1.66379035495769756E-05
 -1.68471819652571422E-05 -1.70590927545915784E-05 -1.72736690278187597E-05
 -1.74909443116165290E-05 -1.77109525543389326E-05 -1.79337281313187508E-05
 -1.81593058502367726E-05 -1.83877209565585203E-05 -1.86190091390392729E-05
 -1.88532065352983757E-05 -1.90903497374634146E-05 -1.93304757978855027E-05
 -1.95736222349263077E-05 -1.98198270388177616E-05 -2.00691286775955535E-05
 -2.03215661031069446E-05 -2.05771787570942773E-05 -2.08360065773548362E-05
 -2.10980900039780968E-05 -2.13634699856614306E-05 -2.16321879861049664E-05
 -2.19042859904870150E-05 -2.21798065120207105E-05 -2.24587925985930176E-05
 -2.27412878394872861E-05 -2.30273363721900047E-05 -2.33169828892832874E-05
 -2.36102726454238152E-05 -2.39072514644094421E-05 -2.42079657463346858E-05
 -2.45124624748358339E-05 -2.48207892244272962E-05 -2.51329941679299620E-05
 -2.54491260839928521E-05 -2.57692343647093243E-05 -2.60933690233287156E-05
 -2.64215807020650200E-05 -2.67539206800035044E-05 -2.70904408811065824E-05
 -2.74311938823203636E-05 -2.77762329217826911E-05 -2.81256119071344654E-05
 -2.84793854239352122E-05 -2.88376087441842197E-05 -2.92003378349488501E-05
 -2.95676293671008036E-05 -2.99395407241623239E-05 -3.03161300112632967E-05
 -3.06974560642107370E-05 -3.10835784586721982E-05 -3.14745575194741740E-05
 -3.18704543300173991E-05 -3.22713307418102041E-05 -3.26772493841213577E-05
 -3.30882736737542102E-05 -3.35044678249431620E-05 -3.39258968593744974E-05
 -3.43526266163327751E-05 -3.47847237629744365E-05 -3.52222558047304415E-05
 -3.56652910958389939E-05 -3.61138988500106080E-05 -3.65681491512267760E-05
 -3.70281129646739566E-05 -3.74938621478148180E-05 -3.79654694615978649E-05
 -3.84430085818079101E-05 -3.89265541105586046E-05 -3.94161815879289282E-05
 -3.99119675037457232E-05 -4.04139893095133940E-05 -4.09223254304934243E-05
 -4.14370552779350172E-05 -4.19582592614589002E-05 -4.24860188015963673E-05
 -4.30204163424849340E-05 -4.35615353647233225E-05 -4.41094603983871803E-05
 -4.46642770362076726E-05 -4.52260719469151787E-05 -4.57949328887496029E-05
 -4.63709487231401128E-05 -4.69542094285556994E-05 -4.75448061145290890E-05
 -4.81428310358562335E-05 -4.87483776069728251E-05 -4.93615404165110446E-05
 -4.99824152420381049E-05 -5.06110990649788904E-05 -5.12476900857252907E-05
 -5.18922877389340221E-05 -5.25449927090157698E-05 -5.32059069458176985E-05
 -5.38751336805017963E-05 -5.45527774416215802E-05 -5.52389440713991424E-05
 -5.59337407422057071E-05 -5.66372759732476519E-05 -5.73496596474606536E-05
 -5.80710030286147940E-05 -5.88014187786324669E-05 -5.95410209751226987E-05
 -6.02899251291337188E-05 -6.10482482031268905E-05 -6.18161086291744278E-05
 -6.25936263273840424E-05 -6.33809227245525338E-05 -6.41781207730520760E-05
 -6.49853449699512885E-05 -6.58027213763742622E-05 -6.66303776371005902E-05
 -6.74684430004085988E-05 -6.83170483381659115E-05 -6.91763261661692175E-05
 -7.00464106647368353E-05 -7.09274376995574596E-05 -7.18195448427968943E-05
 -7.27228713944676094E-05 -7.36375584040629792E-05 -7.45637486924599142E-05
 -7.55015868740933568E-05 -7.64512193794050131E-05 -7.74127944775707236E-05
 -7.83864622995091985E-05 -7.93723748611752886E-05 -8.03706860871421816E-05
 -8.13815518344743416E-05 -8.24051299168963814E-05 -8.34415801292603341E-05
 -8.44910642723151190E-05 -8.55537461777821593E-05 -8.66297917337398077E-05
 -8.77193689103216210E-05 -8.88226477857310189E-05 -8.99398005725765548E-05
 -9.10710016445319864E-05 -9.22164275633235856E-05 -9.33762571060503391E-05
 -9.45506712928397236E-05 -9.57398534148431199E-05 -9.69439890625756385E-05
 -9.81632661546028078E-05 -9.93978749665800346E-05 -1.00648008160647508E-04
 -1.01913860815185055E-04 -1.03195630454932011E-04 -1.04493517081474254E-04
 -1.05807723204104904E-04 -1.07138453871061479E-04 -1.08485916701144425E-04
 -1.09850321915721348E-04 -1.11231882371120742E-04 -1.12630813591420577E-04
 -1.14047333801635625E-04 -1.15481663961307946E-04 -1.16934027798505796E-04
 -1.18404651844234040E-04 -1.19893765467262573E-04 -1.21401600909375887E-04
 -1.22928393321049273E-04 -1.24474380797556263E-04 -1.26039804415511270E-04
 -1.27624908269853517E-04 -1.29229939511276196E-04 -1.30855148384105899E-04
 -1.32500788264637424E-04 -1.34167115699928159E-04 -1.35854390447057773E-04
 -1.37562875512858347E-04 -1.39292837194118644E-04 -1.41044545118269561E-04
 -1.42818272284553073E-04 -1.44614295105682832E-04 -1.46432893449999446E-04
 -1.48274350684125860E-04 -1.50138953716129309E-04 -1.52026993039192581E-04
 -1.53938762775802240E-04 -1.55874560722457986E-04 -1.57834688394907626E-04
 -1.59819451073915181E-04 -1.61829157851563389E-04 -1.63864121678101217E-04
 -1.65924659409336724E-04 -1.68011091854583430E-04 -1.70123743825165331E-04
 -1.72262944183483498E-04 -1.74429025892653181E-04 -1.76622326066713591E-04
 -1.78843186021417164E-04 -1.81091951325604316E-04 -1.83368971853165865E-04
 -1.85674601835602416E-04 -1.88009199915183226E-04 -1.90373129198710190E-04
 -1.92766757311893999E-04 -1.95190456454343920E-04 -1.97644603455180459E-04
 -2.00129579829273497E-04 -2.02645771834111322E-04 -2.05193570527307010E-04
 -2.07773371824744325E-04 -2.10385576559370965E-04 -2.13030590540642711E-04
 -2.15708824614622925E-04 -2.18420694724743702E-04 -2.21166621973230016E-04
 -2.23947032683196131E-04 -2.26762358461415046E-04 -2.29613036261766686E-04
 -2.32499508449369763E-04 -2.35422222865399661E-04 -2.38381632892598728E-04
 -2.41378197521481259E-04 -2.44412381417237967E-04 -2.47484654987342213E-04
 -2.50595494449864240E-04 -2.53745381902492856E-04 -2.56934805392271758E-04
 -2.60164258986051908E-04 -2.63434242841660354E-04 -2.66745263279793510E-04
 -2.70097832856631818E-04 -2.73492470437182011E-04 -2.76929701269346660E-04
 -2.80410057058723395E-04 -2.83934076044136004E-04 -2.87502303073897060E-04
 -2.91115289682804539E-04 -2.94773594169872339E-04 -2.98477781676793831E-04
 -3.02228424267141635E-04 -3.06026101006298581E-04 -3.09871398042123217E-04
 -3.13764908686347372E-04 -3.17707233496701330E-04 -3.21698980359770180E-04
 -3.25740764574573068E-04 -3.29833208936866585E-04 -3.33976943824167356E-04
 -3.38172607281487711E-04 -3.42420845107785474E-04 -3.46722310943115052E-04
 -3.51077666356481698E-04 -3.55487580934387652E-04 -3.59952732370064359E-04
 -3.64473806553384822E-04 -3.69051497661444295E-04 -3.73686508249803761E-04
 -3.78379549344384683E-04 -3.83131340534002189E-04 -3.87942610063529811E-04
 -3.92814094927678033E-04 -3.97746540965376969E-04 -4.02740702954748240E-04
 -4.07797344708646554E-04 -4.12917239170762138E-04 -4.18101168512257737E-04
 -4.23349924228927767E-04 -4.28664307238857769E-04 -4.34045127980559997E-04
 -4.39493206511568264E-04 -4.45009372607461386E-04 -4.50594465861295682E-04
 -4.56249335783417281E-04 -4.61974841901622343E-04 -4.67771853861643138E-04
 -4.73641251527918733E-04 -4.79583925084624794E-04 -4.85600775136922191E-04
 -4.91692712812388170E-04 -4.97860659862592227E-04 -5.04105548764773124E-04
 -5.10428322823575109E-04 -5.16829936272797255E-04 -5.23311354377105397E-04
 -5.29873553533661765E-04 -5.36517521373610219E-04 -5.43244256863370761E-04
 -5.50054770405678396E-04 -5.56950083940306053E-04 -5.63931231044409237E-04
 -5.70999257032422025E-04 -5.78155219055434717E-04 -5.85400186199981241E-04
 -5.92735239586152074E-04 -6.00161472464959505E-04 -6.07679990314863609E-04
 -6.15291910937371773E-04 -6.22998364551621787E-04 -6.30800493887843103E-04
 -6.38699454279603794E-04 -6.46696413754727409E-04 -6.54792553124775977E-04
 -6.62989066072977281E-04 -6.71287159240476286E-04 -6.79688052310784842E-04
 -6.88192978092295321E-04 -6.96803182598719094E-04 -7.05519925127307814E-04
 -7.14344478334702146E-04 -7.23278128310254182E-04 -7.32322174646656931E-04
 -7.41477930507708797E-04 -7.50746722693037302E-04 -7.60129891699587554E-04
 -7.69628791779691139E-04 -7.79244790995505215E-04 -7.88979271269608755E-04
 -7.98833628431543119E-04 -8.08809272260057775E-04 -8.18907626520826658E-04
 -8.29130128999386882E-04 -8.39478231529030162E-04 -8.49953400013390872E-04
 -8.60557114443429960E-04 -8.71290868908537394E-04 -8.82156171601435686E-04
 -8.93154544816568007E-04 -9.04287524941641192E-04 -9.15556662441971382E-04
 -9.26963521837281769E-04 -9.38509681670565829E-04 -9.50196734468632771E-04
 -9.62026286693928845E-04 -9.73999958687206142E-04 -9.86119384600604330E-04
 -9.98386212320685317E-04 -1.01080210338093954E-03 -1.02336873286327785E-03
 -1.03608778928798067E-03 -1.04896097449157818E-03 -1.06199000349209796E-03
 -1.07517660434109752E-03 -1.08852251796188277E-03 -1.10202949797327658E-03
 -1.11569931049829304E-03 -1.12953373395703041E-03 -1.14353455884307433E-03
 -1.15770358748269069E-03 -1.17204263377602112E-03 -1.18655352291950774E-03
 -1.20123809110871051E-03 -1.21609818522065293E-03 -1.23113566247482300E-03
 -1.24635239007187806E-03 -1.26175024480910773E-03 -1.27733111267164050E-03
 -1.29309688839835519E-03 -1.30904947502141810E-03 -1.32519078337831227E-03
 -1.34152273159519951E-03 -1.35804724454039339E-03 -1.37476625324667897E-03
 -1.39168169430117154E-03 -1.40879550920134256E-03 -1.42610964367580781E-03
 -1.44362604696840003E-03 -1.46134667108399185E-03 -1.47927346999449463E-03
 -1.49740839880335990E-03 -1.51575341286689052E-03 -1.53431046687057399E-03
 -1.55308151385858003E-03 -1.57206850421452477E-03 -1.59127338459147155E-03
 -1.61069809678912081E-03 -1.63034457657603164E-03 -1.65021475245463235E-03
 -1.67031054436671809E-03 -1.69063386233700582E-03 -1.71118660505224156E-03
 -1.73197065837327169E-03 -1.75298789377738100E-03 -1.77424016672809125E-03
 -1.79572931496952272E-03 -1.81745715674226649E-03 -1.83942548891765159E-03
 -1.86163608504716339E-03 -1.88409069332362089E-03 -1.90679103445062325E-03
 -1.92973879941657901E-03 -1.95293564716956668E-03 -1.97638320218911350E-03
 -2.00008305195081230E-03 -2.02403674427957059E-03 -2.04824578458703875E-03
 -2.07271163298871535E-03 -2.09743570129599863E-03 -2.12241934987830857E-03
 -2.14766388439017585E-03 -2.17317055235794832E-03 -2.19894053962071262E-03
 -2.22497496661973717E-03 -2.25127488453056917E-03 -2.27784127123163227E-03
 -2.30467502710289974E-03 -2.33177697064816973E-03 -2.35914783393408782E-03
 -2.38678825783887952E-03 -2.41469878710333201E-03 -2.44287986517638823E-03
 -2.47133182884755288E-03 -2.50005490265789920E-03 -2.52904919308121834E-03
 -2.55831468246624184E-03 -2.58785122273097858E-03 -2.61765852879968560E-03
 -2.64773617177272965E-03 -2.67808357181897709E-03 -2.70869999077999989E-03
 -2.73958452447541686E-03 -2.77073609469795194E-03 -2.80215344088656287E-03
 -2.83383511146492306E-03 -2.86577945483294880E-03 -2.89798460999829074E-03
 -2.93044849683434970E-03 -2.96316880595036240E-03 -2.99614298815878682E-03
 -3.02936824352534198E-03 -3.06284150998596943E-03 -3.09655945151456188E-03
 -3.13051844582375562E-03 -3.16471457158217949E-03 -3.19914359513002577E-03
 -3.23380095667457831E-03 -3.26868175594519387E-03 -3.30378073728819282E-03
 -3.33909227418125940E-03 -3.37461035314608757E-03 -3.41032855703615832E-03
 -3.44624004767614834E-03 -3.48233754783029356E-03 -3.51861332247497584E-03
 -3.55505915934971935E-03 -3.59166634875843433E-03 -3.62842566259549562E-03
 -3.66532733256819555E-03 -3.70236102758658746E-03 -3.73951583028749729E-03
 -3.77678021266378110E-03 -3.81414201076644283E-03 -3.85158839844686835E-03
 -3.88910586010060002E-03 -3.92668016237919353E-03 -3.96429632483378223E-03
 -4.00193858945305410E-03 -4.03959038905151932E-03 -4.07723431446886143E-03
 -4.11485208053994841E-03 -4.15242449079294713E-03 -4.18993140082536426E-03
 -4.22735168031201838E-03 -4.26466317360028706E-03 -4.30184265884410878E-03
 -4.33886580561983551E-03 -4.37570713097016912E-03 -4.41233995382704722E-03
 -4.44873634775831955E-03 -4.48486709197372640E-03 -4.52070162052769717E-03
 -4.55620796966510130E-03 -4.59135272324760237E-03 -4.62610095618727537E-03
 -4.66041617581560395E-03 -4.69426026112898780E-03 -4.72759339984074514E-03
 -4.76037402315574072E-03 -4.79255873818603198E-03 -4.82410225794338132E-03
 -4.85495732883058344E-03 -4.88507465553504518E-03 -4.91440282323346144E-03
 -4.94288821703795303E-03 -4.97047493859731696E-03 -4.99710471974121589E-03
 -5.02271683306786728E-03 -5.04724799939968837E-03 -5.07063229201227053E-03
 -5.09280103750500614E-03 -5.11368271320854478E-03 -5.13320284104679548E-03
 -5.15128387775088889E-03 -5.16784510126894713E-03 -5.18280249326660575E-03
 -5.19606861762792697E-03 -5.20755249484646052E-03 -5.21715947212008768E-03
 -5.22479108905235697E-03 -5.23034493885996508E-03 -5.23371452496776239E-03
 -5.23478911276998183E-03 -5.23345357647840483E-03 -5.22958824094524235E-03
 -5.22306871833041510E-03 -5.21376573935615484E-03 -5.20154497909845921E-03
 -5.18626687719147585E-03 -5.16778645229229536E-03 -5.14595311052409941E-03
 -5.12061044788173284E-03 -5.09159604646925845E-03 -5.05874126437444276E-03
 -5.02187101890087719E-03 -4.98080356317359002E-03 -4.93535025599186467E-03
 -4.88531532466215165E-03 -4.83049562058151648E-03 -4.77068036760786279E-03
 -4.70565090310705661E-03 -4.63518041130503780E-03 -4.55903364883046818E-03
 -4.47696666248595648E-03 -4.38872649915965189E-03 -4.29405090738062441E-03
 -4.19266803059147562E-03 -4.08429609216181405E-03 -3.96864307205371542E-03
 -3.84540637454773267E-03 -3.71427248733936094E-03 -3.57491663202408111E-03
 -3.42700240579884305E-03 -3.27018141383100857E-03 -3.10409289281413396E-03
 -2.92836332577422467E-03 -2.74260604774148944E-03 -2.54642084201259266E-03
 -2.33939352764666068E-03 -2.12109553836116764E-03 -1.89108349211133302E-03
 -1.64889875162998740E-03 -1.39406697659212315E-03 -1.12609766766716478E-03
 -8.44483701414503016E-04 -5.48700857077760056E-04 -2.38207335917348426E-04
  8.75567267448948270E-05  4.29169757808868849E-04  7.87229249195657240E-04
  1.16235226644294102E-03  1.55517596340289804E-03  1.96635810336055327E-03
  2.39657758432668035E-03  2.84653496752004537E-03  3.31695301018557079E-03
  3.80857720152316019E-03  4.32217629941742190E-03  4.85854286674425057E-03
  5.41849380917642370E-03  6.00287091115794640E-03  6.61254136782780250E-03
  7.24839831202887894E-03  7.91136133798788117E-03  8.60237701654623620E-03
  9.32241939950911348E-03  1.00724905136677680E-02  1.08536208437301565E-02
  1.16668697983248297E-02  1.25133261560718429E-02  1.33941084943371477E-02
  1.43103655956903341E-02  1.52632768264538941E-02  1.62540524843056700E-02
  1.72839341185392383E-02  1.83541948133430811E-02  1.94661394287404532E-02
  2.06211047982197311E-02  2.18204598837342563E-02  2.30656058759308412E-02
  2.43579762336034317E-02  2.56990366655629222E-02  2.70902850482373017E-02
  2.85332512670654487E-02  3.00294969752839744E-02  3.15806152768371845E-02
  3.31882303172546730E-02  3.48539967719347643E-02  3.65795992285126020E-02
  3.83667514671224008E-02  4.02171956164136188E-02  4.21327011748842267E-02
  4.41150639019526683E-02  4.61661045706273712E-02  4.82876675599699448E-02
  5.04816192767788899E-02  5.27498464189287489E-02  5.50942540555192026E-02
  5.75167635060559387E-02  6.00193100135299543E-02  6.26038402215858270E-02
  6.52723094201511644E-02  6.80266785445957090E-02  7.08689109373905196E-02
  7.38009688641635964E-02  7.68248097507139988E-02  7.99423821282508468E-02
  8.31556213110872522E-02  8.64664447729224239E-02  8.98767471986697819E-02
  9.33883952103685272E-02  9.70032217902481453E-02  1.00723020353234619E-01
  1.04549538455697449E-01  1.08484471163854887E-01  1.12529454079423344E-01
  1.16686055984914425E-01  1.20955771105063184E-01  1.25340011032785331E-01
  1.29840096285569001E-01  1.34457247479259939E-01  1.39192576139339830E-01
  1.44047075197735408E-01  1.49021609134988048E-01  1.54116903779743047E-01
  1.59333535824669859E-01  1.64671922079518807E-01  1.70132308452882325E-01
  1.75714758701333296E-01  1.81419143036368663E-01  1.87245126591246730E-01
  1.93192157789529945E-01  1.99259456694782622E-01  2.05446003432004143E-01
  2.11750526711589337E-01  2.18171492547638318E-01  2.24707093290132803E-01
  2.31355237056941831E-01  2.38113537665159747E-01  2.44979305202063569E-01
  2.51949537366002452E-01  2.59020911705199863E-01  2.66189778927435061E-01
  2.73452157448700217E-01  2.80803729312918471E-01  2.88239837698343992E-01
  2.95755486240392718E-01  3.03345340294559840E-01  3.11003730338707707E-01
  3.18724657792664678E-01  3.26501803485407749E-01  3.34328538782881435E-01
  3.42197939704216469E-01  3.50102804284349589E-01  3.58035673227387941E-01
  3.65988853826959393E-01  3.73954447479060426E-01  3.81924380892568027E-01
  3.89890440583878783E-01  3.97844310686653879E-01  4.05777614068610626E-01
  4.13681956350394620E-01  4.21548971820456475E-01  4.29370371048967414E-01
  4.37137989398337701E-01  4.44843834819202255E-01  4.52480133318795996E-01
  4.60039370718245744E-01  4.67514328347514163E-01  4.74898109107573740E-01
  4.82184150968844372E-01  4.89366223895698282E-01  4.96438404848428383E-01
  5.03395024565662430E-01  5.10230593375570418E-01  5.16939759506553798E-01
  5.23517290067254670E-01  5.29958054237145371E-01  5.36257009247932848E-01
  5.42409189406039882E-01  5.48409698002416901E-01  5.54253702033171036E-01
  5.59936429406156622E-01  5.65453168262688988E-01  5.70799268115417147E-01
  5.75970142608522306E-01  5.80961273649123311E-01  5.85768216661483043E-01
  5.90386606816944659E-01  5.94812166083375393E-01  5.99040710921574404E-01
  6.03068160463524516E-01  6.06890545070803089E-01  6.10504015140153289E-01
  6.13904850027681137E-01  6.17089466998652303E-01  6.20054430119766242E-01
  6.22796459001440317E-01  6.25312437334025528E-01  6.27599421168937743E-01
  6.29654646884856395E-01  6.31475538804030179E-01  6.33059716471646938E-01
  6.34405001547684866E-01  6.35509424274122381E-01  6.36371229570369845E-01
  6.36988882756089225E-01  6.37361074847471176E-01  6.37486727421353150E-01
  6.37364997179840964E-01  6.36995280122966356E-01  6.36377215290042986E-01
  6.35510688158517190E-01  6.34395833781281726E-01  6.33033039522499674E-01
  6.31422947369870480E-01  6.29566456047226275E-01  6.27464722816279852E-01
  6.25119164863702448E-01  6.22531460330080111E-01  6.19703549207134996E-01
  6.16637633835131482E-01  6.13336178944382082E-01  6.09801911478189185E-01
  6.06037820173328634E-01  6.02047154656196737E-01  5.97833424044340145E-01
  5.93400395415924709E-01  5.88752091801378663E-01  5.83892789562479253E-01
  5.78827015320484861E-01  5.73559542597544159E-01  5.68095387743760449E-01
  5.62439805077246890E-01  5.56598281638331915E-01  5.50576531288871074E-01
  5.44380487880237407E-01  5.38016297547625477E-01  5.31490310540669419E-01
  5.24809072042478730E-01  5.17979311873597581E-01  5.11007933458887287E-01
  5.03902002071638822E-01  4.96668731940354768E-01  4.89315472255865525E-01
  4.81849692729955537E-01  4.74278968260804568E-01  4.66610962597195644E-01
  4.58853411359604113E-01  4.51014104865887722E-01  4.43100870264566349E-01
  4.35121553076907197E-01  4.27083998901220563E-01  4.18996035143400836E-01
  4.10865452580363999E-01  4.02699987049645991E-01  3.94507302025793261E-01
  3.86294971545786237E-01  3.78070463554814717E-01  3.69841124269129851E-01
  3.61614163718125603E-01  3.53396642056431620E-01  3.45195456801281719E-01
  3.37017331702342327E-01  3.28868806771812516E-01  3.20756229359027645E-01
  3.12685746558017952E-01  3.04663299245314656E-01  2.96694617173328568E-01
  2.88785215129098494E-01  2.80940390558074571E-01  2.73165222359566806E-01
  2.65464570548906875E-01  2.57843076833267848E-01  2.50305166335707208E-01
  2.42855049945279428E-01  2.35496727197889860E-01  2.28233989794913800E-01
  2.21070425626739814E-01  2.14009422965475066E-01  2.07054174785868184E-01
  2.00207683287676907E-01  1.93472764322198537E-01  1.86852051612531628E-01
  1.80348000761824695E-01  1.73962893000289359E-01  1.67698838500025149E-01
  1.61557779259734052E-01  1.55541491564924000E-01  1.49651587962326305E-01
  1.43889518758514912E-01  1.38256573094618002E-01  1.32753879589773832E-01
  1.27382406617357474E-01  1.22142962314908288E-01  1.17036194366599081E-01
  1.12062589600330650E-01  1.07222473557244319E-01  1.02516010147079700E-01
  9.79432013525827760E-02  9.35038871399961891E-02  8.91977457184641859E-02
  8.50242941813660058E-02  8.09828894707369795E-02  7.70727298778574044E-02
  7.32928571593671890E-02  6.96421591273574392E-02  6.61193727735200631E-02
  6.27230880702583510E-02  5.94517524322204990E-02  5.63036755750836518E-02
  5.32770349837917850E-02  5.03698820245239154E-02  4.75801484898910679E-02
  4.49056534525259302E-02  4.23441106286914157E-02  3.98931362121775837E-02
  3.75502567794616035E-02  3.53129174397172688E-02  3.31784903035496695E-02
  3.11442830879971044E-02  2.92075475452832842E-02  2.73654880283312335E-02
  2.56152701718969610E-02  2.39540292936743261E-02  2.23788785793248568E-02
  2.08869172451211227E-02  1.94752385752200823E-02  1.81409374021582609E-02
  1.68811174032350714E-02  1.56928982464341824E-02  1.45734222956251901E-02
  1.35198607762397859E-02  1.25294197271901223E-02  1.15993456999006640E-02
  1.07269307827708594E-02  9.90951725177592439E-03  9.14450196950974438E-03
  8.42934037144317007E-03  7.76154980058561469E-03  7.13871258241150809E-03
  6.55847884156582784E-03  6.01856874554496362E-03  5.51677431649381933E-03
  5.05096102032122872E-03  4.61906906720516153E-03  4.21911413520331333E-03
  3.84918786931970304E-03  3.50745819525061448E-03  3.19216926271482116E-03
  2.90164100446115274E-03  2.63426856442984005E-03  2.38852157424671767E-03
  2.16294303922435777E-03  1.95614806230098252E-03  1.76682248665888391E-03
  1.59372136993805045E-03  1.43566718671000342E-03  1.29154799528903748E-03
  1.16031556705252720E-03  1.04098332703255348E-03  9.32624201808316322E-04
  8.34368480081532841E-04  7.45401651716289578E-04  6.64962107111423850E-04
  5.92338867337436660E-04  5.26869356545752354E-04  4.67937139032486129E-04
                              </PP_PSWFC.2>
 <PP_PSWFC.3 type="real" size="   888" l="1" columns="3" label= "2P">
  2.92267075491790989E-08  2.99665851517024656E-08  3.07251928437986318E-08
  3.15030047798857162E-08  3.23005071176555672E-08  3.31181983219368045E-08
  3.39565894762524362E-08  3.48162046022632997E-08  3.56975809872974921E-08
  3.66012695201734888E-08  3.75278350355225772E-08  3.84778566668281726E-08
  3.94519282084038722E-08  4.04506584865330245E-08  4.14746717400048454E-08
  4.25246080102841242E-08  4.36011235415565737E-08  4.47048911909032506E-08
  4.58366008488576551E-08  4.69969598706086708E-08  4.81866935181210985E-08
  4.94065454134465200E-08  5.06572780035112337E-08  5.19396730366702985E-08
  5.32545320513240547E-08  5.46026768769063619E-08  5.59849501475529065E-08
  5.74022158287751909E-08  5.88553597574661136E-08  6.03452901955758793E-08
  6.18729383978053189E-08  6.34392591936680645E-08  6.50452315842911640E-08
  6.66918593543197753E-08  6.83801716993163230E-08  7.01112238690384131E-08
  7.18860978270043044E-08  7.37059029267540341E-08  7.55717766052298212E-08
  7.74848850937113066E-08  7.94464241467448566E-08  8.14576197895296489E-08
  8.35197290842202402E-08  8.56340409156313900E-08  8.78018767968303181E-08
  9.00245916951246018E-08  9.23035748789580363E-08  9.46402507862482874E-08
  9.70360799147034730E-08  9.94925597346805430E-08  1.02011225625149168E-07
  1.04593651833352341E-07  1.07241452458759978E-07  1.09956282461929907E-07
  1.12739838698912081E-07  1.15593860981832753E-07  1.18520133166334147E-07
  1.21520484266536494E-07  1.24596789598230376E-07  1.27750971951006285E-07
  1.30985002790056123E-07  1.34300903488401525E-07  1.37700746590311451E-07
  1.41186657106708237E-07  1.44760813843363248E-07  1.48425450762716322E-07
  1.52182858380172125E-07  1.56035385195739574E-07  1.59985439161917565E-07
  1.64035489188738263E-07  1.68188066686908434E-07  1.72445767150020212E-07
  1.76811251776810890E-07  1.81287249134492028E-07  1.85876556864188800E-07
  1.90582043429545207E-07  1.95406649909601625E-07  2.00353391837057820E-07
  2.05425361083068376E-07  2.10625727789755559E-07  2.15957742351641147E-07
  2.21424737447239337E-07  2.27030130122077813E-07  2.32777423924452466E-07
  2.38670211095249202E-07  2.44712174813195752E-07  2.50907091496957827E-07
  2.57258833165510202E-07  2.63771369858260556E-07  2.70448772116438954E-07
  2.77295213527301172E-07  2.84314973332742464E-07  2.91512439103945396E-07
  2.98892109483735565E-07  3.06458596998362896E-07  3.14216630940457950E-07
  3.22171060324975479E-07  3.30326856919963435E-07  3.38689118354056120E-07
  3.47263071302635843E-07  3.56054074754646293E-07  3.65067623362111064E-07
  3.74309350874440597E-07  3.83785033659678688E-07  3.93500594314892023E-07
  4.03462105367949154E-07  4.13675793073016167E-07  4.24148041302131342E-07
  4.34885395535294617E-07  4.45894566951568007E-07  4.57182436623734221E-07
  4.68756059819150285E-07  4.80622670409471049E-07  4.92789685392005713E-07
  5.05264709525533487E-07  5.18055540083467198E-07  5.31170171727348352E-07
  5.44616801503711017E-07  5.58403833967438844E-07  5.72539886434821796E-07
  5.87033794369585814E-07  6.01894616905276058E-07  6.17131642507430011E-07
  6.32754394779091749E-07  6.48772638413292037E-07  6.65196385296203521E-07
  6.82035900764806259E-07  6.99301710022957218E-07  7.17004604719881179E-07
  7.35155649695198499E-07  7.53766189894686861E-07  7.72847857461127910E-07
  7.92412579004645788E-07  8.12472583057094277E-07  8.33040407715145624E-07
  8.54128908476867951E-07  8.75751266276665607E-07  8.97920995723637021E-07
  9.20651953548471005E-07  9.43958347264175047E-07  9.67854744046048342E-07
  9.92356079836434491E-07  1.01747766867996892E-06  1.04323521229513281E-06
  1.06964480988810676E-06  1.09672296821506263E-06  1.12448661189915916E-06
  1.15295309400871947E-06  1.18214020690317771E-06  1.21206619335358954E-06
  1.24274975794465196E-06  1.27421007876533910E-06  1.30646681939549316E-06
  1.33954014119583918E-06  1.37345071590910850E-06  1.40821973858016118E-06
  1.44386894080314525E-06  1.48042060430401647E-06  1.51789757486687109E-06
  1.55632327661281836E-06  1.59572172664031632E-06  1.63611755003608257E-06
  1.67753599526601372E-06  1.72000294995570309E-06  1.76354495707041984E-06
  1.80818923150468077E-06  1.85396367709172118E-06  1.90089690404359623E-06
  1.94901824683272339E-06  1.99835778252606226E-06  2.04894634958343786E-06
  2.10081556713167350E-06  2.15399785472663790E-06  2.20852645261554724E-06
  2.26443544251216218E-06  2.32175976889788892E-06  2.38053526086205668E-06
  2.44079865449508650E-06  2.50258761584845178E-06  2.56594076447588040E-06
  2.63089769757044079E-06  2.69749901471257624E-06  2.76578634324465908E-06
  2.83580236428778296E-06  2.90759083941715804E-06  2.98119663801274808E-06
  3.05666576530215794E-06  3.13404539111347530E-06  3.21338387935580856E-06
  3.29473081824616235E-06  3.37813705130136092E-06  3.46365470911448402E-06
  3.55133724193563480E-06  3.64123945307741695E-06  3.73341753316597873E-06
  3.82792909525903072E-06  3.92483321085276320E-06  4.02419044680018166E-06
  4.12606290316395083E-06  4.23051425202730751E-06  4.33760977728745162E-06
  4.44741641545603652E-06  4.56000279749252705E-06  4.67543929169635983E-06
  4.79379804768475834E-06  4.91515304148379831E-06  5.03958012176057904E-06
  5.16715705722585353E-06  5.29796358523623100E-06  5.43208146162675402E-06
  5.56959451180465430E-06  5.71058868313637287E-06  5.85515209866058401E-06
  6.00337511216062658E-06  6.15535036463099922E-06  6.31117284217289825E-06
  6.47093993535518620E-06  6.63475150007781885E-06  6.80270991997562460E-06
  6.97492017040167830E-06  7.15148988402996315E-06  7.33252941811839179E-06
  7.51815192347438721E-06  7.70847341516572347E-06  7.90361284502116558E-06
  8.10369217596606491E-06  8.30883645823904189E-06  8.51917390753797350E-06
  8.73483598514353840E-06  8.95595748007055553E-06  9.18267659329858873E-06
  9.41513502413411990E-06  9.65347805875842632E-06  9.89785466101637007E-06
  1.01484175655029387E-05  1.04053233730055406E-05  1.06687326483614432E-05
  1.09388100207920246E-05  1.12157242867760273E-05  1.14996485155260819E-05
  1.17907601571346283E-05  1.20892411534564355E-05  1.23952780517972670E-05
  1.27090621214793776E-05  1.30307894733568161E-05  1.33606611823550320E-05
  1.36988834131115298E-05  1.40456675487955364E-05  1.44012303231875325E-05
  1.47657939561009712E-05  1.51395862922306256E-05  1.55228409435144004E-05
  1.59157974350971821E-05  1.63187013549881399E-05  1.67318045075047901E-05
  1.71553650705994433E-05  1.75896477571665534E-05  1.80349239804310873E-05
  1.84914720235217365E-05  1.89595772133343933E-05  1.94395320987944332E-05
  1.99316366336293142E-05  2.04361983637649980E-05  2.09535326194637015E-05
  2.14839627123224458E-05  2.20278201372552897E-05  2.25854447795856883E-05
  2.31571851273775784E-05  2.37433984891380828E-05  2.43444512170274388E-05
  2.49607189357151647E-05  2.55925867770257635E-05  2.62404496205195568E-05
  2.69047123401592527E-05  2.75857900572159054E-05  2.82841083995716867E-05
  2.90001037675816755E-05  2.97342236066597389E-05  3.04869266867589880E-05
  3.12586833889209778E-05  3.20499759990716256E-05  3.28612990092480960E-05
  3.36931594264430596E-05  3.45460770892599812E-05  3.54205849925760577E-05
  3.63172296204151076E-05  3.72365712872383821E-05  3.81791844878650227E-05
  3.91456582562409974E-05  4.01365965332795433E-05  4.11526185440020032E-05
  4.21943591842148039E-05  4.32624694169619664E-05  4.43576166790015945E-05
  4.54804852975581868E-05  4.66317769176105690E-05  4.78122109399819418E-05
  4.90225249705036924E-05  5.02634752805335470E-05  5.15358372791139817E-05
  5.28404059970647254E-05  5.41779965833108631E-05  5.55494448137548261E-05
  5.69556076130091549E-05  5.83973635893144619E-05  5.98756135829745480E-05
  6.13912812286510935E-05  6.29453135318657137E-05  6.45386814600690901E-05
  6.61723805486440588E-05  6.78474315222186633E-05  6.95648809316764421E-05
  7.13258018072582148E-05  7.31312943281620505E-05  7.49824865090573052E-05
  7.68805349039375184E-05  7.88266253277516098E-05  8.08219735962584002E-05
  8.28678262845662861E-05  8.49654615048268914E-05  8.71161897035658688E-05
  8.93213544791452227E-05  9.15823334198641922E-05  9.39005389632180143E-05
  9.62774192768481036E-05  9.87144591617276321E-05  1.01213180978144656E-04
  1.03775145595054542E-04  1.06401953363389955E-04  1.09095245113932133E-04
  1.11856703180359163E-04  1.14688052448106781E-04  1.17591061429688735E-04
  1.20567543367142445E-04  1.23619357362282476E-04  1.26748409535458863E-04
  1.29956654213538080E-04  1.33246095147840593E-04  1.36618786762785020E-04
  1.40076835436014170E-04  1.43622400810788681E-04  1.47257697141460855E-04
  1.50984994672858595E-04  1.54806621054428352E-04  1.58724962790012138E-04
  1.62742466724147185E-04  1.66861641565809051E-04  1.71085059450533220E-04
  1.75415357541877751E-04  1.79855239673214358E-04  1.84407478030853222E-04
  1.89074914879541062E-04  1.93860464331391578E-04  1.98767114159331676E-04
  2.03797927656183234E-04  2.08956045540514417E-04  2.14244687910435366E-04
  2.19667156246536213E-04  2.25226835465190304E-04  2.30927196023486498E-04
  2.36771796077072088E-04  2.42764283692234982E-04  2.48908399113571561E-04
  2.55207977088626667E-04  2.61666949250933850E-04  2.68289346562902134E-04
  2.75079301820044340E-04  2.82041052218072929E-04  2.89178941984424940E-04
  2.96497425075824966E-04  3.04001067943516622E-04  3.11694552367862063E-04
  3.19582678364022349E-04  3.27670367160477923E-04  3.35962664252208556E-04
  3.44464742530373072E-04  3.53181905490388608E-04  3.62119590520357053E-04
  3.71283372271829061E-04  3.80678966114939260E-04  3.90312231679994497E-04
  4.00189176487658702E-04  4.10315959669916577E-04  4.20698895784055876E-04
  4.31344458721990144E-04  4.42259285717238790E-04  4.53450181451983420E-04
  4.64924122266665890E-04  4.76688260474629022E-04  4.88749928784414957E-04
  5.01116644832364064E-04  5.13796115828203431E-04  5.26796243316399312E-04
  5.40125128056105999E-04  5.53791075022605950E-04  5.67802598533254923E-04
  5.82168427500955846E-04  5.96897510818258556E-04  6.11999022875270586E-04
  6.27482369214638525E-04  6.43357192326942892E-04  6.59633377589979105E-04
  6.76321059355339022E-04  6.93430627185892610E-04  7.10972732247814069E-04
  7.28958293860879460E-04  7.47398506210975727E-04  7.66304845228633165E-04
  7.85689075637594609E-04  8.05563258177520404E-04  8.25939757004970354E-04
  8.46831247277119825E-04  8.68250722922461141E-04  8.90211504602959154E-04
  9.12727247872255603E-04  9.35811951534533067E-04  9.59479966209066592E-04
  9.83746003105174724E-04  1.00862514301255837E-03  1.03413284551214131E-03
  1.06028495841257943E-03  1.08709772741808169E-03  1.11458780603271258E-03
  1.14277226570678623E-03  1.17166860623096848E-03  1.20129476638397548E-03
  1.23166913484007673E-03  1.26281056134209505E-03  1.29473836814618490E-03
  1.32747236174453331E-03  1.36103284487281177E-03  1.39544062880894823E-03
  1.43071704596961762E-03  1.46688396281139527E-03  1.50396379304337411E-03
  1.54197951115911608E-03  1.58095466629464151E-03  1.62091339641986056E-03
  1.66188044287086055E-03  1.70388116523107424E-03  1.74694155656961864E-03
  1.79108825904403875E-03  1.83634857987577827E-03  1.88275050770639221E-03
  1.93032272934415359E-03  1.97909464690883361E-03  2.02909639538329271E-03
  2.08035886058055217E-03  2.13291369753619868E-03  2.18679334933573940E-03
  2.24203106638520833E-03  2.29866092613470550E-03  2.35671785326441435E-03
  2.41623764034485907E-03  2.47725696897958033E-03  2.53981343144059476E-03
  2.60394555280632186E-03  2.66969281361476929E-03  2.73709567304151113E-03
  2.80619559261245221E-03  2.87703506046189808E-03  2.94965761614869810E-03
  3.02410787604235438E-03  3.10043155928827786E-03  3.17867551436364949E-03
  3.25888774623610093E-03  3.34111744413994076E-03  3.42541500997810885E-03
  3.51183208736221284E-03  3.60042159130209791E-03  3.69123773856222569E-03
  3.78433607869268834E-03  3.87977352574723827E-03  3.97760839069954703E-03
  4.07790041457649008E-03  4.18071080231695834E-03  4.28610225736766794E-03
  4.39413901702710979E-03  4.50488688855737052E-03  4.61841328607355030E-03
  4.73478726822054025E-03  4.85407957664834092E-03  4.97636267530594464E-03
  5.10171079056515389E-03  5.23019995218164911E-03  5.36190803510425747E-03
  5.49691480215257298E-03  5.63530194757576666E-03  5.77715314149686993E-03
  5.92255407525282569E-03  6.07159250765039720E-03  6.22435831215203180E-03
  6.38094352499199002E-03  6.54144239423197320E-03  6.70595142977627266E-03
  6.87456945436094521E-03  7.04739765551276771E-03  7.22453963848508456E-03
  7.40610148019099374E-03  7.59219178414747078E-03  7.78292173642061106E-03
  7.97840516257615484E-03  8.17875858565658698E-03  8.38410128519567581E-03
  8.59455535725396624E-03  8.81024577547523217E-03  9.03130045318716046E-03
  9.25785030655106554E-03  9.49002931873696789E-03  9.72797460511807752E-03
  9.97182647951151170E-03  1.02217285214596248E-02  1.04778276445202673E-02
  1.07402741655524825E-02  1.10092218750299248E-02  1.12848281083594171E-02
  1.15672538181652677E-02  1.18566636475161066E-02  1.21532260041340018E-02
  1.24571131355383277E-02  1.27685012050773039E-02  1.30875703688134344E-02
  1.34145048533101611E-02  1.37494930342383984E-02  1.40927275157482056E-02
  1.44444052105620960E-02  1.48047274208414209E-02  1.51738999197026572E-02
  1.55521330333192251E-02  1.59396417235618121E-02  1.63366456712198058E-02
  1.67433693596365334E-02  1.71600421586784110E-02  1.75868984089993310E-02
  1.80241775066103706E-02  1.84721239875478248E-02  1.89309876125352550E-02
  1.94010234516240956E-02  1.98824919687581488E-02  2.03756591060242423E-02
  2.08807963674519995E-02  2.13981809023840938E-02  2.19280955882583083E-02
  2.24708291125463797E-02  2.30266760536760491E-02  2.35959369609967592E-02
  2.41789184334906537E-02  2.47759331969659297E-02  2.53873001795351973E-02
  2.60133445854501058E-02  2.66543979668403853E-02  2.73107982930802240E-02
  2.79828900176032971E-02  2.86710241421662994E-02  2.93755582779872057E-02
  3.00968567034399920E-02  3.08352904182020542E-02  3.15912371936693179E-02
  3.23650816190010071E-02  3.31572151424088107E-02  3.39680361077001752E-02
  3.47979497855938624E-02  3.56473683991641727E-02  3.65167111429673882E-02
  3.74064041959469712E-02  3.83168807272791789E-02  3.92485808945326545E-02
  4.02019518337135146E-02  4.11774476412203397E-02  4.21755293465773881E-02
  4.31966648752949295E-02  4.42413290015849572E-02  4.53100032906148462E-02
  4.64031760290462628E-02  4.75213421431227787E-02  4.86650031042801592E-02
  4.98346668213853553E-02  5.10308475183918961E-02  5.22540655966094655E-02
  5.35048474817306149E-02  5.47837254540697385E-02  5.60912374609044556E-02
  5.74279269102343712E-02  5.87943424458993100E-02  6.01910377020922135E-02
  6.16185710361780575E-02  6.30775052395003560E-02  6.45684072254199132E-02
  6.60918476926012494E-02  6.76484007624062883E-02  6.92386435905021219E-02
  7.08631559509535491E-02  7.25225197910823738E-02  7.42173187560397629E-02
  7.59481376832800981E-02  7.77155620644216644E-02  7.95201774730734251E-02
  8.13625689580300959E-02  8.32433204013644790E-02  8.51630138388215358E-02
  8.71222287412470181E-02  8.91215412570981746E-02  9.11615234144594888E-02
  9.32427422804983225E-02  9.53657590773253766E-02  9.75311282546241221E-02
  9.97393965166354368E-02  1.01991101802191050E-01  1.04286772217341769E-01
  1.06626924920479371E-01  1.09012064957729971E-01  1.11442684047980495E-01
  1.13919259317775037E-01  1.16442251985245507E-01  1.19012105991987763E-01
  1.21629246582955181E-01  1.24294078834815219E-01  1.27006986132066541E-01
  1.29768328591307019E-01  1.32578441434506283E-01  1.35437633311499717E-01
  1.38346184572635200E-01  1.41304345493509675E-01  1.44312334452774776E-01
  1.47370336064099661E-01  1.50478499265663229E-01  1.53636935370775496E-01
  1.56845716079613451E-01  1.60104871456769465E-01  1.63414387880384870E-01
  1.66774205967177430E-01  1.70184218473328569E-01  1.73644268181534028E-01
  1.77154145782618982E-01  1.80713587753593363E-01  1.84322274237504163E-01
  1.87979826939938283E-01  1.91685807053384116E-01  1.95439713206332272E-01
  1.99240979454793354E-01  2.03088973333674788E-01  2.06982993977872981E-01
  2.10922270310506893E-01  2.14905959329249940E-01  2.18933144511040512E-01
  2.23002834334371458E-01  2.27113960932794040E-01  2.31265378916163472E-01
  2.35455864382070473E-01  2.39684114101732265E-01  2.43948744923521310E-01
  2.48248293429133626E-01  2.52581215853855234E-01  2.56945888258635013E-01
  2.61340607019340865E-01  2.65763589666464906E-01  2.70212976054548804E-01
  2.74686829886858330E-01  2.79183140658248286E-01  2.83699826042040193E-01
  2.88234734665989312E-01  2.92785649356567590E-01  2.97350290894984493E-01
  3.01926322269890968E-01  3.06511353385022611E-01  3.11102946318633777E-01
  3.15698621156642767E-01  3.20295862307745038E-01  3.24892125327569115E-01
  3.29484844310069525E-01  3.34071439825323446E-01  3.38649327252846577E-01
  3.43215925600385885E-01  3.47768666798591364E-01  3.52305005346381761E-01
  3.56822428189496721E-01  3.61318464888122415E-01  3.65790697992120106E-01
  3.70236773366247385E-01  3.74654410432132712E-01  3.79041412262178468E-01
  3.83395675333593311E-01  3.87715198630878832E-01  3.91998092073667148E-01
  3.96242584069043835E-01  4.00447027849375359E-01  4.04609906352144000E-01
  4.08729835495750982E-01  4.12805565548792608E-01  4.16835980194528721E-01
  4.20820093121193728E-01  4.24757041867665497E-01  4.28646078601326030E-01
  4.32486557583082576E-01  4.36277919184435981E-01  4.40019670253299189E-01
  4.43711360777810759E-01  4.47352556948390656E-01  4.50942810751881307E-01
  4.54481626411991635E-01  4.57968424469605839E-01  4.61402504298723870E-01
  4.64783006221820005E-01  4.68108875046872264E-01  4.71378827456528593E-01
  4.74591325925533603E-01  4.77744562901945780E-01  4.80836460313719072E-01
  4.83864690121034891E-01  4.86826723117856464E-01  4.89719914487836139E-01
  4.92541592374900916E-01  4.95289080267777071E-01  4.97959701340386474E-01
  5.00550782955875517E-01  5.03059661278399406E-01  5.05483685963039053E-01
  5.07820224870340731E-01  5.10066668717732097E-01  5.12220435672552599E-01
  5.14278975874863375E-01  5.16239775854415828E-01  5.18100362808571413E-01
  5.19858308778821443E-01  5.21511234721716233E-01  5.23056814447299900E-01
  5.24492778448243269E-01  5.25816917644355897E-01  5.27027087041593179E-01
  5.28121209301084416E-01  5.29097278255349579E-01  5.29953362377852844E-01
  5.30687608209406858E-01  5.31298243761324951E-01  5.31783581909324954E-01
  5.32142023777011808E-01  5.32372062131500901E-01  5.32472284800264650E-01
  5.32441378102422314E-01  5.32278130299001839E-01  5.31981435097035216E-01
  5.31550295179503585E-01  5.30983825744588578E-01  5.30281258085903540E-01
  5.29441943210515409E-01  5.28465355444550533E-01  5.27351096005616027E-01
  5.26098896597334997E-01  5.24708622945222136E-01  5.23180278217989403E-01
  5.21514006337507996E-01  5.19710095187370102E-01  5.17768979590714440E-01
  5.15691243992063564E-01  5.13477624896939489E-01  5.11129012962981744E-01
  5.08646454618211674E-01  5.06031153161223046E-01  5.03284469408100787E-01
  5.00407921684811186E-01  4.97403185070243836E-01  4.94272089950281379E-01
  4.91016619851406155E-01  4.87638908377745151E-01  4.84141235211189902E-01
  4.80526021375658807E-01  4.76795823598324175E-01  4.72953327701628901E-01
  4.69001341148287954E-01  4.64942784935762632E-01  4.60780684658852802E-01
  4.56518160784429750E-01  4.52158418500723858E-01  4.47704737137764375E-01
  4.43160459109388283E-01  4.38528978551176341E-01  4.33813730098374206E-01
  4.29018177609171769E-01  4.24145802914746739E-01  4.19200094975852366E-01
  4.14184539620176095E-01  4.09102609701376463E-01  4.03957755815519570E-01
  3.98753398061879982E-01  3.93492918645591883E-01  3.88179655299138449E-01
  3.82816895750122066E-01  3.77407873491099444E-01  3.71955764533081545E-01
  3.66463685174182485E-01  3.60934691092676285E-01  3.55371777606326655E-01
  3.49777880901251392E-01  3.44155880267078829E-01  3.38508601527922726E-01
  3.32838821286568110E-01  3.27149271884321080E-01  3.21442647139818904E-01
  3.15721608746763860E-01  3.09988793015378850E-01  3.04246817859482876E-01
  2.98498290054945103E-01  2.92745812449679843E-01  2.86991990935722585E-01
  2.81239441098077803E-01  2.75490794448056131E-01  2.69748703960253189E-01
  2.64015848796602337E-01  2.58294938185789746E-01  2.52588714306261231E-01
  2.46899954041138264E-01  2.41231469565421408E-01  2.35586107802515043E-01
  2.29966748652162739E-01  2.24376301991356275E-01  2.18817703534888996E-01
  2.13293909632002426E-01  2.07807891008281703E-01  2.02362625546184532E-01
  1.96961090314154902E-01  1.91606252903582491E-01  1.86301062167255921E-01
  1.81048438532540185E-01  1.75851264106527988E-01  1.70712372601771689E-01
  1.65634539205832265E-01  1.60620470627938217E-01  1.55672795406574249E-01
  1.50794054515187959E-01  1.45986692386435662E-01  1.41253048552067467E-01
  1.36595349849523595E-01  1.32015703246016358E-01  1.27516089401283644E-01
  1.23098357011915877E-01  1.18764217877571007E-01  1.14515242726506122E-01
  1.10352857877766969E-01  1.06278342662847636E-01  1.02292827588498197E-01
  9.83972932561543029E-02  9.45925700144002041E-02  9.08793382762416030E-02
  8.72581294985305123E-02  8.37293277813480064E-02  8.02931720236954999E-02
  7.69497586193912675E-02  7.36990446717256248E-02  7.05408516073557923E-02
  6.74748691952371665E-02  6.45006599697564575E-02  6.16176639590424804E-02
  5.88252036281094043E-02  5.61224890992524997E-02  5.35086236353389602E-02
  5.09826091822082744E-02  4.85433520345270667E-02  4.61896686675168019E-02
  4.39202916449201453E-02  4.17338754268476581E-02  3.96290022477620504E-02
  3.76041880688710792E-02  3.56578883792514623E-02  3.37885038821434461E-02
  3.19943861908524377E-02  3.02738434849630436E-02  2.86251458602965435E-02
  2.70465306080019882E-02  2.55362074570435124E-02  2.40923635962027732E-02
  2.27131684106056629E-02  2.13967781504995659E-02  2.01413405158163070E-02
  1.89449988648533879E-02  1.78058962518410878E-02  1.67221793818707505E-02
  1.56920023687943354E-02  1.47135301181308582E-02  1.37849416128701611E-02
  1.29044331068986044E-02  1.20702209807205755E-02  1.12805443579339481E-02
  1.05336676365131825E-02  9.82788288112546038E-03  9.16151183527476667E-03
  8.53290782361493250E-03  7.94045757397160608E-03  7.38258279395768297E-03
                              </PP_PSWFC.3>
 <PP_PSWFC.4 type="real" size="   888" l="1" columns="3" label= "0P">
  6.49588662373656143E-07  6.66033076910125444E-07  6.82893783744450118E-07
  7.00181321364370692E-07  7.17906495040626763E-07  7.36080383580560959E-07
  7.54714346252760669E-07  7.73820029886959039E-07  7.93409376153642163E-07
  8.13494629028015638E-07  8.34088342442856930E-07  8.55203388135104286E-07
  8.76852963691139572E-07  8.99050600795667863E-07  9.21810173689453650E-07
  9.45145907841182747E-07  9.69072388838791490E-07  9.93604571505950211E-07
  1.01875778924929956E-06  1.04454776364228651E-06  1.07099061425168381E-06
  1.09810286871278918E-06  1.12590147305973407E-06  1.15440380231730441E-06
  1.18362767136083549E-06  1.21359134605111872E-06  1.24431355465109001E-06
  1.27581349953161405E-06  1.30811086917355679E-06  1.34122585047368976E-06
  1.37517914136216505E-06  1.40999196373931112E-06  1.44568607674005107E-06
  1.48228379033396968E-06  1.51980797926980464E-06  1.55828209737281958E-06
  1.59773019220420525E-06  1.63817692009154199E-06  1.67964756153975483E-06
  1.72216803703224633E-06  1.76576492323194390E-06  1.81046546959259321E-06
  1.85629761539044666E-06  1.90329000718722596E-06  1.95147201673505519E-06
  2.00087375933474570E-06  2.05152611265873544E-06  2.10346073605062900E-06
  2.15671009031319975E-06  2.21130745799743355E-06  2.26728696420508618E-06
  2.32468359791793348E-06  2.38353323386694826E-06  2.44387265495505222E-06
  2.50573957524761916E-06  2.56917266354479205E-06  2.63421156755075463E-06
  2.70089693865463869E-06  2.76927045733893111E-06  2.83937485923098826E-06
  2.91125396181405684E-06  2.98495269181455625E-06  3.06051711328253662E-06
  3.13799445638315204E-06  3.21743314691685690E-06  3.29888283658695177E-06
  3.38239443403340268E-06  3.46802013665215085E-06  3.55581346322007836E-06
  3.64582928734578758E-06  3.73812387176713585E-06  3.83275490351716228E-06
  3.92978152998007839E-06  4.02926439586008003E-06  4.13126568108610520E-06
  4.23584913967594988E-06  4.34308013958439263E-06  4.45302570356004223E-06
  4.56575455103639485E-06  4.68133714108343478E-06  4.79984571644652655E-06
  4.92135434870014050E-06  5.04593898454460937E-06  5.17367749327494912E-06
  5.30464971545133730E-06  5.43893751280156363E-06  5.57662481938688106E-06
  5.71779769406308703E-06  5.86254437426961187E-06  6.01095533118028375E-06
  6.16312332625019197E-06  6.31914346919410714E-06  6.47911327743254767E-06
  6.64313273704269262E-06  6.81130436525232007E-06  6.98373327451568715E-06
  7.16052723821156025E-06  7.34179675800430975E-06  7.52765513291023201E-06
  7.71821853011233028E-06  7.91360605756765033E-06  8.11393983845275629E-06
  8.31934508749369388E-06  8.52995018922825601E-06  8.74588677824945934E-06
  8.96728982148023626E-06  9.19429770253103516E-06  9.42705230819281956E-06
  9.66569911711961008E-06  9.91038729075605342E-06  1.01612697665666424E-05
  1.04185033536251476E-05  1.06822488306237647E-05  1.09526710463633496E-05
  1.12299390227875688E-05  1.15142260606251636E-05  1.18057098477066475E-05
  1.21045725700229168E-05  1.24110010255952567E-05  1.27251867412279660E-05
  1.30473260922163472E-05  1.33776204250852500E-05  1.37162761834344957E-05
  1.40635050369700833E-05  1.44195240138018161E-05  1.47845556360897214E-05
  1.51588280591245069E-05  1.55425752139286308E-05  1.59360369534672412E-05
  1.63394592025604140E-05  1.67530941115900830E-05  1.71772002140982115E-05
  1.76120425883742607E-05  1.80578930231332079E-05  1.85150301873874999E-05
  1.89837398046192963E-05  1.94643148313614394E-05  1.99570556402994040E-05
  2.04622702080080427E-05  2.09802743074407779E-05  2.15113917052916371E-05
  2.20559543643529073E-05  2.26143026509956692E-05  2.31867855479022949E-05
  2.37737608721839608E-05  2.43755954990198594E-05  2.49926655909571230E-05
  2.56253568330155684E-05  2.62740646737436278E-05  2.69391945723764135E-05
  2.76211622522503844E-05  2.83203939606324609E-05  2.90373267351267236E-05
  2.97724086768246936E-05  3.05260992303699050E-05  3.12988694711123473E-05
  3.20912023995310763E-05  3.29035932431102554E-05  3.37365497658562966E-05
  3.45905925856501725E-05  3.54662554996331716E-05  3.63640858178285374E-05
  3.72846447052085889E-05  3.82285075324206728E-05  3.91962642353910567E-05
  4.01885196840315347E-05  4.12058940602783830E-05  4.22490232457018195E-05
  4.33185592189262532E-05  4.44151704631100386E-05  4.55395423837406685E-05
  4.66923777370046455E-05  4.78743970690006544E-05  4.90863391660706532E-05
  5.03289615165300073E-05  5.16030407840847890E-05  5.29093732932324164E-05
  5.42487755269496248E-05  5.56220846369766370E-05  5.70301589670193452E-05
  5.84738785891941216E-05  5.99541458540501330E-05  6.14718859545160300E-05
  6.30280475041188640E-05  6.46236031298402412E-05  6.62595500799787092E-05
  6.79369108473963082E-05  6.96567338085434689E-05  7.14200938786550572E-05
  7.32280931835337085E-05  7.50818617483342934E-05  7.69825582037835188E-05
  7.89313705102741883E-05  8.09295167002874389E-05  8.29782456396059771E-05
  8.50788378077943329E-05  8.72326060984334129E-05  8.94408966396089664E-05
  9.17050896351684049E-05  9.40266002272678424E-05  9.64068793807531236E-05
  9.88474147899211849E-05  1.01349731808234408E-04  1.03915394401564397E-04
  1.06546006125561504E-04  1.09243211127763815E-04  1.12008695175063621E-04
  1.14844186707184923E-04  1.17751457916816639E-04  1.20732325857088974E-04
  1.23788653577074109E-04  1.26922351286026461E-04  1.30135377547088861E-04
  1.33429740501206644E-04  1.36807499122020888E-04  1.40270764502515585E-04
  1.43821701174230200E-04  1.47462528459857504E-04  1.51195521860069689E-04
  1.55023014475445700E-04  1.58947398464379325E-04  1.62971126537881582E-04
  1.67096713492216685E-04  1.71326737780315755E-04  1.75663843122962399E-04
  1.80110740160751491E-04  1.84670208147843693E-04  1.89345096688590291E-04
  1.94138327518100264E-04  1.99052896327860367E-04  2.04091874637558175E-04
  2.09258411714266583E-04  2.14555736540191584E-04  2.19987159830210610E-04
  2.25556076100465983E-04  2.31265965789297605E-04  2.37120397431836254E-04
  2.43123029889628326E-04  2.49277614636672401E-04  2.55587998103292660E-04
  2.62058124079320512E-04  2.68692036178077469E-04  2.75493880362702036E-04
  2.82467907536389955E-04  2.89618476198169389E-04  2.96950055165866810E-04
  3.04467226367965982E-04  3.12174687706091695E-04  3.20077255989911552E-04
  3.28179869946290464E-04  3.36487593304564501E-04  3.45005617959868668E-04
  3.53739267216481522E-04  3.62693999113216725E-04  3.71875409832935085E-04
  3.81289237198300865E-04  3.90941364255963401E-04  4.00837822951396561E-04
  4.10984797896689021E-04  4.21388630233638034E-04  4.32055821594546990E-04
  4.42993038163206297E-04  4.54207114838576891E-04  4.65705059503781962E-04
  4.77494057403062900E-04  4.89581475629422458E-04  5.01974867725765456E-04
  5.14681978402388093E-04  5.27710748373767607E-04  5.41069319317658286E-04
  5.54766038959583546E-04  5.68809466285898437E-04  5.83208376888657426E-04
  5.97971768445626885E-04  6.13108866338852665E-04  6.28629129415275603E-04
  6.44542255892990943E-04  6.60858189416817145E-04  6.77587125266955774E-04
  6.94739516724601032E-04  7.12326081598454769E-04  7.30357808916223448E-04
  7.48845965785245008E-04  7.67802104426523681E-04  7.87238069386549458E-04
  8.07166004931375298E-04  8.27598362627572312E-04  8.48547909114753698E-04
  8.70027734074517098E-04  8.92051258400757864E-04  9.14632242576416061E-04
  9.37784795261891921E-04  9.61523382100434344E-04  9.85862834746002899E-04
  1.01081836011919458E-03  1.03640554989698473E-03  1.06264039024219089E-03
  1.08953927177867752E-03  1.11711899981851884E-03  1.14539680484745704E-03
  1.17439035327515065E-03  1.20411775845691727E-03  1.23459759199377218E-03
  1.26584889531779492E-03  1.29789119157001009E-03  1.33074449777812235E-03
  1.36442933734169311E-03  1.39896675283245910E-03  1.43437831911775418E-03
  1.47068615681514932E-03  1.50791294608664450E-03  1.54608194078096673E-03
  1.58521698293271197E-03  1.62534251762731720E-03  1.66648360824106956E-03
  1.70866595206554690E-03  1.75191589632620265E-03  1.79626045460494510E-03
  1.84172732367691213E-03  1.88834490077181881E-03  1.93614230127053225E-03
  1.98514937684784142E-03  2.03539673407257624E-03  2.08691575347659617E-03
  2.13973860910439840E-03  2.19389828855538586E-03  2.24942861353119236E-03
  2.30636426090070597E-03  2.36474078429575393E-03  2.42459463625080071E-03
  2.48596319090023258E-03  2.54888476724724790E-03  2.61339865301864248E-03
  2.67954512912015486E-03  2.74736549470744155E-03  2.81690209288803237E-03
  2.88819833707009734E-03  2.96129873797419891E-03  3.03624893132456181E-03
  3.11309570623692676E-03  3.19188703432028622E-03  3.27267209951042541E-03
  3.35550132865350750E-03  3.44042642285838536E-03  3.52750038963691370E-03
  3.61677757585178753E-03  3.70831370149216858E-03  3.80216589429763392E-03
  3.89839272525163661E-03  3.99705424496614274E-03  4.09821202097954661E-03
  4.20192917599066743E-03  4.30827042705208760E-03  4.41730212574662547E-03
  4.52909229937146704E-03  4.64371069315483442E-03  4.76122881353099100E-03
  4.88171997249978000E-03  5.00525933309752240E-03  5.13192395600690736E-03
  5.26179284733397593E-03  5.39494700758121927E-03  5.53146948184627101E-03
  5.67144541127646059E-03  5.81496208581053567E-03  5.96210899823904506E-03
  6.11297789961607382E-03  6.26766285605559297E-03  6.42626030694650342E-03
  6.58886912462145619E-03  6.75559067551490585E-03  6.92652888284758794E-03
  7.10179029087453905E-03  7.28148413073500048E-03  7.46572238794372938E-03
  7.65461987156372276E-03  7.84829428510153138E-03  8.04686629916756199E-03
  8.25045962594458428E-03  8.45920109550834555E-03  8.67322073404548644E-03
  8.89265184401511789E-03  9.11763108630121721E-03  9.34829856440427126E-03
  9.58479791072260751E-03  9.82727637497305372E-03  1.00758849148031796E-02
  1.03307782886482933E-02  1.05921151508868317E-02  1.08600581493506557E-02
  1.11347740252472262E-02  1.14164337155509416E-02  1.17052124579234244E-02
  1.20012898982232580E-02  1.23048502006670377E-02  1.26160821607068322E-02
  1.29351793206883489E-02  1.32623400883555564E-02  1.35977678582700229E-02
  1.39416711362139109E-02  1.42942636666481115E-02  1.46557645632998720E-02
  1.50263984429514410E-02  1.54063955625062012E-02  1.57959919594092731E-02
  1.61954295955011526E-02  1.66049565043890138E-02  1.70248269424145282E-02
  1.74553015433028605E-02  1.78966474765788371E-02  1.83491386098366058E-02
  1.88130556749583240E-02  1.92886864383690036E-02  1.97763258754206604E-02
  2.02762763490014347E-02  2.07888477924648603E-02  2.13143578969866264E-02
  2.18531323034438923E-02  2.24055047989202907E-02  2.29718175179417401E-02
  2.35524211485489063E-02  2.41476751433260563E-02  2.47579479354885050E-02
  2.53836171601434478E-02  2.60250698808379595E-02  2.66827028215144632E-02
  2.73569226040036410E-02  2.80481459911642618E-02  2.87568001357980316E-02
  2.94833228354603911E-02  3.02281627933090637E-02  3.09917798851216952E-02
  3.17746454326049491E-02  3.25772424831340043E-02  3.34000660960540111E-02
  3.42436236357090834E-02  3.51084350713217613E-02  3.59950332838672449E-02
  3.69039643800837883E-02  3.78357880137801042E-02  3.87910777146046881E-02
  3.97704212244049046E-02  4.07744208413363188E-02  4.18036937718701124E-02
  4.28588724908986959E-02  4.39406051100723824E-02  4.50495557545262243E-02
  4.61864049481529662E-02  4.73518500076161516E-02  4.85466054452848364E-02
  4.97714033812227744E-02  5.10269939644085319E-02  5.23141458033544449E-02
  5.36336464063633667E-02  5.49863026315372191E-02  5.63729411467193756E-02
  5.77944088995276731E-02  5.92515735977352659E-02  6.07453242001408864E-02
  6.22765714180813501E-02  6.38462482277521864E-02  6.54553103935734959E-02
  6.71047370028055451E-02  6.87955310115170721E-02  7.05287198020852074E-02
  7.23053557524239721E-02  7.41265168172205446E-02  7.59933071212276767E-02
  7.79068575647969691E-02  7.98683264418029448E-02  8.18789000702988129E-02
  8.39397934359165238E-02  8.60522508481722792E-02  8.82175466097918082E-02
  9.04369856994245713E-02  9.27119044677534171E-02  9.50436713471033701E-02
  9.74336875746331654E-02  9.98833879294803439E-02  1.02394241483880127E-01
  1.04967752368272216E-01  1.07605460550448048E-01  1.10308942629089357E-01
  1.13079812641739927E-01  1.15919722887107557E-01  1.18830364761707441E-01
  1.21813469611164113E-01  1.24870809596231327E-01  1.28004198573282463E-01
  1.31215492989223942E-01  1.34506592791107771E-01  1.37879442350503201E-01
  1.41336031402206769E-01  1.44878395997160514E-01  1.48508619469811892E-01
  1.52228833419945170E-01  1.56041218708358687E-01  1.59948006466143239E-01
  1.63951479117758869E-01  1.68053971417860298E-01  1.72257871501006188E-01
  1.76565621943852696E-01  1.80979720840007796E-01  1.85502722887345650E-01
  1.90137240486636466E-01  1.94885944850890419E-01  1.99751567125603074E-01
  2.04736899519435134E-01  2.09844796443873688E-01  2.15078175661007842E-01
  2.20440019439665347E-01  2.25933375719017449E-01  2.31561359277861645E-01
  2.37327152908385769E-01  2.43234008594777840E-01  2.49285248695136546E-01
  2.55484267124552855E-01  2.61834530537761068E-01  2.68339579511896686E-01
  2.75003029726888892E-01  2.81828573141008898E-01  2.88819979159532003E-01
  2.95981095797223814E-01  3.03315850830933376E-01  3.10828252939463756E-01
  3.18522392828259171E-01  3.26402444339656428E-01  3.34472665543466829E-01
  3.42737399804629750E-01  3.51201076825253089E-01  3.59868213661389158E-01
  3.68743415707694588E-01  3.77831377646083655E-01  3.87136884355861743E-01
  3.96664811784466886E-01  4.06420127770496908E-01  4.16407892814181391E-01
  4.26633260793463809E-01  4.37101479622477307E-01  4.47817891842929305E-01
  4.58787935142307868E-01  4.70017142798197618E-01  4.81511144041811501E-01
  4.93275664330525776E-01  5.05316525521955051E-01  5.17639645950038751E-01
  5.30251040391340744E-01  5.43156819910939559E-01  5.56363191579491323E-01
  5.69876458062138491E-01  5.83703017062093266E-01  5.97849360607643376E-01
  6.12322074174630915E-01  6.27127835642479203E-01  6.42273414062291437E-01
  6.57765668224208122E-01  6.73611545018451552E-01  6.89818077581651590E-01
  7.06392383204654029E-01  7.23341660986547064E-01  7.40673189232983198E-01
  7.58394322580154046E-01  7.76512488820246927E-01  7.95035185410892131E-01
  8.13969975669386336E-01  8.33324484620807882E-01  8.53106394476277785E-01
  8.73323439724297934E-01  8.93983401833277624E-01  9.15094103524289881E-01
  9.36663402589364091E-01  9.58699185243283125E-01  9.81209358995266290E-01
  1.00420184499539666E+00  1.02768456982805279E+00  1.05166545674837031E+00
  1.07615241632853853E+00  1.10115333647007474E+00  1.12667607175202122E+00
  1.15272843211647835E+00  1.17931817083639290E+00  1.20645297172517685E+00
  1.23414043556188613E+00  1.26238806572640638E+00  1.29120325297564498E+00
  1.32059325932108718E+00  1.35056520099348387E+00  1.38112603046578730E+00
  1.41228251746501088E+00  1.44404122893181630E+00  1.47640850792740452E+00
  1.50939045142689854E+00  1.54299288693919312E+00  1.57722134791522728E+00
  1.61208104794661899E+00  1.64757685366898876E+00  1.68371325632044000E+00
  1.72049434193226025E+00  1.75792376013242735E+00  1.79600469147515840E+00
  1.83473981325323399E+00  1.87413126379082096E+00  1.91418060516311739E+00
  1.95488878427542256E+00  1.99625609226744261E+00  2.03828212225018701E+00
  2.08096572529893686E+00  2.12430496466193963E+00  2.16829706817039103E+00
  2.21293837884339206E+00  2.25822430362349635E+00  2.30414926022789102E+00
  2.35070662212170012E+00  2.39788866159059566E+00  2.44568649089085710E+00
  2.49409000148986149E+00  2.54308780140750246E+00  2.59266715065488285E+00
  2.64281389480218865E+00  2.69351239671628617E+00  2.74474546647495066E+00
  2.79649428952526913E+00  2.84873835317679713E+00  2.90145537146870280E+00
  2.95462120846777321E+00  3.00820980015836259E+00  3.06219307508068361E+00
  3.11654087371498623E+00  3.17122086682745685E+00  3.22619847302836860E+00
  3.28143677572577230E+00  3.33689643948089065E+00  3.39253562620994531E+00
  3.44830991158579225E+00  3.50417220172617627E+00  3.56007265040679721E+00
  3.61595857742284066E+00  3.67177438856821459E+00  3.72746149713040609E+00
  3.78295824764367650E+00  3.83819984262845537E+00  3.89311827274307198E+00
  3.94764225028885329E+00  4.00169714734824034E+00  4.05520493940887228E+00
  4.10808415450091147E+00  4.16024982845683500E+00  4.21161346781086365E+00
  4.26208302130466343E+00  4.31156285947614748E+00  4.35995376413880820E+00
  4.40715292924569724E+00  4.45305397372093825E+00  4.49754696592404368E+00
  4.54051846248098023E+00  4.58185156297390339E+00  4.62142597987885573E+00
  4.65911812497939426E+00  4.69480121498491698E+00  4.72834539765607431E+00
  4.75961789657685408E+00  4.78848317803722168E+00  4.81480314213009741E+00
  4.83843733789490216E+00  4.85924320130371523E+00  4.87707632044775696E+00
  4.89179072939145687E+00  4.90323922765736775E+00  4.91127372709674592E+00
  4.91574562926223280E+00  4.91650623333536352E+00  4.91340716941329703E+00
  4.90630086181517111E+00  4.89504102322014489E+00  4.87948317580105329E+00
  4.85948519583673111E+00  4.83490788565792151E+00  4.80561557136170858E+00
  4.77147671729930956E+00  4.73236455790314992E+00  4.68815774646668793E+00
  4.63874101528881688E+00  4.58400583615063795E+00  4.52385108310524320E+00
  4.45818369226618216E+00  4.38691930684852682E+00  4.30998289985475314E+00
  4.22730937208037272E+00  4.13884411621058579E+00  4.04454353166600988E+00
  3.94437548680028227E+00  3.83831972067332616E+00  3.72636817277961319E+00
  3.60852523015902227E+00  3.48480788977438971E+00  3.35524582879371147E+00
  3.21988137697393739E+00  3.07876939317730614E+00  2.93197705011779330E+00
  2.77958353426550975E+00  2.62167967984584660E+00  2.45836756180057758E+00
  2.28976008106532758E+00  2.11598059375031866E+00  1.93716265547439814E+00
  1.75344996279896126E+00  1.56499660353765147E+00  1.37196776792737229E+00
  1.17454109672092177E+00  9.72908887531542255E-01  7.67281420853957119E-01
  5.57890367769594775E-01  3.44990138978618077E-01  1.28858641257357798E-01
 -9.02020037351194681E-02 -3.11864783684244473E-01 -5.35777171166099242E-01
 -7.61560560150713051E-01 -9.88809768603435946E-01 -1.21709261697449489E+00
 -1.44594959452952421E+00 -1.67489362279662468E+00 -1.90340992066279813E+00
 -2.13095598818847387E+00 -2.35696172409149574E+00 -2.58082968005400959E+00
 -2.80193546497254209E+00 -3.01962832055042885E+00 -3.23323188318776200E+00
 -3.44204512795626094E+00 -3.64534352369320525E+00 -3.84238042089241461E+00
 -4.03238867570282356E+00 -4.21458251399489470E+00 -4.38815967209841951E+00
 -4.55230383395452609E+00 -4.70618734582568621E+00 -4.84897423916638015E+00
 -4.97982359161560595E+00 -5.09789323026119323E+00 -5.20234375065663013E+00
 -5.29234290260980789E+00 -5.36707035969681989E+00 -5.42572283671935018E+00
 -5.46751955808921419E+00 -5.49170811537247783E+00 -5.49757071008272202E+00
 -5.48443070596649740E+00 -5.45165953398981262E+00 -5.39868395282993863E+00
 -5.32499360812439271E+00 -5.23014882614424614E+00 -5.11378867786768510E+00
 -4.97563927780249049E+00 -4.81552219013667671E+00 -4.63336292849562614E+00
 -4.42919952641231784E+00 -4.20319108651085482E+00 -3.95562615557400221E+00
 -3.68693092549223822E+00 -3.39767716784148810E+00 -3.08858973284136074E+00
 -2.76055350280938416E+00 -2.41461973339695080E+00 -2.05201163162710776E+00
 -1.67412896387799481E+00 -1.28255160909334420E+00 -8.79041900628108719E-01
 -4.65545558164187190E-01 -4.41910391319594031E-02  3.82712831255671959E-01
  8.12681163617742452E-01  1.24305941556366384E+00  1.67103206382793479E+00
  2.09363374423825288E+00  2.50776305654123588E+00  2.91019909310899250E+00
  3.29762089998225738E+00  3.66663006297124383E+00  4.01377643115761451E+00
  4.33558697897649381E+00  4.62859799560380214E+00  4.88939065054542255E+00
  5.11462957985329414E+00  5.30110455310618889E+00  5.44577518326208754E+00
  5.54581831308543194E+00  5.59867745629216351E+00  5.60211424917815037E+00
  5.55426146900051698E+00  5.45367655165519682E+00  5.29939501283144487E+00
  5.09098322854646135E+00  4.82858953710386984E+00  4.51299205909687284E+00
  4.14564261256319444E+00  3.72870551068261458E+00  3.26508948780127861E+00
  2.75847126976449974E+00  2.21330971776636476E+00  1.63484888720176880E+00
  1.02910808203848236E+00  4.02857828905832216E-01 -2.36419641421590443E-01
 -8.80586897786017508E-01 -1.52092576580397343E+00 -2.14823045563142578E+00
 -2.75292021810809207E+00 -3.32517143292419481E+00 -3.85506867491161609E+00
 -4.33277439555680299E+00 -4.74871608201005735E+00 -5.09378778699271884E+00
 -5.35956417694361509E+00 -5.53852425678529947E+00 -5.62427977965064319E+00
 -5.61180284601552071E+00 -5.49764848633652292E+00 -5.28016606011179324E+00
 -4.95969037215669672E+00 -4.53870644599147255E+00 -4.02198082117648514E+00
 -3.41665037058316079E+00 -2.73225940020431368E+00 -1.98073933999937224E+00
 -1.17632342044307170E+00 -3.35388773098657555E-01  5.23777895361888013E-01
  1.38129390769725258E+00  2.21607556756722968E+00  3.00631205702730586E+00
  3.73001346288745461E+00  4.36562646487001516E+00  4.89270531580175128E+00
  5.29262095288416390E+00  5.54929143362254695E+00  5.64991176717188193E+00
  5.58565138868803679E+00  5.35229218568651444E+00  4.95077723147117332E+00
  4.38763449902549674E+00  3.67523793857468029E+00  2.83187939947047562E+00
  1.88162136620087139E+00  8.53901921377487438E-01 -2.17122056965506655E-01
 -1.29349964331212197E+00 -2.33467782291554116E+00 -3.29894145286754226E+00
 -4.14506722193848276E+00 -4.83414702393034101E+00 -5.33151329319555956E+00
 -5.60868000057913552E+00 -5.64521037925671454E+00 -5.43040670615403087E+00
 -4.96469414657797792E+00 -4.26058976017423863E+00 -3.34314966708906525E+00
 -2.24978866412666889E+00 -1.02938901073171252E+00  2.59335859104897981E-01
  1.55023564164049921E+00  2.77283856249364380E+00  3.85608437240584534E+00
  4.73252579098656323E+00  5.34279477040441009E+00  5.64005067375186897E+00
  5.59411240958859679E+00  5.19494814968623420E+00  4.45516283843118632E+00
  3.41115157404445757E+00  2.12266582811874027E+00  6.70590836452770844E-01
 -8.47163158128227400E-01 -2.32156798916933615E+00 -3.63995933101493296E+00
 -4.69469745201689737E+00 -5.39240128781370576E+00 -5.66303357027744614E+00
 -5.46801424086162413E+00 -4.80643197692668167E+00 -3.71850192299262527E+00
 -2.28557183405048914E+00 -6.26160715228742615E-01  1.11216213107648376E+00
  2.76475913905765669E+00  4.16507704134764012E+00  5.16178291681749535E+00
                              </PP_PSWFC.4>
                             </PP_FULL_WFC> 
 <PP_RHOATOM type="real" size="   888" columns="3">
  8.86107977737988260E-07  9.08539905440459125E-07  9.31539699965476114E-07
  9.55121736923387081E-07  9.79300755844538621E-07  1.00409186939183140E-06
  1.02951057280670960E-06  1.05557275359415068E-06  1.08229470145274074E-06
  1.10969311845636734E-06  1.13778512949347153E-06  1.16658829297055753E-06
  1.19612061178686458E-06  1.22640054458662716E-06  1.25744701729628768E-06
  1.28927943495387432E-06  1.32191769383758781E-06  1.35538219390168231E-06
  1.38969385152705465E-06  1.42487411259449750E-06  1.46094496588918323E-06
  1.49792895684416563E-06  1.53584920163201135E-06  1.57472940161315017E-06
  1.61459385814977885E-06  1.65546748779512526E-06  1.69737583786684839E-06
  1.74034510241498940E-06  1.78440213859398942E-06  1.82957448344913806E-06
  1.87589037112817665E-06  1.92337875052825069E-06  1.97206930339005980E-06
  2.02199246284956161E-06  2.07317943245977736E-06  2.12566220569374565E-06
  2.17947358594145791E-06  2.23464720701288803E-06  2.29121755416004700E-06
  2.34921998563134264E-06  2.40869075477133958E-06  2.46966703268029207E-06
  2.53218693144694054E-06  2.59628952796982715E-06  2.66201488838125831E-06
  2.72940409308992694E-06  2.79849926245711874E-06  2.86934358312328227E-06
  2.94198133500068833E-06  3.01645791894973301E-06  3.09281988515558585E-06
  3.17111496222336584E-06  3.25139208700983119E-06  3.33370143521009315E-06
  3.41809445271898203E-06  3.50462388778578295E-06  3.59334382398361088E-06
  3.68430971401272530E-06  3.77757841436017439E-06  3.87320822083641221E-06
  3.97125890501166354E-06  4.07179175157481854E-06  4.17486959663764966E-06
  4.28055686700924755E-06  4.38891962046415801E-06  4.50002558703016779E-06
  4.61394421132135536E-06  4.73074669594239441E-06  4.85050604599215107E-06
  4.97329711469350887E-06  5.09919665017826883E-06  5.22828334345677926E-06
  5.36063787760141970E-06  5.49634297817537992E-06  5.63548346493822518E-06
  5.77814630485986130E-06  5.92442066647690981E-06  6.07439797562512872E-06
  6.22817197258234395E-06  6.38583877065815958E-06  6.54749691626688719E-06
  6.71324745052105181E-06  6.88319397238402034E-06  7.05744270342159707E-06
  7.23610255419264558E-06  7.41928519232010214E-06  7.60710511228546905E-06
  7.79967970699008995E-06  7.99712934112785335E-06  8.19957742641522262E-06
  8.40715049872574667E-06  8.61997829717727637E-06  8.83819384522109164E-06
  9.06193353378366725E-06  9.29133720651327651E-06  9.52654824718442996E-06
  9.76771366931500819E-06  1.00149842080518674E-05  1.02685144143824023E-05
  1.05284627517311615E-05  1.07949916950015594E-05  1.10682678321248812E-05
  1.13484619681797937E-05  1.16357492321475465E-05  1.19303091863696723E-05
  1.22323259387762663E-05  1.25419882579555053E-05  1.28594896911358195E-05
  1.31850286851547035E-05  1.35188087104897948E-05  1.38610383884294422E-05
  1.42119316214626270E-05  1.45717077269694801E-05  1.49405915742959710E-05
  1.53188137252985938E-05  1.57066105784464776E-05  1.61042245165715265E-05
  1.65119040583584706E-05  1.69299040136697053E-05  1.73584856428020167E-05
  1.77979168197744257E-05  1.82484721997496575E-05  1.87104333906934217E-05
  1.91840891293790359E-05  1.96697354618473892E-05  2.01676759284346143E-05
  2.06782217534837508E-05  2.12016920398583843E-05  2.17384139683800738E-05
  2.22887230023142788E-05  2.28529630970320439E-05  2.34314869149792732E-05
  2.40246560460871848E-05  2.46328412337621177E-05  2.52564226065956498E-05
  2.58957899159401213E-05  2.65513427794973969E-05  2.72234909310739304E-05
  2.79126544766574763E-05  2.86192641569757376E-05  2.93437616167012076E-05
  3.00865996804697473E-05  3.08482426358862636E-05  3.16291665236936227E-05
  3.24298594352862748E-05  3.32508218177548682E-05  3.40925667866515394E-05
  3.49556204466722903E-05  3.58405222204562592E-05  3.67478251857073751E-05
  3.76780964208495091E-05  3.86319173594298440E-05  3.96098841534933861E-05
  4.06126080461543780E-05  4.16407157535982712E-05  4.26948498567529525E-05
  4.37756692028727022E-05  4.48838493172870625E-05  4.60200828255710373E-05
  4.71850798864010727E-05  4.83795686353673005E-05  4.96042956400176020E-05
  5.08600263664193264E-05  5.21475456575304789E-05  5.34676582236783433E-05
  5.48211891454516569E-05  5.62089843893198355E-05  5.76319113363049819E-05
  5.90908593240325368E-05  6.05867402024999667E-05  6.21204889039140385E-05
  6.36930640269486208E-05  6.53054484357885423E-05  6.69586498743361669E-05
  6.86537015959629346E-05  7.03916630091962886E-05  7.21736203397501915E-05
  7.40006873093110372E-05  7.58740058314977863E-05  7.77947467254412134E-05
  7.97641104474183999E-05  8.17833278410017819E-05  8.38536609061977145E-05
  8.59764035880424530E-05  8.81528825851608718E-05  9.03844581787848503E-05
  9.26725250827478675E-05  9.50185133149973913E-05  9.74238890911510898E-05
  9.98901557406762629E-05  1.02418854646243635E-04  1.05011566206858879E-04
  1.07669910825361126E-04  1.10395549920912534E-04  1.13190186967107871E-04
  1.16055568556350857E-04  1.18993485491165936E-04  1.22005773903119969E-04
  1.25094316400062175E-04  1.28261043242385215E-04  1.31507933549057150E-04
  1.34837016534159523E-04  1.38250372774720352E-04  1.41750135510620713E-04
  1.45338491977390396E-04  1.49017684772730693E-04  1.52790013257598096E-04
  1.56657834992753937E-04  1.60623567211637045E-04  1.64689688330521441E-04
  1.68858739496860152E-04  1.73133326176812404E-04  1.77516119782929031E-04
  1.82009859343008575E-04  1.86617353211185403E-04  1.91341480822284802E-04
  1.96185194490571766E-04  2.01151521253995532E-04  2.06243564765078044E-04
  2.11464507229649226E-04  2.16817611394604467E-04  2.22306222585945466E-04
  2.27933770798381652E-04  2.33703772837761135E-04  2.39619834517707295E-04
  2.45685652911811791E-04  2.51905018662768184E-04  2.58281818349927390E-04
  2.64820036916722421E-04  2.71523760159468001E-04  2.78397177279113370E-04
  2.85444583497522475E-04  2.92670382739901541E-04  3.00079090385060897E-04
  3.07675336085229238E-04  3.15463866657158404E-04  3.23449549046316291E-04
  3.31637373366045461E-04  3.40032456013554161E-04  3.48640042864677081E-04
  3.57465512549403751E-04  3.66514379810222682E-04  3.75792298945358820E-04
  3.85305067339044183E-04  3.95058629081022894E-04  4.05059078677554962E-04
  4.15312664856217861E-04  4.25825794466862099E-04  4.36605036481155944E-04
  4.47657126093220948E-04  4.58988968923889707E-04  4.70607645331209046E-04
  4.82520414829858298E-04  4.94734720622236833E-04  5.07258194244045450E-04
  5.20098660327238398E-04  5.33264141483308558E-04  5.46762863309930712E-04
  5.60603259524086804E-04  5.74793977224852238E-04  5.89343882289116859E-04
  6.04262064903592750E-04  6.19557845236528193E-04  6.35240779252663830E-04
  6.51320664675032290E-04  6.67807547097294522E-04  6.84711726250422062E-04
  7.02043762427595084E-04  7.19814483071307934E-04  7.38034989526764498E-04
  7.56716663965740837E-04  7.75871176485225114E-04  7.95510492385208810E-04
  8.15646879630153388E-04  8.36292916498752956E-04  8.57461499426719607E-04
  8.79165851047456902E-04  9.01419528435582385E-04  9.24236431558415027E-04
  9.47630811940647398E-04  9.71617281547552123E-04  9.96210821892234153E-04
  1.02142679337253214E-03  1.04728094484336049E-03  1.07378942343038875E-03
  1.10096878459111681E-03  1.12883600242957632E-03  1.15740848027099047E-03
  1.18670406150294424E-03  1.21674104068973969E-03  1.24753817496677097E-03
  1.27911469572197681E-03  1.31149032057152203E-03  1.34468526563712057E-03
  1.37872025813253613E-03  1.41361654926699942E-03  1.44939592747350449E-03
  1.48608073197007860E-03  1.52369386666239442E-03  1.56225881439624702E-03
  1.60179965156863379E-03  1.64234106310643855E-03  1.68390835782186851E-03
  1.72652748415408320E-03  1.77022504630666429E-03  1.81502832079077588E-03
  1.86096527338419767E-03  1.90806457651654707E-03  1.95635562709136875E-03
  2.00586856475596211E-03  2.05663429063009670E-03  2.10868448650507927E-03
  2.16205163452484576E-03  2.21676903736110374E-03  2.27287083889482749E-03
  2.33039204541664498E-03  2.38936854735910054E-03  2.44983714157391086E-03
  2.51183555416783621E-03  2.57540246391099042E-03  2.64057752623177242E-03
  2.70740139781302461E-03  2.77591576180425542E-03  2.84616335366522956E-03
  2.91818798765654990E-03  2.99203458399320468E-03  3.06774919667752088E-03
  3.14537904202828473E-03  3.22497252792320948E-03  3.30657928377240838E-03
  3.39025019124082182E-03  3.47603741573813876E-03  3.56399443869506814E-03
  3.65417609064530710E-03  3.74663858513307269E-03  3.84143955346640713E-03
  3.93863808033708025E-03  4.03829474032835374E-03  4.14047163533233249E-03
  4.24523243289927094E-03  4.35264240554150087E-03  4.46276847101545037E-03
  4.57567923360560191E-03  4.69144502643478820E-03  4.81013795482598903E-03
  4.93183194074104953E-03  5.05660276832267403E-03  5.18452813056643081E-03
  5.31568767715030234E-03  5.45016306344982444E-03  5.58803800076741481E-03
  5.72939830780542971E-03  5.87433196341292669E-03  6.02292916063684129E-03
  6.17528236210914978E-03  6.33148635680187873E-03  6.49163831818328884E-03
  6.65583786380871331E-03  6.82418711638028801E-03  6.99679076631088206E-03
  7.17375613582809084E-03  7.35519324465511160E-03  7.54121487730602304E-03
  7.73193665203358513E-03  7.92747709146970903E-03  8.12795769499792542E-03
  8.33350301289901771E-03  8.54424072231174149E-03  8.76030170505127936E-03
  8.98182012732928574E-03  9.20893352141956105E-03  9.44178286931646703E-03
  9.68051268843151021E-03  9.92527111937562510E-03  1.01762100158759826E-02
  1.04334850368767041E-02  1.06972557408735701E-02  1.09676856825352831E-02
  1.12449425116644148E-02  1.15291980745505420E-02  1.18206285177706386E-02
  1.21194143944929403E-02  1.24257407733404483E-02  1.27397973498728015E-02
  1.30617785607479633E-02  1.33918837006211863E-02  1.37303170418437964E-02
  1.40772879570245767E-02  1.44330110445161450E-02  1.47977062568937986E-02
  1.51715990324944264E-02  1.55549204300796107E-02  1.59479072666929185E-02
  1.63508022587807202E-02  1.67638541666458862E-02  1.71873179423128151E-02
  1.76214548808741357E-02  1.80665327753921495E-02  1.85228260754320626E-02
  1.89906160493020573E-02  1.94701909500811822E-02  1.99618461855202572E-02
  2.04658844918880166E-02  2.09826161118470932E-02  2.15123589764415687E-02
  2.20554388912786101E-02  2.26121897270030701E-02  2.31829536141390687E-02
  2.37680811423878237E-02  2.43679315644700044E-02  2.49828730045976478E-02
  2.56132826716860482E-02  2.62595470773820013E-02  2.69220622590008798E-02
  2.76012340074659399E-02  2.82974781003381554E-02  2.90112205400578950E-02
  2.97428977974739106E-02  3.04929570607551798E-02  3.12618564897817128E-02
  3.20500654761068440E-02  3.28580649086231691E-02  3.36863474449984462E-02
  3.45354177889836272E-02  3.54057929736838958E-02  3.62980026508996356E-02
  3.72125893866669805E-02  3.81501089630538609E-02  3.91111306863191066E-02
  4.00962377015133820E-02  4.11060273136596224E-02  4.21411113156085690E-02
  4.32021163226267851E-02  4.42896841138191374E-02  4.54044719804571825E-02
  4.65471530813861833E-02  4.77184168055339517E-02  4.89189691416044570E-02
  5.01495330550216986E-02  5.14108488722421000E-02  5.27036746725581609E-02
  5.40287866873812583E-02  5.53869797070900977E-02  5.67790674954771479E-02
  5.82058832119895023E-02  5.96682798417232582E-02  6.11671306332079098E-02
  6.27033295439941296E-02  6.42777916941709576E-02  6.58914538278864287E-02
  6.75452747827691713E-02  6.92402359672816686E-02  7.09773418459942046E-02
  7.27576204329873494E-02  7.45821237931652281E-02  7.64519285514741603E-02
  7.83681364099204081E-02  8.03318746725984606E-02  8.23442967785416591E-02
  8.44065828422358444E-02  8.65199402016567920E-02  8.86856039739141455E-02
  9.09048376184562745E-02  9.31789335074461739E-02  9.55092135031492678E-02
  9.78970295422146447E-02  1.00343764226977022E-01  1.02850831423144592E-01
  1.05419676863658704E-01  1.08051778758384856E-01  1.10748648409883604E-01
  1.13511830834437485E-01  1.16342905387969098E-01  1.19243486396317322E-01
  1.22215223790128419E-01  1.25259803743441617E-01  1.28378949315337720E-01
  1.31574421093941796E-01  1.34848017842951529E-01  1.38201577149731081E-01
  1.41636976073972715E-01  1.45156131796033566E-01  1.48761002264962194E-01
  1.52453586845236022E-01  1.56235926960756916E-01  1.60110106734996760E-01
  1.64078253627104736E-01  1.68142539062956869E-01  1.72305179059163982E-01
  1.76568434838656724E-01  1.80934613437432945E-01  1.85406068301353366E-01
  1.89985199870385285E-01  1.94674456148574287E-01  1.99476333259095806E-01
  2.04393375983079634E-01  2.09428178278913857E-01  2.14583383779876624E-01
  2.19861686269235412E-01  2.25265830131172573E-01  2.30798610773462143E-01
  2.36462875019212038E-01  2.42261521466653140E-01  2.48197500814787392E-01
  2.54273816149959697E-01  2.60493523190015897E-01  2.66859730484961866E-01
  2.73375599571086203E-01  2.80044345072698098E-01  2.86869234747356816E-01
  2.93853589473574928E-01  3.01000783176693820E-01  3.08314242686157647E-01
  3.15797447519136021E-01  3.23453929589713973E-01  3.31287272837532232E-01
  3.39301112768237878E-01  3.47499135899646650E-01  3.55885079113212710E-01
  3.64462728902242683E-01  3.73235920508432906E-01  3.82208536939575849E-01
  3.91384507868391518E-01  4.00767808400848746E-01  4.10362457704870898E-01
  4.20172517491406938E-01  4.30202090347821253E-01  4.40455317908487354E-01
  4.50936378852758613E-01  4.61649486722043090E-01  4.72598887554871949E-01
  4.83788857321526322E-01  4.95223699147392504E-01  5.06907740317537048E-01
  5.18845329058551741E-01  5.31040831076728281E-01  5.43498625840292737E-01
  5.56223102600117980E-01  5.69218656139955148E-01  5.82489682234004658E-01
  5.96040572797869150E-01  6.09875710730032883E-01  6.23999464427858364E-01
  6.38416181956158790E-01  6.53130184852973805E-01  6.68145761572236707E-01
  6.83467160539157903E-01  6.99098582797835877E-01  7.15044174235657470E-01
  7.31308017384590725E-01  7.47894122768117287E-01  7.64806419774998969E-01
  7.82048747047193626E-01  7.99624842377806733E-01  8.17538332084975283E-01
  8.35792719843859055E-01  8.54391374969424966E-01  8.73337520137351442E-01
  8.92634218511333621E-01  9.12284360259959848E-01  9.32290648461592375E-01
  9.52655584374768161E-01  9.73381452049152829E-01  9.94470302262957517E-01
  1.01592393578796814E+00  1.03774388595389344E+00  1.05993140049610135E+00
  1.08248742267856946E+00  1.10541257169031071E+00  1.12870712229091397E+00
  1.15237098369876034E+00  1.17640367772083643E+00  1.20080431611778859E+00
  1.22557157719431897E+00  1.25070368161934220E+00  1.27619836747736870E+00
  1.30205286454934832E+00  1.32826386783330830E+00  1.35482751032266435E+00
  1.38173933503859714E+00  1.40899426633903713E+00  1.43658658053667221E+00
  1.46450987585349868E+00  1.49275704170693335E+00  1.52132022739294626E+00
  1.55019081022436844E+00  1.57935936314285841E+00  1.60881562182991811E+00
  1.63854845142808125E+00  1.66854581296255189E+00  1.69879472944713328E+00
  1.72928125178557268E+00  1.75999042461541766E+00  1.79090625220643829E+00
  1.82201166436642414E+00  1.85328848259750267E+00  1.88471738668350519E+00
  1.91627788178375114E+00  1.94794826604497673E+00  1.97970559908844201E+00
  2.01152567160304230E+00  2.04338297599959429E+00  2.07525067834757770E+00
  2.10710059200196875E+00  2.13890315318690272E+00  2.17062739835242358E+00
  2.20224094385533142E+00  2.23370996837653868E+00  2.26499919824226881E+00
  2.29607189552449631E+00  2.32688984973627067E+00  2.35741337356204905E+00
  2.38760130247515256E+00  2.41741099853901709E+00  2.44679835925454237E+00
  2.47571783190758099E+00  2.50412243288025360E+00  2.53196377290628893E+00
  2.55919208900895923E+00  2.58575628332156970E+00  2.61160396826088759E+00
  2.63668151953950014E+00  2.66093413764261255E+00  2.68430591726969103E+00
  2.70673992496898563E+00  2.72817828639920457E+00  2.74856228372424294E+00
  2.76783246181749432E+00  2.78592874471298435E+00  2.80279056327766263E+00
  2.81835699402360973E+00  2.83256690769154140E+00  2.84535912978523342E+00
  2.85667261357675129E+00  2.86644662420240781E+00  2.87462093375554595E+00
  2.88113602916966238E+00  2.88593333298997701E+00  2.88895543434953828E+00
  2.89014633186836445E+00  2.88945168920988182E+00  2.88681910231642913E+00
  2.88219837580054516E+00  2.87554181095147365E+00  2.86680450516883401E+00
  2.85594466004049208E+00  2.84292389753169195E+00  2.82770758574801961E+00
  2.81026517335538051E+00  2.79057052864687360E+00  2.76860228489313975E+00
  2.74434419180579070E+00  2.71778547092912603E+00  2.68892117195632263E+00
  2.65775253187201654E+00  2.62428733567383032E+00  2.58854027516006679E+00
  2.55053330527693589E+00  2.51029599839680628E+00  2.46786589468936413E+00
  2.42328884517766596E+00  2.37661934843571965E+00  2.32792087967323624E+00
  2.27726620985915718E+00  2.22473771323666991E+00  2.17042766321478275E+00
  2.11443851446582887E+00  2.05688316918863467E+00  1.99788522661861467E+00
  1.93757921365709085E+00  1.87611079374670453E+00  1.81363695287504889E+00
  1.75032615936978408E+00  1.68635849303976304E+00  1.62192574054931149E+00
  1.55723145426409970E+00  1.49249096677391435E+00  1.42793135350663114E+00
  1.36379134060165219E+00  1.30032114822338518E+00  1.23778225681647913E+00
  1.17644708561949263E+00  1.11659857848006605E+00  1.05852967691925937E+00
  1.00254266299817174E+00  9.48948362133154810E-01  8.98065191596231993E-01
  8.50218027858799075E-01  8.05736871368499141E-01  7.64955304481242937E-01
  7.28208713001718966E-01  6.95832243187033961E-01  6.68158477164796150E-01
  6.45514822009042200E-01  6.28220527742464063E-01  6.16583176932050225E-01
  6.10894903745236917E-01  6.11427749362724038E-01  6.18356490535936665E-01
  6.27983585052793614E-01  6.37669762387690797E-01  6.47401315426818558E-01
  6.57143931221618072E-01  6.66862063646420977E-01  6.76520673796416339E-01
  6.86085341410457739E-01  6.95522315298296223E-01  7.04798563745369422E-01
  7.13881826195125635E-01  7.22740667022573557E-01  7.31344530209185550E-01
  7.39663792092094319E-01  7.47669814874635130E-01  7.55335000641159549E-01
  7.62632843564873708E-01  7.69537979959087348E-01  7.76026237832765253E-01
  7.82074685282716175E-01  7.87661675033270559E-01  7.92766886894154199E-01
  7.97371368389501733E-01  8.01457572349939307E-01  8.05009390176954609E-01
  8.08012182628917608E-01  8.10452807756146920E-01  8.12319644349183578E-01
  8.13602611512417861E-01  8.14293185059616453E-01  8.14384410178261020E-01
  8.13870909236909412E-01  8.12748885998084369E-01  8.11016126082084288E-01
  8.08671993032776704E-01  8.05717420014915309E-01  8.02154897724728477E-01
  7.97988458175432624E-01  7.93223654104755704E-01  7.87867534438238315E-01
  7.81928615708857966E-01  7.75416849274322417E-01  7.68343584730054707E-01
  7.60721529435355093E-01  7.52564703885913344E-01  7.43888393442941442E-01
  7.34709096671865791E-01  7.25044469812809234E-01  7.14913267318323387E-01
  7.04335279767726474E-01  6.93331268425497305E-01  6.81922896104003251E-01
  6.70132655085935891E-01  6.57983793089959357E-01  6.45500236056723797E-01
  6.32706507721036648E-01  6.19627647942308069E-01  6.06289129211827760E-01
  5.92716770629690970E-01  5.78936650018793686E-01  5.64975016378567285E-01
  5.50858200912242468E-01  5.36612526681566560E-01  5.22264218964978655E-01
  5.07839316843272326E-01  4.93363584751919437E-01  4.78862424634739048E-01
  4.64360791702465192E-01  4.49883112292783716E-01  4.35453203750919560E-01
  4.21094198003962583E-01  4.06828470600017589E-01  3.92677573413504510E-01
  3.78662171561805316E-01  3.64801987136259553E-01  3.51115749041900682E-01
  3.37621148198547105E-01  3.24334798975687788E-01  3.11272208823910823E-01
  2.98447754065526594E-01  2.85874661877392355E-01  2.73564999733212466E-01
  2.61529672123394508E-01  2.49778423094452445E-01  2.38319844720512070E-01
  2.27161392466002171E-01  2.16309405821385803E-01  2.05769133658864678E-01
  1.95544764423694867E-01  1.85639460943823803E-01  1.76055398503505683E-01
  1.66793805960977953E-01  1.57855009790473177E-01  1.49238480145826968E-01
  1.40942878403131550E-01  1.32966105952958963E-01  1.25305353634764111E-01
  1.17957151323591969E-01  1.10917417534329321E-01  1.04181508539742257E-01
  9.77442664551542856E-02  9.16000663981848678E-02  8.57428626557258655E-02
  8.01662329590504680E-02  7.48634211344644668E-02  6.98273783621006922E-02
  6.50508027131602024E-02  6.05261762938641423E-02  5.62458008540209081E-02
  5.22018319987268553E-02  4.83863111462631348E-02  4.47911955644020796E-02
  4.14083871576925583E-02  3.82297599186414705E-02  3.52471850668850673E-02
  3.24525550158678774E-02  2.98378064012595409E-02  2.73949415122991084E-02
  2.51160479730372262E-02  2.29933176264279990E-02  2.10190645834570505E-02
  1.91857413419317217E-02  1.74859538159582127E-02  1.59124756142043806E-02
  1.44582611275776065E-02  1.31164567624910532E-02  1.18804113559207655E-02
  1.07436857455721225E-02  9.70006060860309494E-03  8.74354291189792868E-03
  7.86837150808596293E-03  7.06902166875119330E-03  6.34020774728069874E-03
  5.67688490287874409E-03  5.07424997584574825E-03  4.52774101588442751E-03
  4.03303542194764775E-03  3.58604738449565079E-03  3.18292458441276661E-03
  2.82004354658403796E-03  2.49400427400157249E-03  2.20162440458618758E-03
  1.93993270303334194E-03  1.70616166182266274E-03  1.49773985919670781E-03
  1.31228410075889227E-03  1.14759101986694739E-03  1.00162841293348456E-03
  8.72526607401535740E-04  7.58569812125253285E-04  6.58187213111211152E-04
  5.69944246303860842E-04  4.92534094122902815E-04  4.24769261613898213E-04
  3.65573270220019108E-04  3.13972710658272174E-04  2.69089628673565542E-04
  2.30134082623912407E-04  1.96397063823834845E-04  1.67243825141830945E-04
  1.42107550627128325E-04  1.20483309490244364E-04  1.01922432553643936E-04
  8.60272835731760982E-05  7.24463360710866266E-05  6.08695977186908226E-05
  5.10244117433429777E-05  4.26715944842397067E-05  3.56018471859819845E-05
  2.96324940428768941E-05  2.46045237131528687E-05  2.03798874760013546E-05
  1.68390409636824372E-05  1.38787409387383593E-05  1.14100691827451337E-05
  9.35664459399336530E-06  7.65303043110135363E-06  6.24332266949429198E-06
  5.07989489719712476E-06  4.12228044179648202E-06  3.33619226740926211E-06
  2.69266395322006092E-06  2.16729230900147038E-06  1.73957580368408227E-06
  1.39234133025540012E-06  1.11124700305591771E-06  8.84349145334531980E-07
  7.01730639260081744E-07  5.55182507178385100E-07  4.37930237784363697E-07
                             </PP_RHOATOM> 
<PP_PAW paw_data_format="2"> 
   <PP_OCCUPATIONS type="real" columns="3" size=" 4">
  2.00000000000000000E+00  2.00000000000000000E+00  0.00000000000000000E+00
  0.00000000000000000E+00
                             </PP_OCCUPATIONS> 
 <PP_AE_NLCC type="real" size="   888" columns="3">
  0.00000000000000000E+00  0.00000000000000000E+00  0.00000000000000000E+00
  0.00000000000000000E+00  0.00000000000000000E+00  0.00000000000000000E+00
  0.00000000000000000E+00  0.00000000000000000E+00  0.00000000000000000E+00
  0.00000000000000000E+00  0.00000000000000000E+00  0.00000000000000000E+00
  0.00000000000000000E+00  0.00000000000000000E+00  0.00000000000000000E+00
  0.00000000000000000E+00  0.00000000000000000E+00  0.00000000000000000E+00
  0.00000000000000000E+00  0.00000000000000000E+00  0.00000000000000000E+00
  0.00000000000000000E+00  0.00000000000000000E+00  0.00000000000000000E+00
  0.00000000000000000E+00  0.00000000000000000E+00  0.00000000000000000E+00
  0.00000000000000000E+00  0.00000000000000000E+00  0.00000000000000000E+00
  0.00000000000000000E+00  0.00000000000000000E+00  0.00000000000000000E+00
  0.00000000000000000E+00  0.00000000000000000E+00  0.00000000000000000E+00
  0.00000000000000000E+00  0.00000000000000000E+00  0.00000000000000000E+00
  0.00000000000000000E+00  0.00000000000000000E+00  0.00000000000000000E+00
  0.00000000000000000E+00  0.00000000000000000E+00  0.00000000000000000E+00
  0.00000000000000000E+00  0.00000000000000000E+00  0.00000000000000000E+00
  0.00000000000000000E+00  0.00000000000000000E+00  0.00000000000000000E+00
  0.00000000000000000E+00  0.00000000000000000E+00  0.00000000000000000E+00
  0.00000000000000000E+00  0.00000000000000000E+00  0.00000000000000000E+00
  0.00000000000000000E+00  0.00000000000000000E+00  0.00000000000000000E+00
  0.00000000000000000E+00  0.00000000000000000E+00  0.00000000000000000E+00
  0.00000000000000000E+00  0.00000000000000000E+00  0.00000000000000000E+00
  0.00000000000000000E+00  0.00000000000000000E+00  0.00000000000000000E+00
  0.00000000000000000E+00  0.00000000000000000E+00  0.00000000000000000E+00
  0.00000000000000000E+00  0.00000000000000000E+00  0.00000000000000000E+00
  0.00000000000000000E+00  0.00000000000000000E+00  0.00000000000000000E+00
  0.00000000000000000E+00  0.00000000000000000E+00  0.00000000000000000E+00
  0.00000000000000000E+00  0.00000000000000000E+00  0.00000000000000000E+00
  0.00000000000000000E+00  0.00000000000000000E+00  0.00000000000000000E+00
  0.00000000000000000E+00  0.00000000000000000E+00  0.00000000000000000E+00
  0.00000000000000000E+00  0.00000000000000000E+00  0.00000000000000000E+00
  0.00000000000000000E+00  0.00000000000000000E+00  0.00000000000000000E+00
  0.00000000000000000E+00  0.00000000000000000E+00  0.00000000000000000E+00
  0.00000000000000000E+00  0.00000000000000000E+00  0.00000000000000000E+00
  0.00000000000000000E+00  0.00000000000000000E+00  0.00000000000000000E+00
  0.00000000000000000E+00  0.00000000000000000E+00  0.00000000000000000E+00
  0.00000000000000000E+00  0.00000000000000000E+00  0.00000000000000000E+00
  0.00000000000000000E+00  0.00000000000000000E+00  0.00000000000000000E+00
  0.00000000000000000E+00  0.00000000000000000E+00  0.00000000000000000E+00
  0.00000000000000000E+00  0.00000000000000000E+00  0.00000000000000000E+00
  0.00000000000000000E+00  0.00000000000000000E+00  0.00000000000000000E+00
  0.00000000000000000E+00  0.00000000000000000E+00  0.00000000000000000E+00
  0.00000000000000000E+00  0.00000000000000000E+00  0.00000000000000000E+00
  0.00000000000000000E+00  0.00000000000000000E+00  0.00000000000000000E+00
  0.00000000000000000E+00  0.00000000000000000E+00  0.00000000000000000E+00
  0.00000000000000000E+00  0.00000000000000000E+00  0.00000000000000000E+00
  0.00000000000000000E+00  0.00000000000000000E+00  0.00000000000000000E+00
  0.00000000000000000E+00  0.00000000000000000E+00  0.00000000000000000E+00
  0.00000000000000000E+00  0.00000000000000000E+00  0.00000000000000000E+00
  0.00000000000000000E+00  0.00000000000000000E+00  0.00000000000000000E+00
  0.00000000000000000E+00  0.00000000000000000E+00  0.00000000000000000E+00
  0.00000000000000000E+00  0.00000000000000000E+00  0.00000000000000000E+00
  0.00000000000000000E+00  0.00000000000000000E+00  0.00000000000000000E+00
  0.00000000000000000E+00  0.00000000000000000E+00  0.00000000000000000E+00
  0.00000000000000000E+00  0.00000000000000000E+00  0.00000000000000000E+00
  0.00000000000000000E+00  0.00000000000000000E+00  0.00000000000000000E+00
  0.00000000000000000E+00  0.00000000000000000E+00  0.00000000000000000E+00
  0.00000000000000000E+00  0.00000000000000000E+00  0.00000000000000000E+00
  0.00000000000000000E+00  0.00000000000000000E+00  0.00000000000000000E+00
  0.00000000000000000E+00  0.00000000000000000E+00  0.00000000000000000E+00
  0.00000000000000000E+00  0.00000000000000000E+00  0.00000000000000000E+00
  0.00000000000000000E+00  0.00000000000000000E+00  0.00000000000000000E+00
  0.00000000000000000E+00  0.00000000000000000E+00  0.00000000000000000E+00
  0.00000000000000000E+00  0.00000000000000000E+00  0.00000000000000000E+00
  0.00000000000000000E+00  0.00000000000000000E+00  0.00000000000000000E+00
  0.00000000000000000E+00  0.00000000000000000E+00  0.00000000000000000E+00
  0.00000000000000000E+00  0.00000000000000000E+00  0.00000000000000000E+00
  0.00000000000000000E+00  0.00000000000000000E+00  0.00000000000000000E+00
  0.00000000000000000E+00  0.00000000000000000E+00  0.00000000000000000E+00
  0.00000000000000000E+00  0.00000000000000000E+00  0.00000000000000000E+00
  0.00000000000000000E+00  0.00000000000000000E+00  0.00000000000000000E+00
  0.00000000000000000E+00  0.00000000000000000E+00  0.00000000000000000E+00
  0.00000000000000000E+00  0.00000000000000000E+00  0.00000000000000000E+00
  0.00000000000000000E+00  0.00000000000000000E+00  0.00000000000000000E+00
  0.00000000000000000E+00  0.00000000000000000E+00  0.00000000000000000E+00
  0.00000000000000000E+00  0.00000000000000000E+00  0.00000000000000000E+00
  0.00000000000000000E+00  0.00000000000000000E+00  0.00000000000000000E+00
  0.00000000000000000E+00  0.00000000000000000E+00  0.00000000000000000E+00
  0.00000000000000000E+00  0.00000000000000000E+00  0.00000000000000000E+00
  0.00000000000000000E+00  0.00000000000000000E+00  0.00000000000000000E+00
  0.00000000000000000E+00  0.00000000000000000E+00  0.00000000000000000E+00
  0.00000000000000000E+00  0.00000000000000000E+00  0.00000000000000000E+00
  0.00000000000000000E+00  0.00000000000000000E+00  0.00000000000000000E+00
  0.00000000000000000E+00  0.00000000000000000E+00  0.00000000000000000E+00
  0.00000000000000000E+00  0.00000000000000000E+00  0.00000000000000000E+00
  0.00000000000000000E+00  0.00000000000000000E+00  0.00000000000000000E+00
  0.00000000000000000E+00  0.00000000000000000E+00  0.00000000000000000E+00
  0.00000000000000000E+00  0.00000000000000000E+00  0.00000000000000000E+00
  0.00000000000000000E+00  0.00000000000000000E+00  0.00000000000000000E+00
  0.00000000000000000E+00  0.00000000000000000E+00  0.00000000000000000E+00
  0.00000000000000000E+00  0.00000000000000000E+00  0.00000000000000000E+00
  0.00000000000000000E+00  0.00000000000000000E+00  0.00000000000000000E+00
  0.00000000000000000E+00  0.00000000000000000E+00  0.00000000000000000E+00
  0.00000000000000000E+00  0.00000000000000000E+00  0.00000000000000000E+00
  0.00000000000000000E+00  0.00000000000000000E+00  0.00000000000000000E+00
  0.00000000000000000E+00  0.00000000000000000E+00  0.00000000000000000E+00
  0.00000000000000000E+00  0.00000000000000000E+00  0.00000000000000000E+00
  0.00000000000000000E+00  0.00000000000000000E+00  0.00000000000000000E+00
  0.00000000000000000E+00  0.00000000000000000E+00  0.00000000000000000E+00
  0.00000000000000000E+00  0.00000000000000000E+00  0.00000000000000000E+00
  0.00000000000000000E+00  0.00000000000000000E+00  0.00000000000000000E+00
  0.00000000000000000E+00  0.00000000000000000E+00  0.00000000000000000E+00
  0.00000000000000000E+00  0.00000000000000000E+00  0.00000000000000000E+00
  0.00000000000000000E+00  0.00000000000000000E+00  0.00000000000000000E+00
  0.00000000000000000E+00  0.00000000000000000E+00  0.00000000000000000E+00
  0.00000000000000000E+00  0.00000000000000000E+00  0.00000000000000000E+00
  0.00000000000000000E+00  0.00000000000000000E+00  0.00000000000000000E+00
  0.00000000000000000E+00  0.00000000000000000E+00  0.00000000000000000E+00
  0.00000000000000000E+00  0.00000000000000000E+00  0.00000000000000000E+00
  0.00000000000000000E+00  0.00000000000000000E+00  0.00000000000000000E+00
  0.00000000000000000E+00  0.00000000000000000E+00  0.00000000000000000E+00
  0.00000000000000000E+00  0.00000000000000000E+00  0.00000000000000000E+00
  0.00000000000000000E+00  0.00000000000000000E+00  0.00000000000000000E+00
  0.00000000000000000E+00  0.00000000000000000E+00  0.00000000000000000E+00
  0.00000000000000000E+00  0.00000000000000000E+00  0.00000000000000000E+00
  0.00000000000000000E+00  0.00000000000000000E+00  0.00000000000000000E+00
  0.00000000000000000E+00  0.00000000000000000E+00  0.00000000000000000E+00
  0.00000000000000000E+00  0.00000000000000000E+00  0.00000000000000000E+00
  0.00000000000000000E+00  0.00000000000000000E+00  0.00000000000000000E+00
  0.00000000000000000E+00  0.00000000000000000E+00  0.00000000000000000E+00
  0.00000000000000000E+00  0.00000000000000000E+00  0.00000000000000000E+00
  0.00000000000000000E+00  0.00000000000000000E+00  0.00000000000000000E+00
  0.00000000000000000E+00  0.00000000000000000E+00  0.00000000000000000E+00
  0.00000000000000000E+00  0.00000000000000000E+00  0.00000000000000000E+00
  0.00000000000000000E+00  0.00000000000000000E+00  0.00000000000000000E+00
  0.00000000000000000E+00  0.00000000000000000E+00  0.00000000000000000E+00
  0.00000000000000000E+00  0.00000000000000000E+00  0.00000000000000000E+00
  0.00000000000000000E+00  0.00000000000000000E+00  0.00000000000000000E+00
  0.00000000000000000E+00  0.00000000000000000E+00  0.00000000000000000E+00
  0.00000000000000000E+00  0.00000000000000000E+00  0.00000000000000000E+00
  0.00000000000000000E+00  0.00000000000000000E+00  0.00000000000000000E+00
  0.00000000000000000E+00  0.00000000000000000E+00  0.00000000000000000E+00
  0.00000000000000000E+00  0.00000000000000000E+00  0.00000000000000000E+00
  0.00000000000000000E+00  0.00000000000000000E+00  0.00000000000000000E+00
  0.00000000000000000E+00  0.00000000000000000E+00  0.00000000000000000E+00
  0.00000000000000000E+00  0.00000000000000000E+00  0.00000000000000000E+00
  0.00000000000000000E+00  0.00000000000000000E+00  0.00000000000000000E+00
  0.00000000000000000E+00  0.00000000000000000E+00  0.00000000000000000E+00
  0.00000000000000000E+00  0.00000000000000000E+00  0.00000000000000000E+00
  0.00000000000000000E+00  0.00000000000000000E+00  0.00000000000000000E+00
  0.00000000000000000E+00  0.00000000000000000E+00  0.00000000000000000E+00
  0.00000000000000000E+00  0.00000000000000000E+00  0.00000000000000000E+00
  0.00000000000000000E+00  0.00000000000000000E+00  0.00000000000000000E+00
  0.00000000000000000E+00  0.00000000000000000E+00  0.00000000000000000E+00
  0.00000000000000000E+00  0.00000000000000000E+00  0.00000000000000000E+00
  0.00000000000000000E+00  0.00000000000000000E+00  0.00000000000000000E+00
  0.00000000000000000E+00  0.00000000000000000E+00  0.00000000000000000E+00
  0.00000000000000000E+00  0.00000000000000000E+00  0.00000000000000000E+00
  0.00000000000000000E+00  0.00000000000000000E+00  0.00000000000000000E+00
  0.00000000000000000E+00  0.00000000000000000E+00  0.00000000000000000E+00
  0.00000000000000000E+00  0.00000000000000000E+00  0.00000000000000000E+00
  0.00000000000000000E+00  0.00000000000000000E+00  0.00000000000000000E+00
  0.00000000000000000E+00  0.00000000000000000E+00  0.00000000000000000E+00
  0.00000000000000000E+00  0.00000000000000000E+00  0.00000000000000000E+00
  0.00000000000000000E+00  0.00000000000000000E+00  0.00000000000000000E+00
  0.00000000000000000E+00  0.00000000000000000E+00  0.00000000000000000E+00
  0.00000000000000000E+00  0.00000000000000000E+00  0.00000000000000000E+00
  0.00000000000000000E+00  0.00000000000000000E+00  0.00000000000000000E+00
  0.00000000000000000E+00  0.00000000000000000E+00  0.00000000000000000E+00
  0.00000000000000000E+00  0.00000000000000000E+00  0.00000000000000000E+00
  0.00000000000000000E+00  0.00000000000000000E+00  0.00000000000000000E+00
  0.00000000000000000E+00  0.00000000000000000E+00  0.00000000000000000E+00
  0.00000000000000000E+00  0.00000000000000000E+00  0.00000000000000000E+00
  0.00000000000000000E+00  0.00000000000000000E+00  0.00000000000000000E+00
  0.00000000000000000E+00  0.00000000000000000E+00  0.00000000000000000E+00
  0.00000000000000000E+00  0.00000000000000000E+00  0.00000000000000000E+00
  0.00000000000000000E+00  0.00000000000000000E+00  0.00000000000000000E+00
  0.00000000000000000E+00  0.00000000000000000E+00  0.00000000000000000E+00
  0.00000000000000000E+00  0.00000000000000000E+00  0.00000000000000000E+00
  0.00000000000000000E+00  0.00000000000000000E+00  0.00000000000000000E+00
  0.00000000000000000E+00  0.00000000000000000E+00  0.00000000000000000E+00
  0.00000000000000000E+00  0.00000000000000000E+00  0.00000000000000000E+00
  0.00000000000000000E+00  0.00000000000000000E+00  0.00000000000000000E+00
  0.00000000000000000E+00  0.00000000000000000E+00  0.00000000000000000E+00
  0.00000000000000000E+00  0.00000000000000000E+00  0.00000000000000000E+00
  0.00000000000000000E+00  0.00000000000000000E+00  0.00000000000000000E+00
  0.00000000000000000E+00  0.00000000000000000E+00  0.00000000000000000E+00
  0.00000000000000000E+00  0.00000000000000000E+00  0.00000000000000000E+00
  0.00000000000000000E+00  0.00000000000000000E+00  0.00000000000000000E+00
  0.00000000000000000E+00  0.00000000000000000E+00  0.00000000000000000E+00
  0.00000000000000000E+00  0.00000000000000000E+00  0.00000000000000000E+00
  0.00000000000000000E+00  0.00000000000000000E+00  0.00000000000000000E+00
  0.00000000000000000E+00  0.00000000000000000E+00  0.00000000000000000E+00
  0.00000000000000000E+00  0.00000000000000000E+00  0.00000000000000000E+00
  0.00000000000000000E+00  0.00000000000000000E+00  0.00000000000000000E+00
  0.00000000000000000E+00  0.00000000000000000E+00  0.00000000000000000E+00
  0.00000000000000000E+00  0.00000000000000000E+00  0.00000000000000000E+00
  0.00000000000000000E+00  0.00000000000000000E+00  0.00000000000000000E+00
  0.00000000000000000E+00  0.00000000000000000E+00  0.00000000000000000E+00
  0.00000000000000000E+00  0.00000000000000000E+00  0.00000000000000000E+00
  0.00000000000000000E+00  0.00000000000000000E+00  0.00000000000000000E+00
  0.00000000000000000E+00  0.00000000000000000E+00  0.00000000000000000E+00
  0.00000000000000000E+00  0.00000000000000000E+00  0.00000000000000000E+00
  0.00000000000000000E+00  0.00000000000000000E+00  0.00000000000000000E+00
  0.00000000000000000E+00  0.00000000000000000E+00  0.00000000000000000E+00
  0.00000000000000000E+00  0.00000000000000000E+00  0.00000000000000000E+00
  0.00000000000000000E+00  0.00000000000000000E+00  0.00000000000000000E+00
  0.00000000000000000E+00  0.00000000000000000E+00  0.00000000000000000E+00
  0.00000000000000000E+00  0.00000000000000000E+00  0.00000000000000000E+00
  0.00000000000000000E+00  0.00000000000000000E+00  0.00000000000000000E+00
  0.00000000000000000E+00  0.00000000000000000E+00  0.00000000000000000E+00
  0.00000000000000000E+00  0.00000000000000000E+00  0.00000000000000000E+00
  0.00000000000000000E+00  0.00000000000000000E+00  0.00000000000000000E+00
  0.00000000000000000E+00  0.00000000000000000E+00  0.00000000000000000E+00
  0.00000000000000000E+00  0.00000000000000000E+00  0.00000000000000000E+00
  0.00000000000000000E+00  0.00000000000000000E+00  0.00000000000000000E+00
  0.00000000000000000E+00  0.00000000000000000E+00  0.00000000000000000E+00
  0.00000000000000000E+00  0.00000000000000000E+00  0.00000000000000000E+00
  0.00000000000000000E+00  0.00000000000000000E+00  0.00000000000000000E+00
  0.00000000000000000E+00  0.00000000000000000E+00  0.00000000000000000E+00
  0.00000000000000000E+00  0.00000000000000000E+00  0.00000000000000000E+00
  0.00000000000000000E+00  0.00000000000000000E+00  0.00000000000000000E+00
  0.00000000000000000E+00  0.00000000000000000E+00  0.00000000000000000E+00
  0.00000000000000000E+00  0.00000000000000000E+00  0.00000000000000000E+00
  0.00000000000000000E+00  0.00000000000000000E+00  0.00000000000000000E+00
  0.00000000000000000E+00  0.00000000000000000E+00  0.00000000000000000E+00
  0.00000000000000000E+00  0.00000000000000000E+00  0.00000000000000000E+00
  0.00000000000000000E+00  0.00000000000000000E+00  0.00000000000000000E+00
  0.00000000000000000E+00  0.00000000000000000E+00  0.00000000000000000E+00
  0.00000000000000000E+00  0.00000000000000000E+00  0.00000000000000000E+00
  0.00000000000000000E+00  0.00000000000000000E+00  0.00000000000000000E+00
  0.00000000000000000E+00  0.00000000000000000E+00  0.00000000000000000E+00
  0.00000000000000000E+00  0.00000000000000000E+00  0.00000000000000000E+00
  0.00000000000000000E+00  0.00000000000000000E+00  0.00000000000000000E+00
  0.00000000000000000E+00  0.00000000000000000E+00  0.00000000000000000E+00
  0.00000000000000000E+00  0.00000000000000000E+00  0.00000000000000000E+00
  0.00000000000000000E+00  0.00000000000000000E+00  0.00000000000000000E+00
  0.00000000000000000E+00  0.00000000000000000E+00  0.00000000000000000E+00
  0.00000000000000000E+00  0.00000000000000000E+00  0.00000000000000000E+00
  0.00000000000000000E+00  0.00000000000000000E+00  0.00000000000000000E+00
  0.00000000000000000E+00  0.00000000000000000E+00  0.00000000000000000E+00
  0.00000000000000000E+00  0.00000000000000000E+00  0.00000000000000000E+00
  0.00000000000000000E+00  0.00000000000000000E+00  0.00000000000000000E+00
  0.00000000000000000E+00  0.00000000000000000E+00  0.00000000000000000E+00
  0.00000000000000000E+00  0.00000000000000000E+00  0.00000000000000000E+00
  0.00000000000000000E+00  0.00000000000000000E+00  0.00000000000000000E+00
  0.00000000000000000E+00  0.00000000000000000E+00  0.00000000000000000E+00
  0.00000000000000000E+00  0.00000000000000000E+00  0.00000000000000000E+00
  0.00000000000000000E+00  0.00000000000000000E+00  0.00000000000000000E+00
  0.00000000000000000E+00  0.00000000000000000E+00  0.00000000000000000E+00
  0.00000000000000000E+00  0.00000000000000000E+00  0.00000000000000000E+00
  0.00000000000000000E+00  0.00000000000000000E+00  0.00000000000000000E+00
  0.00000000000000000E+00  0.00000000000000000E+00  0.00000000000000000E+00
  0.00000000000000000E+00  0.00000000000000000E+00  0.00000000000000000E+00
  0.00000000000000000E+00  0.00000000000000000E+00  0.00000000000000000E+00
  0.00000000000000000E+00  0.00000000000000000E+00  0.00000000000000000E+00
  0.00000000000000000E+00  0.00000000000000000E+00  0.00000000000000000E+00
  0.00000000000000000E+00  0.00000000000000000E+00  0.00000000000000000E+00
  0.00000000000000000E+00  0.00000000000000000E+00  0.00000000000000000E+00
  0.00000000000000000E+00  0.00000000000000000E+00  0.00000000000000000E+00
  0.00000000000000000E+00  0.00000000000000000E+00  0.00000000000000000E+00
  0.00000000000000000E+00  0.00000000000000000E+00  0.00000000000000000E+00
  0.00000000000000000E+00  0.00000000000000000E+00  0.00000000000000000E+00
  0.00000000000000000E+00  0.00000000000000000E+00  0.00000000000000000E+00
  0.00000000000000000E+00  0.00000000000000000E+00  0.00000000000000000E+00
  0.00000000000000000E+00  0.00000000000000000E+00  0.00000000000000000E+00
  0.00000000000000000E+00  0.00000000000000000E+00  0.00000000000000000E+00
  0.00000000000000000E+00  0.00000000000000000E+00  0.00000000000000000E+00
  0.00000000000000000E+00  0.00000000000000000E+00  0.00000000000000000E+00
  0.00000000000000000E+00  0.00000000000000000E+00  0.00000000000000000E+00
  0.00000000000000000E+00  0.00000000000000000E+00  0.00000000000000000E+00
  0.00000000000000000E+00  0.00000000000000000E+00  0.00000000000000000E+00
  0.00000000000000000E+00  0.00000000000000000E+00  0.00000000000000000E+00
  0.00000000000000000E+00  0.00000000000000000E+00  0.00000000000000000E+00
  0.00000000000000000E+00  0.00000000000000000E+00  0.00000000000000000E+00
  0.00000000000000000E+00  0.00000000000000000E+00  0.00000000000000000E+00
  0.00000000000000000E+00  0.00000000000000000E+00  0.00000000000000000E+00
  0.00000000000000000E+00  0.00000000000000000E+00  0.00000000000000000E+00
  0.00000000000000000E+00  0.00000000000000000E+00  0.00000000000000000E+00
  0.00000000000000000E+00  0.00000000000000000E+00  0.00000000000000000E+00
  0.00000000000000000E+00  0.00000000000000000E+00  0.00000000000000000E+00
  0.00000000000000000E+00  0.00000000000000000E+00  0.00000000000000000E+00
  0.00000000000000000E+00  0.00000000000000000E+00  0.00000000000000000E+00
  0.00000000000000000E+00  0.00000000000000000E+00  0.00000000000000000E+00
  0.00000000000000000E+00  0.00000000000000000E+00  0.00000000000000000E+00
  0.00000000000000000E+00  0.00000000000000000E+00  0.00000000000000000E+00
  0.00000000000000000E+00  0.00000000000000000E+00  0.00000000000000000E+00
  0.00000000000000000E+00  0.00000000000000000E+00  0.00000000000000000E+00
  0.00000000000000000E+00  0.00000000000000000E+00  0.00000000000000000E+00
  0.00000000000000000E+00  0.00000000000000000E+00  0.00000000000000000E+00
  0.00000000000000000E+00  0.00000000000000000E+00  0.00000000000000000E+00
  0.00000000000000000E+00  0.00000000000000000E+00  0.00000000000000000E+00
  0.00000000000000000E+00  0.00000000000000000E+00  0.00000000000000000E+00
  0.00000000000000000E+00  0.00000000000000000E+00  0.00000000000000000E+00
  0.00000000000000000E+00  0.00000000000000000E+00  0.00000000000000000E+00
  0.00000000000000000E+00  0.00000000000000000E+00  0.00000000000000000E+00
  0.00000000000000000E+00  0.00000000000000000E+00  0.00000000000000000E+00
  0.00000000000000000E+00  0.00000000000000000E+00  0.00000000000000000E+00
  0.00000000000000000E+00  0.00000000000000000E+00  0.00000000000000000E+00
  0.00000000000000000E+00  0.00000000000000000E+00  0.00000000000000000E+00
  0.00000000000000000E+00  0.00000000000000000E+00  0.00000000000000000E+00
  0.00000000000000000E+00  0.00000000000000000E+00  0.00000000000000000E+00
  0.00000000000000000E+00  0.00000000000000000E+00  0.00000000000000000E+00
  0.00000000000000000E+00  0.00000000000000000E+00  0.00000000000000000E+00
  0.00000000000000000E+00  0.00000000000000000E+00  0.00000000000000000E+00
  0.00000000000000000E+00  0.00000000000000000E+00  0.00000000000000000E+00
                             </PP_AE_NLCC> 
 <PP_AE_VLOC type="real" size="   888" columns="3">
 -3.50922610697106720E+04 -3.46563380015819275E+04 -3.42258300567747938E+04
 -3.38006699675470445E+04 -3.33807913017696992E+04 -3.29661284525470037E+04
 -3.25566166279651297E+04 -3.21521918409683203E+04 -3.17527908993608362E+04
 -3.13583513959329102E+04 -3.09688116987096510E+04 -3.05841109413208542E+04
 -3.02041890134904970E+04 -2.98289865516444297E+04 -2.94584449296345665E+04
 -2.90925062495786333E+04 -2.87311133328133619E+04 -2.83742097109602437E+04
 -2.80217396171022665E+04 -2.76736479770701153E+04 -2.73298804008368497E+04
 -2.69903831740192873E+04 -2.66551032494850333E+04 -2.63239882390637576E+04
 -2.59969864053613819E+04 -2.56740466536761305E+04 -2.53551185240147643E+04
 -2.50401521832081635E+04 -2.47290984171247983E+04 -2.44219086229808272E+04
 -2.41185348017459619E+04 -2.38189295506434028E+04 -2.35230460557431252E+04
 -2.32308380846470827E+04 -2.29422599792652582E+04 -2.26572666486815797E+04
 -2.23758135621083275E+04 -2.20978567419280989E+04 -2.18233527568222598E+04
 -2.15522587149846040E+04 -2.12845322574195816E+04 -2.10201315513234913E+04
 -2.07590152835480912E+04 -2.05011426541453075E+04 -2.02464733699921126E+04
 -1.99949676384947488E+04 -1.97465861613709785E+04 -1.95012901285096668E+04
 -1.92590412119066314E+04 -1.90198015596757650E+04 -1.87835337901346829E+04
 -1.85502009859637110E+04 -1.83197666884374667E+04 -1.80921948917281661E+04
 -1.78674500372795337E+04 -1.76454970082508407E+04 -1.74263011240297274E+04
 -1.72098281348133278E+04 -1.69960442162566760E+04 -1.67849159641875194E+04
 -1.65764103893869433E+04 -1.63704949124346804E+04 -1.61671373586185146E+04
 -1.59663059529069433E+04 -1.57679693149842024E+04 -1.55720964543471109E+04
 -1.53786567654626888E+04 -1.51876200229859860E+04 -1.49989563770373425E+04
 -1.48126363485382135E+04 -1.46286308246050867E+04 -1.44469110540004840E+04
 -1.42674486426405365E+04 -1.40902155491583653E+04 -1.39151840805225038E+04
 -1.37423268877098853E+04 -1.35716169614324517E+04 -1.34030276279169138E+04
 -1.32365325447369196E+04 -1.30721056966969645E+04 -1.29097213917675235E+04
 -1.27493542570705795E+04 -1.25909792349150648E+04 -1.24345715788815614E+04
 -1.22801068499555804E+04 -1.21275609127089774E+04 -1.19769099315286985E+04
 -1.18281303668924338E+04 -1.16811989716905246E+04 -1.15360927875935158E+04
 -1.13927891414649312E+04 -1.12512656418185106E+04 -1.11115001753195029E+04
 -1.09734709033294203E+04 -1.08371562584936728E+04 -1.07025349413716813E+04
 -1.05695859171087541E+04 -1.04382884121493680E+04 -1.03086219109912508E+04
 -1.01805661529797690E+04 -1.00541011291422146E+04 -9.92920707906131611E+03
 -9.80586448778764861E+03 -9.68405408279039511E+03 -9.56375683094592932E+03
 -9.44495393556391355E+03 -9.32762683345023652E+03 -9.21175719200649110E+03
 -9.09732690636546977E+03 -8.98431809656221594E+03 -8.87271310474028724E+03
 -8.76249449239264868E+03 -8.65364503763688117E+03 -8.54614773252422856E+03
 -8.43998578038204869E+03 -8.33514259318933728E+03 -8.23160178898479171E+03
 -8.12934718930709914E+03 -8.02836281666702689E+03 -7.92863289205088404E+03
 -7.83014183245505319E+03 -7.73287424845108944E+03 -7.63681494178110279E+03
 -7.54194890298299561E+03 -7.44826130904518686E+03 -7.35573752109052202E+03
 -7.26436308208889204E+03 -7.17412371459830138E+03 -7.08500531853399025E+03
 -6.99699396896524831E+03 -6.91007591393965231E+03 -6.82423757233426750E+03
 -6.73946553173357916E+03 -6.65574654633377486E+03 -6.57306753487306196E+03
 -6.49141557858767555E+03 -6.41077791919333322E+03 -6.33114195689169264E+03
 -6.25249524840162485E+03 -6.17482550501492551E+03 -6.09812059067615974E+03
 -6.02236852008641017E+03 -5.94755745683052828E+03 -5.87367571152767505E+03
 -5.80071174000483825E+03 -5.72865414149301341E+03 -5.65749165684583386E+03
 -5.58721316678029234E+03 -5.51780769013933423E+03 -5.44926438217603209E+03
 -5.38157253285905426E+03 -5.31472156519923010E+03 -5.24870103359685436E+03
 -5.18350062220954169E+03 -5.11911014334036918E+03 -5.05551953584599869E+03
 -4.99271886356463892E+03 -4.93069831376347702E+03 -4.86944819560542328E+03
 -4.80895893863490710E+03 -4.74922109128245120E+03 -4.69022531938787415E+03
 -4.63196240474178740E+03 -4.57442324364524393E+03 -4.51759884548726041E+03
 -4.46148033134000525E+03 -4.40605893257147454E+03 -4.35132598947535553E+03
 -4.29727294991793315E+03 -4.24389136800180950E+03 -4.19117290274619518E+03
 -4.13910931678364341E+03 -4.08769247507292221E+03 -4.03691434362790551E+03
 -3.98676698826225083E+03 -3.93724257334964932E+03 -3.88833336059951534E+03
 -3.84003170784785107E+03 -3.79233006786314354E+03 -3.74522098716709752E+03
 -3.69869710487000521E+03 -3.65275115152060562E+03 -3.60737594797021256E+03
 -3.56256440425095161E+03 -3.51830951846795278E+03 -3.47460437570526665E+03
 -3.43144214694542279E+03 -3.38881608800236245E+03 -3.34671953846765246E+03
 -3.30514592066978457E+03 -3.26408873864639008E+03 -3.22354157712924871E+03
 -3.18349810054188038E+03 -3.14395205200959936E+03 -3.10489725238186747E+03
 -3.06632759926678000E+03 -3.02823706607757003E+03 -2.99061970109093045E+03
 -2.95346962651705007E+03 -2.91678103758119596E+03 -2.88054820161669795E+03
 -2.84476545716922374E+03 -2.80942721311215246E+03 -2.77452794777295458E+03
 -2.74006220807041882E+03 -2.70602460866259162E+03 -2.67240983110531806E+03
 -2.63921262302121477E+03 -2.60642779727897823E+03 -2.57405023118288773E+03
 -2.54207486567236265E+03 -2.51049670453149065E+03 -2.47931081360834696E+03
 -2.44851232004402618E+03 -2.41809641151125197E+03 -2.38805833546242911E+03
 -2.35839339838706519E+03 -2.32909696507838771E+03 -2.30016445790908801E+03
 -2.27159135611606007E+03 -2.24337319509401141E+03 -2.21550556569787432E+03
 -2.18798411355385906E+03 -2.16080453837907453E+03 -2.13396259330960493E+03
 -2.10745408423691833E+03 -2.08127486915254258E+03 -2.05542085750085835E+03
 -2.02988800953994519E+03 -2.00467233571036354E+03 -1.97976989601177252E+03
 -1.95517679938730635E+03 -1.93088920311558218E+03 -1.90690331221027009E+03
 -1.88321537882711709E+03 -1.85982170167833556E+03 -1.83671862545427803E+03
 -1.81390254025228091E+03 -1.79136988101261136E+03 -1.76911712696142195E+03
 -1.74714080106061579E+03 -1.72543746946456054E+03 -1.70400374098353905E+03
 -1.68283626655386956E+03 -1.66193173871460522E+03 -1.64128689109074253E+03
 -1.62089849788283595E+03 -1.60076337336296706E+03 -1.58087837137696533E+03
 -1.56124038485281267E+03 -1.54184634531516213E+03 -1.52269322240587712E+03
 -1.50377802341053666E+03 -1.48509779279081454E+03 -1.46664961172267044E+03
 -1.44843059764028044E+03 -1.43043790378562608E+03 -1.41266871876368668E+03
 -1.39512026610315161E+03 -1.37778980382258896E+03 -1.36067462400200907E+03
 -1.34377205235974293E+03 -1.32707944783458356E+03 -1.31059420217311299E+03
 -1.29431373952215608E+03 -1.27823551602630187E+03 -1.26235701943041636E+03
 -1.24667576868710239E+03 -1.23118931356902772E+03 -1.21589523428607185E+03
 -1.20079114110723208E+03 -1.18587467398721810E+03 -1.17114350219769517E+03
 -1.15659532396310124E+03 -1.14222786610098751E+03 -1.12803888366683350E+03
 -1.11402615960326443E+03 -1.10018750439363748E+03 -1.08652075571992123E+03
 -1.07302377812482951E+03 -1.05969446267815397E+03 -1.04653072664723663E+03
 -1.03353051317154132E+03 -1.02069179094126366E+03 -1.00801255387993353E+03
 -9.95490820830965276E+02 -9.83124635248093000E+02 -9.70912064889660996E+02
 -9.58851201516704464E+02 -9.46940160594782242E+02 -9.35177080999518125E+02
 -9.23560124725792321E+02 -9.12087476600552577E+02 -9.00757343999188492E+02
 -8.89567956565428972E+02 -8.78517565934723166E+02 -8.67604445461052137E+02
 -8.56826889947139534E+02 -8.46183215378009322E+02 -8.35671758657854639E+02
 -8.25290877350177993E+02 -8.15038949421154371E+02 -8.04914372986187345E+02
 -7.94915566059610796E+02 -7.85040966307498934E+02 -7.75289030803551327E+02
 -7.65658235788004163E+02 -7.56147076429542722E+02 -7.46754066590166758E+02
 -7.37477738592978199E+02 -7.28316642992855236E+02 -7.19269348349971438E+02
 -7.10334441006132010E+02 -7.01510524863886872E+02 -6.92796221168385500E+02
 -6.84190168291947089E+02 -6.75691021521299490E+02 -6.67297452847468662E+02
 -6.59008150758272791E+02 -6.50821820033395284E+02 -6.42737181542005374E+02
 -6.34752972042890178E+02 -6.26867943987071499E+02 -6.19080865322873933E+02
 -6.11390519303412475E+02 -6.03795704296475947E+02 -5.96295233596767957E+02
 -5.88887935240481283E+02 -5.81572651822177932E+02 -5.74348240313940323E+02
 -5.67213571886772343E+02 -5.60167531734216823E+02 -5.53209018898164231E+02
 -5.46336946096827319E+02 -5.39550239554848872E+02 -5.32847838835524385E+02
 -5.26228696675105539E+02 -5.19691778819162437E+02 -5.13236063860981290E+02
 -5.06860543081965204E+02 -5.00564220294021311E+02 -4.94346111683904383E+02
 -4.88205245659492846E+02 -4.82140662697977177E+02 -4.76151415195930554E+02
 -4.70236567321245957E+02 -4.64395194866909151E+02 -4.58626385106589566E+02
 -4.52929236652025622E+02 -4.47302859312180090E+02 -4.41746373954146804E+02
 -4.36258912365784113E+02 -4.30839617120053958E+02 -4.25487641441048993E+02
 -4.20202149071680367E+02 -4.14982314143012161E+02 -4.09827321045216934E+02
 -4.04736364300135051E+02 -3.99708648435417842E+02 -3.94743387860232019E+02
 -3.89839806742510973E+02 -3.84997138887728909E+02 -3.80214627619180590E+02
 -3.75491525659750664E+02 -3.70827095015148359E+02 -3.66220606858595715E+02
 -3.61671341416946518E+02 -3.57178587858219601E+02 -3.52741644180531239E+02
 -3.48359817102404293E+02 -3.44032421954443180E+02 -3.39758782572352061E+02
 -3.35538231191282250E+02 -3.31370108341494074E+02 -3.27253762745311860E+02
 -3.23188551215361599E+02 -3.19173838554071040E+02 -3.15208997454418636E+02
 -3.11293408401916281E+02 -3.07426459577807975E+02 -3.03607546763472669E+02
 -2.99836073246013655E+02 -2.96111449725020464E+02 -2.92433094220490318E+02
 -2.88800431981891791E+02 -2.85212895398359422E+02 -2.81669923910003376E+02
 -2.78170963920320048E+02 -2.74715468709692573E+02 -2.71302898349963868E+02
 -2.67932719620072362E+02 -2.64604405922734941E+02 -2.61317437202164740E+02
 -2.58071299862811884E+02 -2.54865486689112629E+02 -2.51699496766236393E+02
 -2.48572835401816661E+02 -2.45485014048653682E+02 -2.42435550228379043E+02
 -2.39423967456066464E+02 -2.36449795165780728E+02 -2.33512568637050578E+02
 -2.30611828922254887E+02 -2.27747122774911759E+02 -2.24918002578857312E+02
 -2.22124026278305109E+02 -2.19364757308773648E+02 -2.16639764528872746E+02
 -2.13948622152936565E+02 -2.11290909684493613E+02 -2.08666211850563542E+02
 -2.06074118536769845E+02 -2.03514224723258565E+02 -2.00986130421413179E+02
 -1.98489440611355633E+02 -1.96023765180223506E+02 -1.93588718861214261E+02
 -1.91183921173386295E+02 -1.88808996362208461E+02 -1.86463573340847120E+02
 -1.84147285632183326E+02 -1.81859771311550105E+02 -1.79600672950180950E+02
 -1.77369637559360655E+02 -1.75166316535270340E+02 -1.72990365604517308E+02
 -1.70841444770341553E+02 -1.68719218259490873E+02 -1.66623354469755128E+02
 -1.64553525918153099E+02 -1.62509409189762579E+02 -1.60490684887185836E+02
 -1.58497037580643621E+02 -1.56528155758688087E+02 -1.54583731779528875E+02
 -1.52663461822963257E+02 -1.50767045842903656E+02 -1.48894187520494995E+02
 -1.47044594217813966E+02 -1.45217976932144040E+02 -1.43414050250818036E+02
 -1.41632532306621840E+02 -1.39873144733752213E+02 -1.38135612624321340E+02
 -1.36419664485402137E+02 -1.34725032196606691E+02 -1.33051450968192171E+02
 -1.31398659299686756E+02 -1.29766398939029557E+02 -1.28154414842218358E+02
 -1.26562455133458442E+02 -1.24990271065806425E+02 -1.23437616982303126E+02
 -1.21904250277589128E+02 -1.20389931359997107E+02 -1.18894423614115311E+02
 -1.17417493363815765E+02 -1.15958909835742105E+02 -1.14518445123250515E+02
 -1.13095874150798991E+02 -1.11690974638778911E+02 -1.10303527068783126E+02
 -1.08933314649306169E+02 -1.07580123281869703E+02 -1.06243741527569483E+02
 -1.04923960574037537E+02 -1.03620574202814709E+02 -1.02333378757128770E+02
 -1.01062173110072536E+02 -9.98067586331773384E+01 -9.85669391653769793E+01
 -9.73425209823572004E+01 -9.61333127662858260E+01 -9.49391255759189363E+01
 -9.37597728170784279E+01 -9.25950702134963279E+01 -9.14448357780212007E+01
 -9.03088897841823695E+01 -8.91870547381071930E+01 -8.80791553507873033E+01
 -8.69850185106894145E+01 -8.59044732567062113E+01 -8.48373507514433811E+01
 -8.37834842548383989E+01 -8.27427090981070563E+01 -8.17148626580136437E+01
 -8.06997843314607053E+01 -7.96973155103945601E+01 -7.87072995570223668E+01
 -7.77295817793371953E+01 -7.67640094069471104E+01 -7.58104315672044606E+01
 -7.48686992616316900E+01 -7.39386653426401068E+01 -7.30201844905376873E+01
 -7.21131131908226450E+01 -7.12173097117589293E+01 -7.03326340822304275E+01
 -6.94589480698701323E+01 -6.85961151594610783E+01 -6.77440005316055647E+01
 -6.69024710416593535E+01 -6.60713951989275472E+01 -6.52506431461188612E+01
 -6.44400866390552238E+01 -6.36395990266333129E+01 -6.28490552310350807E+01
 -6.20683317281840985E+01 -6.12973065284446648E+01 -6.05358591575606084E+01
 -5.97838706378311002E+01 -5.90412234695199700E+01 -5.83078016124962701E+01
 -5.75834904681026600E+01 -5.68681768612492036E+01 -5.61617490227295306E+01
 -5.54640965717566274E+01 -5.47751104987156410E+01 -5.40946831481309118E+01
 -5.34227082018445429E+01 -5.27590806624040809E+01 -5.21036968366562974E+01
 -5.14564543195450312E+01 -5.08172519781101641E+01 -5.01859899356853845E+01
 -4.95625695562922388E+01 -4.89468934292280977E+01 -4.83388653538455060E+01
 -4.77383903245206298E+01 -4.71453745158084772E+01 -4.65597252677824258E+01
 -4.59813510715559630E+01 -4.54101615549842208E+01 -4.48460674685431258E+01
 -4.42889806713840315E+01 -4.37388141175614606E+01 -4.31954818424320806E+01
 -4.26588989492224755E+01 -4.21289815957638751E+01 -4.16056469813916934E+01
 -4.10888133340077104E+01 -4.05783998973030080E+01 -4.00743269181396400E+01
 -3.95765156340890982E+01 -3.90848882611254211E+01 -3.85993679814713673E+01
 -3.81198789315954443E+01 -3.76463461903580807E+01 -3.71786957673050438E+01
 -3.67168545911062978E+01 -3.62607504981384281E+01 -3.58103122212089673E+01
 -3.53654693784207055E+01 -3.49261524621744428E+01 -3.44922928283082015E+01
 -3.40638226853714912E+01 -3.36406750840327575E+01 -3.32227839066183890E+01
 -3.28100838567817092E+01 -3.24025104493002871E+01 -3.19999999999999858E+01
 -3.16024896158041919E+01 -3.12099171849066330E+01 -3.08222213670662839E+01
 -3.04393415840228343E+01 -3.00612180100312152E+01 -2.96877915625136808E+01
 -2.93190038928280714E+01 -2.89547973771506939E+01 -2.85951151074724947E+01
 -2.82399008827070404E+01 -2.78890991999090403E+01 -2.75426552456018392E+01
 -2.72005148872127300E+01 -2.68626246646146249E+01 -2.65289317817728012E+01
 -2.61993840984954112E+01 -2.58739301222864668E+01 -2.55525190003000553E+01
 -2.52351005113944424E+01 -2.49216250582849455E+01 -2.46120436597942494E+01
 -2.43063079431989806E+01 -2.40043701366714082E+01 -2.37061830618149614E+01
 -2.34117001262925264E+01 -2.31208753165463037E+01 -2.28336631906080711E+01
 -2.25500188709988230E+01 -2.22698980377165334E+01 -2.19932569213111009E+01
 -2.17200522960452531E+01 -2.14502414731404478E+01 -2.11837822941066811E+01
 -2.09206331241551027E+01 -2.06607528456925351E+01 -2.04041008518967395E+01
 -2.01506370403715103E+01 -1.99003218068806333E+01 -1.96531160391595989E+01
 -1.94089811108042625E+01 -1.91678788752353633E+01 -1.89297716597380727E+01
 -1.86946222595755387E+01 -1.84623939321755657E+01 -1.82330503913895292E+01
 -1.80065558018225751E+01 -1.77828747732342762E+01 -1.75619723550088374E+01
 -1.73438140306939808E+01 -1.71283657126076818E+01 -1.69155937365119087E+01
 -1.67054648563525063E+01 -1.64979462390644436E+01 -1.62930054594415665E+01
 -1.60906104950701021E+01 -1.58907297213250960E+01 -1.56933319064289876E+01
 -1.54983862065715936E+01 -1.53058621610906833E+01 -1.51157296877124629E+01
 -1.49279590778511420E+01 -1.47425209919668987E+01 -1.45593864549815475E+01
 -1.43785268517510829E+01 -1.41999139225945505E+01 -1.40235197588783702E+01
 -1.38493167986555861E+01 -1.36772778223592475E+01 -1.35073759485492904E+01
 -1.33395846297122631E+01 -1.31738776481132245E+01 -1.30102291116991662E+01
 -1.28486134500533282E+01 -1.26890054103997656E+01 -1.25313800536575624E+01
 -1.23757127505440341E+01 -1.22219791777263591E+01 -1.20701553140210152E+01
 -1.19202174366404101E+01 -1.17721421174861494E+01 -1.16259062194883551E+01
 -1.14814868929904481E+01 -1.13388615721788319E+01 -1.11980079715569651E+01
 -1.10589040824631812E+01 -1.09215281696317934E+01 -1.07858587677969346E+01
 -1.06518746783385403E+01 -1.05195549659700465E+01 -1.03888789554671863E+01
 -1.02598262284374560E+01 -1.01323766201296994E+01 -1.00065102162833153E+01
 -9.88220735001663009E+00 -9.75944859875389170E+00 -9.63821478119046304E+00
 -9.51848695429569425E+00 -9.40024641035304498E+00 -9.28347467403696491E+00
 -9.16815349952607939E+00 -9.05426486765224681E+00 -8.94179098308503129E+00
 -8.83071427155113575E+00 -8.72101737708839941E+00 -8.61268315933387996E+00
 -8.50569469084564744E+00 -8.40003525445782984E+00 -8.29568834066852467E+00
 -8.19263764506015768E+00 -8.09086706575188330E+00 -7.99036070088363015E+00
 -7.89110284613140411E+00 -7.79307799225345832E+00 -7.69627082266694362E+00
 -7.60066621105465590E+00 -7.50624921900152131E+00 -7.41300509366043592E+00
 -7.32091926544711402E+00 -7.22997734576354389E+00 -7.14016512474975062E+00
 -7.05146856906347974E+00 -6.96387381968744812E+00 -6.87736718976385397E+00
 -6.79193516245577467E+00 -6.70756438883512640E+00 -6.62424168579688111E+00
 -6.54195403399916486E+00 -6.46068857582896960E+00 -6.38043261339312195E+00
 -6.30117360653420722E+00 -6.22289917087115008E+00 -6.14559707586412873E+00
 -6.06925524290352492E+00 -5.99386174342262201E+00 -5.91940479703373423E+00
 -5.84587276968750658E+00 -5.77325417185506140E+00 -5.70153765673274648E+00
 -5.63071201846916480E+00 -5.56076619041424092E+00 -5.49168924339003706E+00
 -5.42347038398304004E+00 -5.35609895285767745E+00 -5.28956442309076635E+00
 -5.22385639852666639E+00 -5.15896461215285385E+00 -5.09487892449568580E+00
 -5.03158932203608078E+00 -4.96908591564489388E+00 -4.90735893903770926E+00
 -4.84639874724884834E+00 -4.78619581512431935E+00 -4.72674073583349497E+00
 -4.66802421939927381E+00 -4.61003709124650296E+00 -4.55277029076843220E+00
 -4.49621486991097630E+00 -4.44036199177456581E+00 -4.38520292923335653E+00
 -4.33072906357160470E+00 -4.27693188313697092E+00 -4.22380298201056537E+00
 -4.17133405869349083E+00 -4.11951691480973192E+00 -4.06834345382513618E+00
 -4.01780567978230874E+00 -3.96789569605123749E+00 -3.91860570409541875E+00
 -3.86992800225333111E+00 -3.82185498453502603E+00 -3.77437913943367764E+00
 -3.72749304875190157E+00 -3.68118938644263460E+00 -3.63546091746443745E+00
 -3.59030049665099815E+00 -3.54570106759468162E+00 -3.50165566154396402E+00
 -3.45815739631453489E+00 -3.41519947521395562E+00 -3.37277518597965731E+00
 -3.33087789973013093E+00 -3.28950106992916336E+00 -3.24863823136291208E+00
 -3.20828299912971726E+00 -3.16842906764244070E+00 -3.12907020964320015E+00
 -3.09020027523036100E+00 -3.05181319089758629E+00 -3.01390295858485135E+00
 -2.97646365474122998E+00 -2.93948942939932323E+00 -2.90297450526119949E+00
 -2.86691317679566815E+00 -2.83129980934679137E+00 -2.79612883825345104E+00
 -2.76139476797985450E+00 -2.72709217125685788E+00 -2.69321568823393021E+00
 -2.65976002564167935E+00 -2.62671995596476027E+00 -2.59409031662506262E+00
 -2.56186600917505647E+00 -2.53004199850113976E+00 -2.49861331203689918E+00
 -2.46757503898613351E+00 -2.43692232955552912E+00 -2.40665039419687554E+00
 -2.37675450285868317E+00 -2.34722998424710649E+00 -2.31807222509604571E+00
 -2.28927666944631003E+00 -2.26083881793374575E+00 -2.23275422708619509E+00
 -2.20501850862920046E+00 -2.17762732880032539E+00 -2.15057640767199088E+00
 -2.12386151848273830E+00 -2.09747848697677775E+00 -2.07142319075175996E+00
 -2.04569155861464136E+00 -2.02027956994554714E+00 -1.99518325406954866E+00
 -1.97039868963622955E+00 -1.94592200400697335E+00 -1.92174937264985335E+00
 -1.89787701854203839E+00 -1.87430121157963203E+00 -1.85101826799482971E+00
 -1.82802454978032780E+00 -1.80531646412087432E+00 -1.78289046283188402E+00
 -1.76074304180503072E+00 -1.73887074046071821E+00 -1.71727014120736277E+00
 -1.69593786890738496E+00 -1.67487059034983576E+00 -1.65406501372957981E+00
 -1.63351788813293997E+00 -1.61322600302973873E+00 -1.59318618777164556E+00
 -1.57339531109675312E+00 -1.55385028064031849E+00 -1.53454804245156562E+00
 -1.51548558051650839E+00 -1.49665991628668671E+00 -1.47806810821376255E+00
 -1.45970725128990053E+00 -1.44157447659384896E+00 -1.42366695084267159E+00
 -1.40598187594903679E+00 -1.38851648858401067E+00 -1.37126805974528532E+00
 -1.35423389433076102E+00 -1.33741133071743601E+00 -1.32079774034552089E+00
 -1.30439052730771810E+00 -1.28818712794361079E+00 -1.27218501043908105E+00
 -1.25638167443071302E+00 -1.24077465061510384E+00 -1.22536150036302827E+00
 -1.21013981533840220E+00 -1.19510721712197077E+00 -1.18026135683967937E+00
 -1.16559991479565483E+00 -1.15112060010974826E+00 -1.13682115035958242E+00
 -1.12269933122704035E+00 -1.10875293614915194E+00 -1.09497978597331258E+00
 -1.08137772861678494E+00 -1.06794463873043410E+00 -1.05467841736663481E+00
 -1.04157699165130890E+00 -1.02863831446003373E+00 -1.01586036409817360E+00
 -1.00324114398498754E+00 -9.90778682341659778E-01 -9.78471031883202280E-01
 -9.66316269514191695E-01 -9.54312496028277946E-01 -9.42457835811432609E-01
 -9.30750436548878346E-01 -9.19188468935660974E-01 -9.07770126390818777E-01
 -8.96493624775097531E-01 -8.85357202112177610E-01 -8.74359118313361439E-01
 -8.63497654905678758E-01 -8.52771114763375193E-01 -8.42177821842729268E-01
 -8.31716120920170443E-01 -8.21384377333645221E-01 -8.11180976727197467E-01
 -8.01104324798724288E-01 -7.91152847050860086E-01 -7.81324988544960353E-01
 -7.71619213658139347E-01 -7.62034005843323370E-01 -7.52567867392291090E-01
 -7.43219319201649742E-01 -7.33986900541725107E-01 -7.24869168828318422E-01
 -7.15864699397298465E-01 -7.06972085281997842E-01 -6.98189936993368065E-01
 -6.89516882302872003E-01 -6.80951566028069055E-01 -6.72492649820864430E-01
 -6.64138811958391417E-01 -6.55888747136487593E-01 -6.47741166265739854E-01
 -6.39694796270061095E-01 -6.31748379887768441E-01 -6.23900675475135613E-01
 -6.16150456812381120E-01 -6.08496512912071630E-01 -6.00937647829900556E-01
 -5.93472680477819758E-01 -5.86100444439493273E-01 -5.78819787788041551E-01
 -5.71629572906049099E-01 -5.64528676307812782E-01 -5.57515988463792023E-01
 -5.50590413627243813E-01 -5.43750869663010117E-01 -5.36996287878430678E-01
                             </PP_AE_VLOC> 
                                      </PP_PAW> 
 <PP_GIPAW gipaw_data_format="2">
  <PP_GIPAW_CORE_ORBITALS number_of_core_orbitals=" 0">
  </PP_GIPAW_CORE_ORBITALS>
 </PP_GIPAW>
</UPF> 
