<UPF version="2.0.1">
   <PP_INFO>
         UPF file from ATOMPAW code with following input
           S 16
           XC_LDA_X+XC_LDA_C_PW scalarrelativistic loggrid 2000
           3 3 0 0 0 0
           3 1 4
           0 0 0
           c
           c
           v
           c
           v
           1
           1.9 1.40 1.7 1.1
           y
           4.0
           n
           y
           0.50
           n
           custom rrkj
           2 0.0
           1.9
           1.9
           1.9
           1.9
           PWSCFOUT
           UPFDX 1.25d-2 UPFXMIN -7. UPFZMESH 16.0
           END
  </PP_INFO>
  <!--                               -->
  <!-- END OF HUMAN READABLE SECTION -->
  <PP_HEADER generated="Generated using ATOMPAW code"
             author="   "
             date=" 11/30/2025, 12:26:07.432"
             element="S "
             pseudo_type="PAW"
             relativistic="scalar"
             is_ultrasoft="T"
             is_paw="T"
             is_coulomb="F"
             has_so="F"
             has_wfc="T"
             has_gipaw="T"
             paw_as_gipaw="T"
             core_correction="T"
             functional="SLA PW NOGX NOGC"
             z_valence=" 6.000"
             l_max="1"
             l_max_rho="2"
             mesh_size="   999"
             number_of_wfc="     4"
             number_of_proj=" 4"
                                    /> 
<PP_MESH dx=" 1.2500000000000E-02" mesh="   999" xmin="-7.0000000000000E+00" zmesh=" 1.6000000000000E+01">
 <PP_R type="real" size="   999" columns="3">
  5.69926228471572652E-05  5.77095017918138900E-05  5.84353979635363844E-05
  5.91704247850783732E-05  5.99146971058762411E-05  6.06683312199943054E-05
  6.14314448842961659E-05  6.22041573368444563E-05  6.29865893155319033E-05
  6.37788630769471621E-05  6.45811024154773139E-05  6.53934326826511578E-05
  6.62159808067256338E-05  6.70488753125185515E-05  6.78922463414911170E-05
  6.87462256720823892E-05  6.96109467403002030E-05  7.04865446605707705E-05
  7.13731562468504689E-05  7.22709200340036100E-05  7.31799762994484018E-05
  7.41004670850758024E-05  7.50325362194438026E-05  7.59763293402509180E-05
  7.69319939170925624E-05  7.78996792745030949E-05  7.88795366152884067E-05
  7.98717190441515263E-05  8.08763815916155001E-05  8.18936812382475046E-05
  8.29237769391869689E-05  8.39668296489829254E-05  8.50230023467433667E-05
  8.60924600616010674E-05  8.71753698984999235E-05  8.82719010643051019E-05
  8.93822248942421508E-05  9.05065148786684723E-05  9.16449466901814392E-05
  9.27976982110679274E-05  9.39649495610982730E-05  9.51468831256707231E-05
  9.63436835843093926E-05  9.75555379395207653E-05  9.87826355460135662E-05
  1.00025168140285270E-04  1.01283329870581668E-04  1.02557317327232878E-04
  1.03847329573370870E-04  1.05153568176033824E-04  1.06476237237660874E-04
  1.07815543427983897E-04  1.09171696016319980E-04  1.10544906904270042E-04
  1.11935390658829360E-04  1.13343364545913451E-04  1.14769048564306695E-04
  1.16212665480037563E-04  1.17674440861186084E-04  1.19154603113129782E-04
  1.20653383514231831E-04  1.22171016251979193E-04  1.23707738459574794E-04
  1.25263790252989942E-04  1.26839414768483376E-04  1.28434858200591182E-04
  1.30050369840595584E-04  1.31686202115477132E-04  1.33342610627356755E-04
  1.35019854193434656E-04  1.36718194886430318E-04  1.38437898075532306E-04
  1.40179232467862709E-04  1.41942470150462931E-04  1.43727886632808501E-04
  1.45535760889857111E-04  1.47366375405639556E-04  1.49220016217398339E-04
  1.51096972960281466E-04  1.52997538912598939E-04  1.54922011041647406E-04
  1.56870690050112409E-04  1.58843880423053646E-04  1.60841890475481249E-04
  1.62865032400531145E-04  1.64913622318245098E-04  1.66987980324965660E-04
  1.69088430543351667E-04  1.71215301173023024E-04  1.73368924541843038E-04
  1.75549637157844547E-04  1.77757779761810472E-04  1.79993697380515189E-04
  1.82257739380635480E-04  1.84550259523340413E-04  1.86871616019566270E-04
  1.89222171585988458E-04  1.91602293501696443E-04  1.94012353665581791E-04
  1.96452728654448772E-04  1.98923799781854180E-04  2.01425953157689146E-04
  2.03959579748509267E-04  2.06525075438623873E-04  2.09122841091954502E-04
  2.11753282614669477E-04  2.14416811018608406E-04  2.17113842485503351E-04
  2.19844798432008027E-04  2.22610105575545605E-04  2.25410196000983156E-04
  2.28245507228146469E-04  2.31116482280183252E-04  2.34023569752786270E-04
  2.36967223884287990E-04  2.39947904626635223E-04  2.42966077717258143E-04
  2.46022214751842703E-04  2.49116793258018156E-04  2.52250296769972399E-04
  2.55423214904004162E-04  2.58636043435027298E-04  2.61889284374036213E-04
  2.65183446046546268E-04  2.68519043172021237E-04  2.71896596944298070E-04
  2.75316635113025381E-04  2.78779692066125106E-04  2.82286308913291622E-04
  2.85837033570542065E-04  2.89432420845827862E-04  2.93073032525725688E-04
  2.96759437463217353E-04  3.00492211666574373E-04  3.04271938389360196E-04
  3.08099208221565741E-04  3.11974619181888560E-04  3.15898776811175880E-04
  3.19872294267040981E-04  3.23895792419670288E-04  3.27969899948836539E-04
  3.32095253442129721E-04  3.36272497494426279E-04  3.40502284808608081E-04
  3.44785276297548222E-04  3.49122141187381226E-04  3.53513557122069251E-04
  3.57960210269286569E-04  3.62462795427634160E-04  3.67022016135203251E-04
  3.71638584779505887E-04  3.76313222708784926E-04  3.81046660344727369E-04
  3.85839637296594203E-04  3.90692902476785081E-04  3.95607214217859186E-04
  4.00583340391023944E-04  4.05622058526117939E-04  4.10724155933101182E-04
  4.15890429825073351E-04  4.21121687442841688E-04  4.26418746181051703E-04
  4.31782433715908261E-04  4.37213588134501051E-04  4.42713058065757404E-04
  4.48281702813043683E-04  4.53920392488430717E-04  4.59630008148652260E-04
  4.65411441932771512E-04  4.71265597201579321E-04  4.77193388678747604E-04
  4.83195742593754403E-04  4.89273596826610840E-04  4.95427901054406434E-04
  5.01659616899697127E-04  5.07969718080763188E-04  5.14359190563751885E-04
  5.20829032716738061E-04  5.27380255465721096E-04  5.34013882452583728E-04
  5.40730950195039630E-04  5.47532508248589254E-04  5.54419619370516144E-04
  5.61393359685945291E-04  5.68454818855988471E-04  5.75605100248008763E-04
  5.82845321108020403E-04  5.90176612735263226E-04  5.97600120658969575E-04
  6.05117004817355242E-04  6.12728439738864238E-04  6.20435614725688232E-04
  6.28239734039599124E-04  6.36142017090117321E-04  6.44143698625046284E-04
  6.52246028923406519E-04  6.60450273990790919E-04  6.68757715757182982E-04
  6.77169652277260126E-04  6.85687397933217339E-04  6.94312283640144130E-04
  7.03045657053979057E-04  7.11888882782086077E-04  7.20843342596476995E-04
  7.29910435649715151E-04  7.39091578693538607E-04  7.48388206300226364E-04
  7.57801771086756191E-04  7.67333743941778007E-04  7.76985614255442628E-04
  7.86758890152124894E-04  7.96655098726066773E-04  8.06675786279992041E-04
  8.16822518566718246E-04  8.27096881033808013E-04  8.37500479071301754E-04
  8.48034938262558365E-04  8.58701904638258960E-04  8.69503044933601964E-04
  8.80440046848732704E-04  8.91514619312453469E-04  9.02728492749242445E-04
  9.14083419349638886E-04  9.25581173344025847E-04  9.37223551279856449E-04
  9.49012372302371603E-04  9.60949478438839549E-04  9.73036734886380630E-04
  9.85276030303406259E-04  9.97669277104725524E-04  1.01021841176036713E-03
  1.02292539509815173E-03  1.03579221261007842E-03  1.04882087476256079E-03
  1.06201341731056663E-03  1.07537190161571144E-03  1.08889841496834466E-03
  1.10259507091369771E-03  1.11646400958212823E-03  1.13050739802351865E-03
  1.14472743054588617E-03  1.15912632905824280E-03  1.17370634341777561E-03
  1.18846975178139099E-03  1.20341886096168318E-03  1.21855600678737468E-03
  1.23388355446829882E-03  1.24940389896496438E-03  1.26511946536277445E-03
  1.28103270925095363E-03  1.29714611710623389E-03  1.31346220668137692E-03
  1.32998352739857346E-03  1.34671266074779818E-03  1.36365222069017330E-03
  1.38080485406640269E-03  1.39817324101035008E-03  1.41576009536781072E-03
  1.43356816512055815E-03  1.45160023281572345E-03  1.46985911600056919E-03
  1.48834766766274247E-03  1.50706877667605471E-03  1.52602536825187721E-03
  1.54522040439621241E-03  1.56465688437250924E-03  1.58433784517030907E-03
  1.60426636197977712E-03  1.62444554867220920E-03  1.64487855828658212E-03
  1.66556858352221782E-03  1.68651885723765534E-03  1.70773265295578558E-03
  1.72921328537534863E-03  1.75096411088886388E-03  1.77298852810706879E-03
  1.79528997838996457E-03  1.81787194638452975E-03  1.84073796056920562E-03
  1.86389159380523188E-03  1.88733646389490630E-03  1.91107623414688097E-03
  1.93511461394855577E-03  1.95945535934568052E-03  1.98410227362924704E-03
  2.00905920792975425E-03  2.03433006181896444E-03  2.05991878391921035E-03
  2.08582937252037998E-03  2.11206587620465982E-03  2.13863239447912700E-03
  2.16553307841631411E-03  2.19277213130281493E-03  2.22035380929606029E-03
  2.24828242208935424E-03  2.27656233358526465E-03  2.30519796257750093E-03
  2.33419378344135132E-03  2.36355432683281767E-03  2.39328418039654132E-03
  2.42338798948262555E-03  2.45387045787248854E-03  2.48473634851383235E-03
  2.51599048426486569E-03  2.54763774864788907E-03  2.57968308661234678E-03
  2.61213150530749481E-03  2.64498807486476979E-03  2.67825792919001169E-03
  2.71194626676564843E-03  2.74605835146296377E-03  2.78059951336459511E-03
  2.81557514959736386E-03  2.85099072517558784E-03  2.88685177385500759E-03
  2.92316389899743628E-03  2.95993277444630805E-03  2.99716414541321714E-03
  3.03486382937562336E-03  3.07303771698584898E-03  3.11169177299149653E-03
  3.15083203716746106E-03  3.19046462525965097E-03  3.23059572994058688E-03
  3.27123162177702558E-03  3.31237865020973929E-03  3.35404324454563344E-03
  3.39623191496234329E-03  3.43895125352545192E-03  3.48220793521852650E-03
  3.52600871898608569E-03  3.57036044878970577E-03  3.61527005467740525E-03
  3.66074455386647055E-03  3.70679105183992176E-03  3.75341674345674829E-03
  3.80062891407612329E-03  3.84843494069576474E-03  3.89684229310458940E-03
  3.94585853504990022E-03  3.99549132541922487E-03  4.04574841943703464E-03
  4.09663766987652250E-03  4.14816702828659997E-03  4.20034454623436151E-03
  4.25317837656313900E-03  4.30667677466641148E-03  4.36084809977772912E-03
  4.41570081627684977E-03  4.47124349501232862E-03  4.52748481464071862E-03
  4.58443356298263334E-03  4.64209863839586904E-03  4.70048905116577515E-03
  4.75961392491314715E-03  4.81948249801979634E-03  4.88010412507207305E-03
  4.94148827832254292E-03  5.00364454917003390E-03  5.06658264965832977E-03
  5.13031241399367673E-03  5.19484380008141018E-03  5.26018689108190014E-03
  5.32635189698605228E-03  5.39334915621065853E-03  5.46118913721377677E-03
  5.52988244013045711E-03  5.59943979842904456E-03  5.66987208058828199E-03
  5.74119029179555838E-03  5.81340557566647088E-03  5.88652921598604301E-03
  5.96057263847185343E-03  6.03554741255930144E-03  6.11146525320938050E-03
  6.18833802273914633E-03  6.26617773267523423E-03  6.34499654563069285E-03
  6.42480677720539978E-03  6.50562089791041805E-03  6.58745153511652425E-03
  6.67031147502726313E-03  6.75421366467683203E-03  6.83917121395305819E-03
  6.92519739764586948E-03  7.01230565752148684E-03  7.10050960442273546E-03
  7.18982302039577678E-03  7.28025986084356036E-03  7.37183425670640772E-03
  7.46456051666997966E-03  7.55845312940104340E-03  7.65352676581137169E-03
  7.74979628135007668E-03  7.84727671832482869E-03  7.94598330825222778E-03
  8.04593147423776460E-03  8.14713683338573122E-03  8.24961519923938895E-03
  8.35338258425190328E-03  8.45845520228829563E-03  8.56484947115890467E-03
  8.67258201518470578E-03  8.78166966779488425E-03  8.89212947415710109E-03
  9.00397869384083130E-03  9.11723480351421360E-03  9.23191549967480353E-03
  9.34803870141469317E-03  9.46562255322041211E-03  9.58468542780803109E-03
  9.70524592899393856E-03  9.82732289460172895E-03  9.95093539940564327E-03
  1.00761027581110496E-02  1.02028445283724022E-02  1.03311805138491600E-02
  1.04611307673001599E-02  1.05927155937168838E-02  1.07259555534961731E-02
  1.08608714656528230E-02  1.09974844110725979E-02  1.11358157358061559E-02
  1.12758870544044272E-02  1.14177202532959182E-02  1.15613374942065208E-02
  1.17067612176223190E-02  1.18540141462959575E-02  1.20031192887971351E-02
  1.21540999431077237E-02  1.23069797002621304E-02  1.24617824480334517E-02
  1.26185323746659667E-02  1.27772539726546293E-02  1.29379720425720421E-02
  1.31007116969436167E-02  1.32654983641714470E-02  1.34323577925075412E-02
  1.36013160540770593E-02  1.37723995489521193E-02  1.39456350092768671E-02
  1.41210495034444338E-02  1.42986704403264067E-02  1.44785255735555545E-02
  1.46606430058623567E-02  1.48450511934661369E-02  1.50317789505213899E-02
  1.52208554536200497E-02  1.54123102463504091E-02  1.56061732439133505E-02
  1.58024747377966575E-02  1.60012454005081343E-02  1.62025162903682261E-02
  1.64063188563629593E-02  1.66126849430579156E-02  1.68216467955739947E-02
  1.70332370646257940E-02  1.72474888116233259E-02  1.74644355138379621E-02
  1.76841110696333084E-02  1.79065498037618842E-02  1.81317864727284644E-02
  1.83598562702208083E-02  1.85907948326087917E-02  1.88246382445126370E-02
  1.90614230444412086E-02  1.93011862305012480E-02  1.95439652661783675E-02
  1.97897980861908331E-02  2.00387231024169200E-02  2.02907792098968622E-02
  2.05460057929102644E-02  2.08044427311299789E-02  2.10661304058533984E-02
  2.13311097063121104E-02  2.15994220360609113E-02  2.18711093194472184E-02
  2.21462140081618020E-02  2.24247790878719828E-02  2.27068480849382109E-02
  2.29924650732151528E-02  2.32816746809383184E-02  2.35745220976973160E-02
  2.38710530814968160E-02  2.41713139659063339E-02  2.44753516672999438E-02
  2.47832136921870630E-02  2.50949481446354240E-02  2.54106037337874513E-02
  2.57302297814711624E-02  2.60538762299067847E-02  2.63815936495103501E-02
  2.67134332467954261E-02  2.70494468723742124E-02  2.73896870290593376E-02
  2.77342068800675023E-02  2.80830602573263616E-02  2.84363016698858558E-02
  2.87939863124353733E-02  2.91561700739280324E-02  2.95229095463134285E-02
  2.98942620333802651E-02  3.02702855597101646E-02  3.06510388797441441E-02
  3.10365814869631058E-02  3.14269736231838209E-02  3.18222762879718374E-02
  3.22225512481727691E-02  3.26278610475635097E-02  3.30382690166248424E-02
  3.34538392824368994E-02  3.38746367786992089E-02  3.43007272558766632E-02
  3.47321772914732235E-02  3.51690543004347447E-02  3.56114265456827020E-02
  3.60593631487804295E-02  3.65129341007335018E-02  3.69722102729259511E-02
  3.74372634281941036E-02  3.79081662320396029E-02  3.83849922639836263E-02
  3.88678160290637717E-02  3.93567129694756407E-02  3.98517594763608471E-02
  4.03530329017432673E-02  4.08606115706154696E-02  4.13745747931771393E-02
  4.18950028772274718E-02  4.24219771407134127E-02  4.29555799244357786E-02
  4.34958946049151390E-02  4.40430056074196039E-02  4.45969984191564237E-02
  4.51579596026295271E-02  4.57259768091651322E-02  4.63011387926073881E-02
  4.68835354231863788E-02  4.74732577015605506E-02  4.80703977730356780E-02
  4.86750489419628257E-02  4.92873056863173051E-02  4.99072636724610871E-02
  5.05350197700907972E-02  5.11706720673738846E-02  5.18143198862750440E-02
  5.24660637980754810E-02  5.31260056390874050E-02  5.37942485265661338E-02
  5.44708968748223860E-02  5.51560564115372368E-02  5.58498341942822510E-02
  5.65523386272474976E-02  5.72636794781798755E-02  5.79839678955345744E-02
  5.87133164258422588E-02  5.94518390312946468E-02  6.01996511075513843E-02
  6.09568695017708162E-02  6.17236125308676109E-02  6.25000000000000278E-02
  6.32861532212896788E-02  6.40821950327768314E-02  6.48882498176140965E-02
  6.57044435235015351E-02  6.65309036823662353E-02  6.73677594302894978E-02
  6.82151415276845141E-02  6.90731823797280098E-02  6.99420160570488059E-02
  7.08217783166766729E-02  7.17126066232545434E-02  7.26146401705177191E-02
  7.35280199030431819E-02  7.44528885382724076E-02  7.53893905888113197E-02
  7.63376723850106437E-02  7.72978820978303255E-02  7.82701697619915537E-02
  7.92546872994199930E-02  8.02515885429838788E-02  8.12610292605307205E-02
  8.22831671792263880E-02  8.33181620102002030E-02  8.43661754735002267E-02
  8.54273713233623111E-02  8.65019153737969920E-02  8.75899755244983619E-02
  8.86917217870786118E-02  8.98073263116328097E-02  9.09369634136376198E-02
  9.20808096011885013E-02  9.32390436025794384E-02  9.44118463942295733E-02
  9.55994012289612116E-02  9.68018936646333622E-02  9.80195115931355859E-02
  9.92524452697464976E-02  1.00500887342861472E-01  1.01765032884094414E-01
  1.03045079418758054E-01  1.04341226956727720E-01  1.05653678023693257E-01
  1.06982637692804070E-01  1.08328313616712246E-01  1.09690916060018712E-01
  1.11070657932127448E-01  1.12467754820513091E-01  1.13882425024406861E-01
  1.15314889588906289E-01  1.16765372339513951E-01  1.18234099917110647E-01
  1.19721301813368555E-01  1.21227210406609678E-01  1.22752060998115489E-01
  1.24296091848893300E-01  1.25859544216904845E-01  1.27442662394763512E-01
  1.29045693747905449E-01  1.30668888753241036E-01  1.32312501038292230E-01
  1.33976787420822502E-01  1.35662007948965213E-01  1.37368425941856415E-01
  1.39096308030779298E-01  1.40845924200825590E-01  1.42617547833081532E-01
  1.44411455747344070E-01  1.46227928245374506E-01  1.48067249154696295E-01
  1.49929705872943686E-01  1.51815589412768071E-01  1.53725194447309421E-01
  1.55658819356239486E-01  1.57616766272384329E-01  1.59599341128933009E-01
  1.61606853707240455E-01  1.63639617685231387E-01  1.65697950686412993E-01
  1.67782174329504458E-01  1.69892614278690401E-01  1.72029600294506591E-01
  1.74193466285365722E-01  1.76384550359731357E-01  1.78603194878947824E-01
  1.80849746510735127E-01  1.83124556283356416E-01  1.85427979640466783E-01
  1.87760376496652170E-01  1.90122111293666574E-01  1.92513553057377051E-01
  1.94935075455424600E-01  1.97387056855610560E-01  1.99869880385017323E-01
  2.02383933989872644E-01  2.04929610496167203E-01  2.07507307671034313E-01
  2.10117428284901903E-01  2.12760380174426306E-01  2.15436576306217265E-01
  2.18146434841365172E-01  2.20890379200779446E-01  2.23668838131348774E-01
  2.26482245772933993E-01  2.29331041726202889E-01  2.32215671121319106E-01
  2.35136584687494488E-01  2.38094238823416404E-01  2.41089095668561015E-01
  2.44121623175403368E-01  2.47192295182536187E-01  2.50301591488707897E-01
  2.53449997927792270E-01  2.56638006444700917E-01  2.59866115172250611E-01
  2.63134828508997665E-01  2.66444657198051216E-01  2.69796118406877894E-01
  2.73189735808110012E-01  2.76626039661371004E-01  2.80105566896129199E-01
  2.83628861195594051E-01  2.87196473081668180E-01  2.90808960000967065E-01
  2.94466886411921480E-01  2.98170823872975332E-01  3.01921351131892557E-01
  3.05719054216187947E-01  3.09564526524694850E-01  3.13458368920285113E-01
  3.17401189823755203E-01  3.21393605308892993E-01  3.25436239198740707E-01
  3.29529723163068389E-01  3.33674696817073679E-01  3.37871807821323089E-01
  3.42121711982950105E-01  3.46425073358126612E-01  3.50782564355822502E-01
  3.55194865842871632E-01  3.59662667250358337E-01  3.64186666681342253E-01
  3.68767571019938734E-01  3.73406096041770441E-01  3.78102966525809325E-01
  3.82858916367624313E-01  3.87674688694054248E-01  3.92551035979322949E-01
  3.97488720162614717E-01  4.02488512767128881E-01  4.07551195020632195E-01
  4.12677557977526865E-01  4.17868402642454562E-01  4.23124540095454971E-01
  4.28446791618698863E-01  4.33835988824814889E-01  4.39292973786831020E-01
  4.44818599169749918E-01  4.50413728363779464E-01  4.56079235619239687E-01
  4.61816006183165817E-01  4.67624936437630201E-01  4.73506934039803040E-01
  4.79462918063777110E-01  4.85493819144173611E-01  4.91600579621555955E-01
  4.97784153689673547E-01  5.04045507544554683E-01  5.10385619535478452E-01
  5.16805480317842125E-01  5.23306093007954276E-01  5.29888473339773625E-01
  5.36553649823618528E-01  5.43302663906875538E-01  5.50136570136725789E-01
  5.57056436324921300E-01  5.64063343714632959E-01  5.71158387149395486E-01
  5.78342675244181148E-01  5.85617330558620974E-01  5.92983489772408112E-01
  6.00442303862906757E-01  6.07994938284992958E-01  6.15642573153161843E-01
  6.23386403425920443E-01  6.31227639092503567E-01  6.39167505361937782E-01
  6.47207242854480946E-01  6.55348107795473700E-01  6.63591372211625674E-01
  6.71938324129772502E-01  6.80390267778134050E-01  6.88948523790100298E-01
  6.97614429410585823E-01  7.06389338704974334E-01  7.15274622770695423E-01
  7.24271669951462305E-01  7.33381886054200849E-01  7.42606694568712866E-01
  7.51947536890096191E-01  7.61405872543967410E-01  7.70983179414516329E-01
  7.80680953975425806E-01  7.90500711523702049E-01  8.00443986416440101E-01
  8.10512332310571293E-01  8.20707322405626494E-01  8.31030549689549258E-01
  8.41483627187606054E-01  8.52068188214422761E-01  8.62785886629193866E-01
  8.73638397094102515E-01  8.84627415335987988E-01  8.95754658411308524E-01
  9.07021864974432823E-01  9.18430795549309287E-01  9.29983232804552751E-01
  9.41680981831987007E-01  9.53525870428697853E-01  9.65519749382626635E-01
  9.77664492761761150E-01  9.89961998206964067E-01  1.00241418722847975E+00
  1.01502300550617774E+00  1.02779042319356639E+00  1.04071843522563445E+00
  1.05380906163056509E+00  1.06706434784536630E+00  1.08048636503547812E+00
  1.09407721041839312E+00  1.10783900759135312E+00  1.12177390686316558E+00
  1.13588408559019172E+00  1.15017174851656589E+00  1.16463912811868853E+00
  1.17928848495405569E+00  1.19412210801447860E+00  1.20914231508373859E+00
  1.22435145309975013E+00  1.23975189852127077E+00  1.25534605769922969E+00
  1.27113636725272627E+00  1.28712529444975221E+00  1.30331533759271356E+00
  1.31970902640878918E+00  1.33630892244520960E+00  1.35311761946950426E+00
  1.37013774387477949E+00  1.38737195509010292E+00  1.40482294599603907E+00
  1.42249344334542105E+00  1.44038620818941188E+00  1.45850403630892012E+00
  1.47684975865145174E+00  1.49542624177344696E+00  1.51423638828818685E+00
  1.53328313731933519E+00  1.55256946496017800E+00  1.57209838473864849E+00
  1.59187294808819346E+00  1.61189624482456706E+00  1.63217140362862367E+00
  1.65270159253517512E+00  1.67349001942800846E+00  1.69453993254111923E+00
  1.71585462096625707E+00  1.73743741516685501E+00  1.75929168749841591E+00
  1.78142085273545581E+00  1.80382836860506468E+00  1.82651773632718450E+00
  1.84949250116168562E+00  1.87275625296231407E+00  1.89631262673762091E+00
  1.92016530321893342E+00  1.94431800943547972E+00  1.96877451929674696E+00
  1.99353865418215714E+00  2.01861428353816841E+00  2.04400532548288583E+00
  2.06971574741827036E+00  2.09574956665005940E+00  2.12211085101547292E+00
  2.14880371951882498E+00  2.17583234297512806E+00  2.20320094466178507E+00
  2.23091380097849346E+00  2.25897524211543432E+00  2.28738965272987560E+00
  2.31616147263128713E+00  2.34529519747506354E+00  2.37479537946498631E+00
  2.40466662806450948E+00  2.43491361071699908E+00  2.46554105357503461E+00
  2.49655374223887216E+00  2.52795652250421332E+00  2.55975430111936397E+00
  2.59195204655192324E+00  2.62455478976512557E+00  2.65756762500392529E+00
  2.69099571059099629E+00  2.72484426973272065E+00  2.75911859133532822E+00
  2.79382403083130360E+00  2.82896601101617406E+00  2.86455002289584337E+00
  2.90058162654456231E+00  2.93706645197370664E+00  2.97401020001148142E+00
  3.01141864319367736E+00  3.04929762666565241E+00  3.08765306909563852E+00
  3.12649096359954815E+00  3.16581737867741664E+00  3.20563845916160783E+00
  3.24596042717696687E+00  3.28678958311302960E+00  3.32813230660847781E+00
  3.36999505754797291E+00  3.41238437707151787E+00  3.45530688859652724E+00
  3.49876929885275967E+00  3.54277839893023883E+00  3.58734106534038988E+00
  3.63246426109050224E+00  3.67815503677171307E+00  3.72442053166068687E+00
  3.77126797483512499E+00  3.81870468630333582E+00  3.86673807814799630E+00
  3.91537565568430379E+00  3.96462501863270900E+00  4.01449386230636840E+00
  4.06498997881356328E+00  4.11612125827523467E+00  4.16789569005782568E+00
  4.22032136402163438E+00  4.27340647178488453E+00  4.32715930800366522E+00
  4.38158827166799458E+00  4.43670186741418338E+00  4.49250870685369197E+00
  4.54901750991872955E+00  4.60623710622474025E+00  4.66417643645006130E+00
  4.72284455373291756E+00  4.78225062508599308E+00  4.84240393282880621E+00
  4.90331387603807212E+00  4.96498997201633774E+00  5.02744185777908204E+00
  5.09067929156050880E+00  5.15471215433831453E+00  5.21955045137757967E+00
  5.28520431379412958E+00  5.35168400013754120E+00  5.41899989799405635E+00
  5.48716252560967810E+00  5.55618253353364544E+00  5.62607070628261852E+00
  5.69683796402577780E+00  5.76849536429111787E+00  5.84105410369322886E+00
  5.91452551968275930E+00  5.98892109231793501E+00  6.06425244605834024E+00
  6.14053135158125407E+00  6.21776972762086633E+00  6.29597964283057010E+00
  6.37517331766873596E+00  6.45536312630817832E+00  6.53656159856963903E+00
  6.61878142187962037E+00  6.70203544325278511E+00  6.78633667129935603E+00
  6.87169827825772561E+00  6.95813360205264697E+00  7.04565614837932674E+00
  7.13427959281368995E+00  7.22401778294923513E+00  7.31488474056074445E+00
  7.40689466379520844E+00  7.50006192939034122E+00  7.59440109492093551E+00
  7.68992690107354004E+00  7.78665427394971577E+00  7.88459832739826094E+00
  7.98377436537680740E+00  8.08419788434306064E+00  8.18588457567616956E+00
  8.28885032812854128E+00  8.39311123030847028E+00  8.49868357319406087E+00
  8.60558385267867010E+00  8.71382877214845664E+00  8.82343524509231258E+00
  8.93442039774462593E+00  9.04680157176131239E+00  9.16059632692944881E+00
  9.27582244391104638E+00  9.39249792702131181E+00  9.51064100704185122E+00
  9.63027014406929815E+00  9.75140403039969428E+00  9.87406159344922507E+00
  9.99826199871166743E+00  1.01240246527530218E+01  1.02513692062438651E+01
  1.03803155570297569E+01  1.05108838532403492E+01  1.06430944964375716E+01
  1.07769681448033960E+01  1.09125257163677691E+01  1.10497883922770281E+01
  1.11887776201035525E+01  1.13295151171969604E+01  1.14720228740774992E+01
  1.16163231578721344E+01  1.17624385157937805E+01  1.19103917786643851E+01
  1.20602060644822870E+01  1.22119047820344342E+01  1.23655116345540979E+01
  1.25210506234244896E+01  1.26785460519290663E+01  1.28380225290489598E+01
  1.29995049733081647E+01  1.31630186166671592E+01  1.33285890084653786E+01
  1.34962420194133941E+01  1.36660038456352613E+01  1.38379010127616979E+01
  1.40119603800748180E+01  1.41882091447048815E+01  1.43666748458799400E+01
  1.45473853692288930E+01  1.47303689511386633E+01  1.49156541831662288E+01
                               </PP_R> 
 <PP_RAB type="real" size="   999" columns="3">
  7.12407785589465815E-07  7.21368772397673709E-07  7.30442474544204847E-07
  7.39630309813479665E-07  7.48933713823453078E-07  7.58354140249928818E-07
  7.67893061053702116E-07  7.77551966710555726E-07  7.87332366444148876E-07
  7.97235788461839610E-07  8.07263780193466445E-07  8.17417908533139535E-07
  8.27699760084070465E-07  8.38110941406481957E-07  8.48653079268639005E-07
  8.59327820901029907E-07  8.70136834253752580E-07  8.81081808257134632E-07
  8.92164453085630924E-07  9.03386500425045210E-07  9.14749703743105065E-07
  9.26255838563447614E-07  9.37906702743047596E-07  9.49704116753136476E-07
  9.61649923963657073E-07  9.73745990931288644E-07  9.85994207691105211E-07
  9.98396488051894121E-07  1.01095476989519384E-06  1.02367101547809381E-06
  1.03654721173983711E-06  1.04958537061228661E-06  1.06278752933429213E-06
  1.07615575077001347E-06  1.08969212373124909E-06  1.10339876330381373E-06
  1.11727781117802701E-06  1.13133143598335599E-06  1.14556183362726816E-06
  1.15997122763834926E-06  1.17456186951372845E-06  1.18933603907088412E-06
  1.20429604480386741E-06  1.21944422424400969E-06  1.23478294432516958E-06
  1.25031460175356587E-06  1.26604162338227098E-06  1.28196646659041106E-06
  1.29809161966713596E-06  1.31441960220042284E-06  1.33095296547076101E-06
  1.34769429284979880E-06  1.36464620020399975E-06  1.38181133630337553E-06
  1.39919238323536704E-06  1.41679205682391818E-06  1.43461310705383382E-06
  1.45265831850046971E-06  1.47093051076482618E-06  1.48943253891412236E-06
  1.50816729392789798E-06  1.52713770314974000E-06  1.54634673074468492E-06
  1.56579737816237444E-06  1.58549268460604237E-06  1.60543572750738991E-06
  1.62562962300744493E-06  1.64607752644346432E-06  1.66678263284195961E-06
  1.68774817741793337E-06  1.70897743608037915E-06  1.73047372594415382E-06
  1.75224040584828387E-06  1.77428087688078676E-06  1.79659858291010643E-06
  1.81919701112321401E-06  1.84207969257049462E-06  1.86525020271747941E-06
  1.88871216200351845E-06  1.91246923640748691E-06  1.93652513802059257E-06
  1.96088362562640536E-06  1.98554850528817074E-06  2.01052363094351552E-06
  2.03581290500663922E-06  2.06142027897806380E-06  2.08734975406207075E-06
  2.11360538179189609E-06  2.14019126466278796E-06  2.16711155677303823E-06
  2.19437046447305701E-06  2.22197224702263090E-06  2.24992121725644011E-06
  2.27822174225794350E-06  2.30687824404175550E-06  2.33589520024457854E-06
  2.36527714482485607E-06  2.39502866877120588E-06  2.42515442081977238E-06
  2.45565910818060982E-06  2.48654749727317751E-06  2.51782441447111433E-06
  2.54949474685636609E-06  2.58156344298279849E-06  2.61403551364943144E-06
  2.64691603268336855E-06  2.68021013773260516E-06  2.71392303106879197E-06
  2.74805998040010034E-06  2.78262631969432023E-06  2.81762745001228979E-06
  2.85306884035183111E-06  2.88895602850229090E-06  2.92529462190982863E-06
  2.96209029855360013E-06  2.99934880783294037E-06  3.03707597146572696E-06
  3.07527768439803387E-06  3.11395991572522720E-06  3.15312870962465524E-06
  3.19279018630005203E-06  3.23295054293784140E-06  3.27361605467545275E-06
  3.31479307558182861E-06  3.35648803965026581E-06  3.39870746180372587E-06
  3.44145793891281744E-06  3.48474615082656416E-06  3.52857886141614544E-06
  3.57296291963177582E-06  3.61790526057284853E-06  3.66341290657157144E-06
  3.70949296829021691E-06  3.75615264583218000E-06  3.80339922986700253E-06
  3.85124010276957227E-06  3.89968273977360734E-06  3.94873471013969851E-06
  3.99840367833801243E-06  4.04869740524587894E-06  4.09962374936045674E-06
  4.15119066802662202E-06  4.20340621868032899E-06  4.25627856010760152E-06
  4.30981595371935328E-06  4.36402676484226516E-06  4.41891946402586546E-06
  4.47450262836608245E-06  4.53078494284542751E-06  4.58777520169004098E-06
  4.64548230974382359E-06  4.70391528385981175E-06  4.76308325430909228E-06
  4.82299546620742788E-06  4.88366128095981419E-06  4.94509017772324050E-06
  5.00729175488779964E-06  5.07027573157647424E-06  5.13405194916376511E-06
  5.19863037281341689E-06  5.26402109303552126E-06  5.33023432726314680E-06
  5.39728042144885377E-06  5.46516985168126331E-06  5.53391322582196806E-06
  5.60352128516304604E-06  5.67400490610538447E-06  5.74537510185815393E-06
  5.81764302415964390E-06  5.89081996501974169E-06  5.96491735848434522E-06
  6.03994678242193004E-06  6.11591996033263550E-06  6.19284876318008110E-06
  6.27074521124621442E-06  6.34962147600953984E-06  6.42948988204689890E-06
  6.51036290895922593E-06  6.59225319332151370E-06  6.67517353065729711E-06
  6.75913687743799571E-06  6.84415635310736567E-06  6.93024524213145247E-06
  7.01741699607431630E-06  7.10568523569985622E-06  7.19506375310011004E-06
  7.28556651385025521E-06  7.37720765919079100E-06  7.47000150823711969E-06
  7.56396256021694086E-06  7.65910549673580365E-06  7.75544518407110323E-06
  7.85299667549498905E-06  7.95177521362646686E-06  8.05179623281307923E-06
  8.15307536154258115E-06  8.25562842488488683E-06  8.35947144696478761E-06
  8.46462065346575259E-06  8.57109247416521674E-06  8.67890354550180230E-06
  8.78807071317473923E-06  8.89861103477607596E-06  9.01054178245596346E-06
  9.12388044562143939E-06  9.23864473366923258E-06  9.35485257875282989E-06
  9.47252213858445272E-06  9.59167179927222610E-06  9.71232017819303319E-06
  9.83448612690156185E-06  9.95818873407583466E-06  1.00834473284999015E-05
  1.02102814820839781E-05  1.03387110129226005E-05  1.04687559883912729E-05
  1.06004367282819802E-05  1.07337738079782384E-05  1.08687880616700249E-05
  1.10055005856091588E-05  1.11439327414056697E-05  1.12841061593655312E-05
  1.14260427418704868E-05  1.15697646668003234E-05  1.17152943909982060E-05
  1.18626546537796461E-05  1.20118684804854957E-05  1.21629591860797586E-05
  1.23159503787925786E-05  1.24708659638090704E-05  1.26277301470045905E-05
  1.27865674387268969E-05  1.29474026576259816E-05  1.31102609345320108E-05
  1.32751677163820836E-05  1.34421487701963940E-05  1.36112301871043093E-05
  1.37824383864212224E-05  1.39558001197766042E-05  1.41313424752939845E-05
  1.43090928818235784E-05  1.44890791132280364E-05  1.46713292927221951E-05
  1.48558718972673883E-05  1.50427357620210411E-05  1.52319500848421835E-05
  1.54235444308537366E-05  1.56175487370620554E-05  1.58139933170346800E-05
  1.60129088656369204E-05  1.62143264638279229E-05  1.64182775835172115E-05
  1.66247940924821682E-05  1.68339082593474786E-05  1.70456527586271670E-05
  1.72600606758300329E-05  1.74771655126293781E-05  1.76970011920976360E-05
  1.79196020640069789E-05  1.81450029101965452E-05  1.83732389500071148E-05
  1.86043458457842823E-05  1.88383597084506866E-05  1.90753171031484671E-05
  1.93152550549526564E-05  1.95582110546563682E-05  1.98042230646288634E-05
  2.00533295247472168E-05  2.03055693584026177E-05  2.05609819785822765E-05
  2.08196072940277235E-05  2.10814857154706924E-05  2.13466581619473211E-05
  2.16151660671918606E-05  2.18870513861107992E-05  2.21623566013383619E-05
  2.24411247298745585E-05  2.27233993298066240E-05  2.30092245071150702E-05
  2.32986449225654005E-05  2.35917057986863295E-05  2.38884529268360128E-05
  2.41889326743569485E-05  2.44931919918210085E-05  2.48012784203655880E-05
  2.51132400991219281E-05  2.54291257727370568E-05  2.57489847989901294E-05
  2.60728671565047517E-05  2.64008234525582477E-05  2.67329049309890882E-05
  2.70691634802039270E-05  2.74096516412851872E-05  2.77544226162007549E-05
  2.81035302761169300E-05  2.84570291698158095E-05  2.88149745322187630E-05
  2.91774222930168922E-05  2.95444290854102222E-05  2.99160522549567665E-05
  3.02923498685328207E-05  3.06733807234061055E-05  3.10592043564229058E-05
  3.14498810533108238E-05  3.18454718580986121E-05  3.22460385826543335E-05
  3.26516438163436851E-05  3.30623509358096238E-05  3.34782241148751501E-05
  3.38993283345706068E-05  3.43257293932870485E-05  3.47574939170574402E-05
  3.51946893699670509E-05  3.56373840646948467E-05  3.60856471731875963E-05
  3.65395487374679576E-05  3.69991596805788547E-05  3.74645518176652169E-05
  3.79357978671952947E-05  3.84129714623231123E-05  3.88961471623937093E-05
  3.93854004645932660E-05  3.98808078157456426E-05  4.03824466242573400E-05
  4.08903952722128252E-05  4.14047331276217465E-05  4.19255405568204180E-05
  4.24528989370292925E-05  4.29868906690681531E-05  4.35275991902315826E-05
  4.40751089873260752E-05  4.46295056098713222E-05  4.51908756834675711E-05
  4.57593069233308873E-05  4.63348881479990274E-05  4.69177092932093564E-05
  4.75078614259515439E-05  4.81054367586970606E-05  4.87105286638073715E-05
  4.93232316881237528E-05  4.99436415677403123E-05  5.05718552429629370E-05
  5.12079708734565326E-05  5.18520878535824997E-05  5.25043068279295230E-05
  5.31647297070392402E-05  5.38334596833301489E-05  5.45106012472216180E-05
  5.51962602034606234E-05  5.58905436876541104E-05  5.65935601830089868E-05
  5.73054195372829195E-05  5.80262329799483657E-05  5.87561131395721920E-05
  5.94951740614143421E-05  6.02435312252474583E-05  6.10013015634009131E-05
  6.17686034790317838E-05  6.25455568646254210E-05  6.33322831207291275E-05
  6.41289051749209592E-05  6.49355475010176273E-05  6.57523361385237571E-05
  6.65793987123256616E-05  6.74168644526332343E-05  6.82648642151722124E-05
  6.91235305016307111E-05  6.99929974803630543E-05  7.08734010073535276E-05
  7.17648786474444879E-05  7.26675696958308887E-05  7.35816151998255430E-05
  7.45071579808981760E-05  7.54443426569912734E-05  7.63933156651172671E-05
  7.73542252842393345E-05  7.83272216584404333E-05  7.93124568203836607E-05
  8.03100847150675027E-05  8.13202612238802283E-05  8.23431441889565586E-05
  8.33788934378408000E-05  8.44276708084604113E-05  8.54896401744132300E-05
  8.65649674705733739E-05  8.76538207190185936E-05  8.87563700552842014E-05
  8.98727877549472206E-05  9.10032482605445099E-05  9.21479282088301073E-05
  9.33070064583747485E-05  9.44806641175130479E-05  9.56690845726421515E-05
  9.68724535168759667E-05  9.80909589790603640E-05  9.93247913531528472E-05
  1.00574143427972057E-04  1.01839210417321640E-04  1.03120189990492362E-04
  1.04417282303148794E-04  1.05730690028603706E-04  1.07060618389486314E-04
  1.08407275189808828E-04  1.09770870847436061E-04  1.11151618426963766E-04
  1.12549733673010402E-04  1.13965435043927678E-04  1.15398943745935047E-04
  1.16850483767683676E-04  1.18320281915255157E-04  1.19808567847600391E-04
  1.21315574112424240E-04  1.22841536182521612E-04  1.24386692492570541E-04
  1.25951284476388126E-04  1.27535556604655044E-04  1.29139756423114505E-04
  1.30764134591251999E-04  1.32408944921461047E-04  1.34074444418702174E-04
  1.35760893320660298E-04  1.37468555138407485E-04  1.39197696697576965E-04
  1.40948588180055340E-04  1.42721503166198978E-04  1.44516718677581527E-04
  1.46334515220278982E-04  1.48175176828699480E-04  1.50038991109964189E-04
  1.51926249288846546E-04  1.53837246253276652E-04  1.55772280600418157E-04
  1.57731654683324600E-04  1.59715674658182888E-04  1.61724650532150526E-04
  1.63758896211795219E-04  1.65818729552143093E-04  1.67904472406344265E-04
  1.70016450675963257E-04  1.72154994361901513E-04  1.74320437615960855E-04
  1.76513118793055439E-04  1.78733380504080106E-04  1.80981569669444437E-04
  1.83258037573279475E-04  1.85563139918326733E-04  1.87897236881517379E-04
  1.90260693170250621E-04  1.92653878079380135E-04  1.95077165548916904E-04
  1.97530934222458224E-04  2.00015567506351701E-04  2.02531453629602837E-04
  2.05078985704537013E-04  2.07658561788223955E-04  2.10270584944674950E-04
  2.12915463307822436E-04  2.15593610145291585E-04  2.18305443922974543E-04
  2.21051388370416361E-04  2.23831872547023558E-04  2.26647330909105822E-04
  2.29498203377760126E-04  2.32384935407609907E-04  2.35307978056407973E-04
  2.38267788055515118E-04  2.41264827881265616E-04  2.44299565827229594E-04
  2.47372476077385402E-04  2.50484038780211500E-04  2.53634740123710777E-04
  2.56825072411378294E-04  2.60055534139124725E-04  2.63326630073167501E-04
  2.66638871328901369E-04  2.69992775450761423E-04  2.73388866493090230E-04
  2.76827675102022514E-04  2.80309738598399796E-04  2.83835601061727648E-04
  2.87405813415189443E-04  2.91020933511728979E-04  2.94681526221216483E-04
  2.98388163518710199E-04  3.02141424573829185E-04  3.05941895841249330E-04
  3.09790171152338287E-04  3.13686851807942844E-04  3.17632546672343174E-04
  3.21627872268389573E-04  3.25673452873834852E-04  3.29769920618879408E-04
  3.33917915584942859E-04  3.38118085904677676E-04  3.42371087863241753E-04
  3.46677586000843812E-04  3.51038253216579563E-04  3.55453770873573240E-04
  3.59924828905442188E-04  3.64452125924100438E-04  3.69036369328917867E-04
  3.73678275417253358E-04  3.78378569496377101E-04  3.83137985996801812E-04
  3.87957268587038866E-04  3.92837170289797772E-04  3.97778453599647967E-04
  4.02781890602159625E-04  4.07848263094543915E-04  4.12978362707810552E-04
  4.18172991030461275E-04  4.23432959733740133E-04  4.28759090698458312E-04
  4.34152216143415327E-04  4.39613178755434331E-04  4.45142831821033807E-04
  4.50742039359755379E-04  4.56411676259168772E-04  4.62152628411574421E-04
  4.67965792852426327E-04  4.73852077900495058E-04  4.79812403299795340E-04
  4.85847700363297168E-04  4.91958912118445574E-04  4.98146993454510589E-04
  5.04412911271790864E-04  5.10757644632693392E-04  5.17182184914714220E-04
  5.23687535965343398E-04  5.30274714258917703E-04  5.36944749055447254E-04
  5.43698682561439238E-04  5.50537570092745070E-04  5.57462480239455296E-04
  5.64474495032869111E-04  5.71574710114564196E-04  5.78764234907592351E-04
  5.86044192789829757E-04  5.93415721269506926E-04  6.00879972162945974E-04
  6.08438111774535365E-04  6.16091321078966400E-04  6.23840795905763676E-04
  6.31687747126134964E-04  6.39633400842173601E-04  6.47678998578438093E-04
  6.55825797475943534E-04  6.64075070488592584E-04  6.72428106582076694E-04
  6.80886210935279890E-04  6.89450705144215460E-04  6.98122927428528202E-04
  7.06904232840593763E-04  7.15795993477248466E-04  7.24799598694182267E-04
  7.33916455323028235E-04  7.43147987891183128E-04  7.52495638844392369E-04
  7.61960868772135289E-04  7.71545156635845136E-04  7.81250000000000369E-04
  7.91076915266121072E-04  8.01027437909710392E-04  8.11103122720176228E-04
  8.21305544043769275E-04  8.31636296029577985E-04  8.42096992878618809E-04
  8.52689269096056426E-04  8.63414779746600144E-04  8.74275200713110073E-04
  8.85272228958458411E-04  8.96407582790681814E-04  9.07683002131471489E-04
  9.19100248788039817E-04  9.30661106728405138E-04  9.42367382360141540E-04
  9.54220904812633111E-04  9.66223526222879069E-04  9.78377122024894422E-04
  9.90683591242749869E-04  1.00314485678729853E-03  1.01576286575663405E-03
  1.02853958974032989E-03  1.04147702512750258E-03  1.05457719341875292E-03
  1.06784214154202902E-03  1.08127394217246244E-03  1.09487469405622961E-03
  1.10864652233848260E-03  1.12259157889541016E-03  1.13671204267047025E-03
  1.15101012001485640E-03  1.16548804503224302E-03  1.18014807992786967E-03
  1.19499251536201519E-03  1.21002367080791720E-03  1.22524389491419482E-03
  1.24065556587183139E-03  1.25626109178576849E-03  1.27206291105118026E-03
  1.28806349273447572E-03  1.30426533695909667E-03  1.32067097529616579E-03
  1.33728297116005100E-03  1.35410392020890316E-03  1.37113645075023403E-03
  1.38838322415159310E-03  1.40584693525641364E-03  1.42353031280508576E-03
  1.44143611986132869E-03  1.45956715424392443E-03  1.47792624896388321E-03
  1.49651627266710703E-03  1.51534013008262111E-03  1.53440076247644375E-03
  1.55370114811116634E-03  1.57324430271131056E-03  1.59303327993454407E-03
  1.61307117184881815E-03  1.63336110941551295E-03  1.65390626297865287E-03
  1.67470984276028140E-03  1.69577509936206529E-03  1.71710532427320531E-03
  1.73870385038474122E-03  1.76057405251031987E-03  1.78271934791351928E-03
  1.80514319684180104E-03  1.82784910306718141E-03  1.85084061443370387E-03
  1.87412132341179612E-03  1.89769486765960097E-03  1.92156493059136781E-03
  1.94573524195299375E-03  1.97020957840480420E-03  1.99499176411166261E-03
  2.02008567134050578E-03  2.04549522106539259E-03  2.07122438358016241E-03
  2.09727717911880598E-03  2.12365767848363010E-03  2.15037000368133255E-03
  2.17741832856707153E-03  2.20480687949664187E-03  2.23253993598684789E-03
  2.26062183138418934E-03  2.28905695354195528E-03  2.31784974550583488E-03
  2.34700470620815248E-03  2.37652639117083217E-03  2.40641941321721340E-03
  2.43668844319280776E-03  2.46733821069513226E-03  2.49837350481271672E-03
  2.52979917487340840E-03  2.56162013120209012E-03  2.59384134588792892E-03
  2.62646785356127413E-03  2.65950475218032891E-03  2.69295720382771615E-03
  2.72683043551706465E-03  2.76112974000974334E-03  2.79586047664185993E-03
  2.83102807216167526E-03  2.86663802157753611E-03  2.90269588901648917E-03
  2.93920730859368109E-03  2.97617798529270505E-03  3.01361369585701269E-03
  3.05152028969254236E-03  3.08990368978170242E-03  3.12876989360884880E-03
  3.16812497409740346E-03  3.20797508055876155E-03  3.24832643965313264E-03
  3.28918535636247081E-03  3.33055821497564054E-03  3.37245148008597385E-03
  3.41487169760137542E-03  3.45782549576713772E-03  3.50131958620161516E-03
  3.54536076494492598E-03  3.58995591352085242E-03  3.63511200001208866E-03
  3.68083608014901876E-03  3.72713529841219200E-03  3.77401688914865731E-03
  3.82148817770234942E-03  3.86955658155868588E-03  3.91822961150356443E-03
  3.96751487279693987E-03  4.01742006636116294E-03  4.06795298998425918E-03
  4.11912153953835486E-03  4.17093371021342099E-03  4.22339759776653879E-03
  4.27652139978687649E-03  4.33031341697658317E-03  4.38478205444778162E-03
  4.43993582303589540E-03  4.49578334062947921E-03  4.55233333351677798E-03
  4.60959463774923434E-03  4.66757620052213069E-03  4.72628708157261674E-03
  4.78573645459530461E-03  4.84593360867567862E-03  4.90688794974153755E-03
  4.96860900203268448E-03  5.03110640958911136E-03  5.09438993775790296E-03
  5.15846947471908582E-03  5.22335503303068219E-03  5.28905675119318783E-03
  5.35558489523373614E-03  5.42294986031018663E-03  5.49116217233538810E-03
  5.56023248962187432E-03  5.63017160454724365E-03  5.70099044524049678E-03
  5.77270007728957271E-03  5.84531170547037803E-03  5.91883667549753835E-03
  5.99328647579721457E-03  6.06867273930217048E-03  6.14500724526944979E-03
  6.22230192112091952E-03  6.30056884430693371E-03  6.37982024419348100E-03
  6.46006850397302674E-03  6.54132616259942880E-03  6.62360591674717065E-03
  6.70692062279523195E-03  6.79128329883594423E-03  6.87670712670907305E-03
  6.96320545406151677E-03  7.05079179643291250E-03  7.13947983936744426E-03
  7.22928344055226435E-03  7.32021663198276218E-03  7.41229362215510210E-03
  7.50552879828633463E-03  7.59993672856241250E-03  7.69553216441452338E-03
  7.79233004282400572E-03  7.89034548865629425E-03  7.98959381702422228E-03
  8.09009053568101287E-03  8.19185134744342125E-03  8.29489215264532162E-03
  8.39922905162215731E-03  8.50487834722667667E-03  8.61185654737625476E-03
  8.72018036763232314E-03  8.82986673381217987E-03  8.94093278463369348E-03
  9.05339587439327881E-03  9.16727357567751096E-03  9.28258368210891152E-03
  9.39934421112620377E-03  9.51757340679959367E-03  9.63728974268145480E-03
  9.75851192469282328E-03  9.88125889404627665E-03  1.00055498302055023E-02
  1.01314041538821415E-02  1.02588415300703326E-02  1.03878818711193657E-02
  1.05185453398450764E-02  1.06508523526802849E-02  1.07848235828649237E-02
  1.09204799636762814E-02  1.10578426916998502E-02  1.11969332301413566E-02
  1.13377733121804106E-02  1.14803849443663661E-02  1.16247904100569097E-02
  1.17710122728998390E-02  1.19190733803587242E-02  1.20689968672828343E-02
  1.22208061595220144E-02  1.23745249775870508E-02  1.25301773403559968E-02
  1.26877875688272222E-02  1.28473802899195799E-02  1.30089804403204310E-02
  1.31726132703820636E-02  1.33383043480670791E-02  1.35060795629434773E-02
  1.36759651302299154E-02  1.38479875948919143E-02  1.40221738357895701E-02
  1.41985510698773975E-02  1.43771468564570740E-02  1.45579891014836066E-02
  1.47411060619256976E-02  1.49265263501809839E-02  1.51142789385467335E-02
  1.53043931637468766E-02  1.54968987315158846E-02  1.56918257212403725E-02
  1.58892045906590777E-02  1.60890661806219019E-02  1.62914417199089209E-02
  1.64963628301098668E-02  1.67038615305651200E-02  1.69139702433688047E-02
  1.71267217984347429E-02  1.73421494386262857E-02  1.75602868249504877E-02
  1.77811680418177645E-02  1.80048276023676498E-02  1.82313004538615028E-02
  1.84606219831431467E-02  1.86928280221680884E-02  1.89279548536023384E-02
  1.91660392164916919E-02  1.94071183120022271E-02  1.96512298092331068E-02
  1.98984118511024190E-02  2.01487030603070896E-02  2.04021425453577987E-02
  2.06587699066896890E-02  2.09186252428501078E-02  2.11817491567639904E-02
  2.14481827620782162E-02  2.17179676895856884E-02  2.19911460937302003E-02
  2.22677606591931976E-02  2.25478546075633113E-02  2.28314717040898063E-02
  2.31186562645210730E-02  2.34094531620289287E-02  2.37039078342202621E-02
  2.40020662902366705E-02  2.43039751179434972E-02  2.46096814912093384E-02
  2.49192331772769664E-02  2.52326785442271058E-02  2.55500665685360756E-02
  2.58714468427283795E-02  2.61968695831257432E-02  2.65263856376934115E-02
  2.68600464939853130E-02  2.71979042871891008E-02  2.75400118082723133E-02
  2.78864225122311682E-02  2.82371905264429297E-02  2.85923706591234457E-02
  2.89520184078910919E-02  2.93161899684382943E-02  2.96849422433123310E-02
  3.00583328508063699E-02  3.04364201339624892E-02  3.08192631696879334E-02
  3.12069217779859034E-02  3.15994565313026665E-02  3.19969287639920510E-02
  3.23994005818990446E-02  3.28069348720640697E-02  3.32195953125490676E-02
  3.36374463823874564E-02  3.40605533716590095E-02  3.44889823916916041E-02
  3.49228003853912991E-02  3.53620751377021758E-02  3.58068752861980463E-02
  3.62572703318070275E-02  3.67133306496713330E-02  3.71751275001435191E-02
  3.76427330399209670E-02  3.81162203333206551E-02  3.85956633636954857E-02
  3.90811370449943574E-02  3.95727172334677108E-02  4.00704807395201035E-02
  4.05745053397120886E-02  4.10848697889128756E-02  4.16016538326059726E-02
  4.21249382193496641E-02  4.26548047133939734E-02  4.31913361074565960E-02
  4.37346162356594959E-02  4.42847299866279895E-02  4.48417633167548790E-02
  4.54058032636312781E-02  4.59769379596464134E-02  4.65552566457585887E-02
  4.71408496854390652E-02  4.77338085787916977E-02  4.83342259768499566E-02
  4.89421956960537988E-02  4.95578127329088652E-02  5.01811732788296078E-02
  5.08123747351695437E-02  5.14515157284404362E-02  5.20986961257228209E-02
  5.27540170502704339E-02  5.34175808973110580E-02  5.40894913500458152E-02
  5.47698533958499365E-02  5.54587733426772922E-02  5.61563588356711538E-02
  5.68627188739841208E-02  5.75779638278092545E-02  5.83022054556257691E-02
  5.90355569216614723E-02  5.97781328135749135E-02  6.05300491603600818E-02
  6.12914234504759042E-02  6.20623746502042273E-02  6.28430232222385310E-02
  6.36334911445063656E-02  6.44339019292289317E-02  6.52443806422197542E-02
  6.60650539224266198E-02  6.68960500017192622E-02  6.77374987249257099E-02
  6.85895315701209735E-02  6.94522816691705708E-02  7.03258838285327342E-02
  7.12104745503222281E-02  7.21061920536389817E-02  7.30131762961653691E-02
  7.39315689960344941E-02  7.48615136539741849E-02  7.58031555757292530E-02
  7.67566418947656787E-02  7.77221215952608319E-02  7.86997455353821290E-02
  7.96896664708592051E-02  8.06920390788522374E-02  8.17070199821204879E-02
  8.27347677734952547E-02  8.37754430406598138E-02  8.48292083912419587E-02
  8.58962284782215785E-02  8.69766700256580927E-02  8.80707018547415843E-02
  8.91784949101711300E-02  9.03002222868654475E-02  9.14360592570093167E-02
  9.25861832974401167E-02  9.37507741173792680E-02  9.49300136865117022E-02
  9.61240862634192561E-02  9.73331784243714471E-02  9.85574790924782645E-02
  9.97971795672100981E-02  1.01052473554288258E-01  1.02323557195952125E-01
  1.03610629101606774E-01  1.04913890378855887E-01  1.06233544664925766E-01
  1.07569798158483387E-01  1.08922859651855719E-01  1.10292940563653907E-01
  1.11680254971807835E-01  1.13085019647016408E-01  1.14507454086618110E-01
  1.15947780548888088E-01  1.17406224087766409E-01  1.18883012588023140E-01
  1.20378376800866230E-01  1.21892550379996190E-01  1.23425769918115324E-01
  1.24978274983895854E-01  1.26550308159412789E-01  1.28142115078048319E-01
  1.29753944462871973E-01  1.31386048165504365E-01  1.33038681205469661E-01
  1.34712101810042451E-01  1.36406571454597114E-01  1.38122354903462863E-01
  1.39859720251294423E-01  1.41618938964961999E-01  1.43400285925968735E-01
  1.45204039473401686E-01  1.47030481447422257E-01  1.48879897233304831E-01
  1.50752575806028605E-01  1.52648809775430438E-01  1.54568895431926229E-01
  1.56513132792806126E-01  1.58481825649113339E-01  1.60475281613112003E-01
  1.62493812166352058E-01  1.64537732708339490E-01  1.66607362605817239E-01
  1.68703025242667448E-01  1.70825048070440771E-01  1.72973762659521246E-01
  1.75149504750935242E-01  1.77352614308811024E-01  1.79583435573499262E-01
  1.81842317115361168E-01  1.84129611889233297E-01  1.86445677289577866E-01
                             </PP_RAB> 
                                  </PP_MESH>
 <PP_NLCC type="real" size="   999" columns="3">
  6.07030536861178138E-01  6.07030536795494347E-01  6.07030536728147774E-01
  6.07030536659096343E-01  6.07030536588296754E-01  6.07030536515704933E-01
  6.07030536441275470E-01  6.07030536364961848E-01  6.07030536286716327E-01
  6.07030536206489946E-01  6.07030536124232745E-01  6.07030536039893098E-01
  6.07030535953418382E-01  6.07030535864754417E-01  6.07030535773846025E-01
  6.07030535680636252E-01  6.07030535585066922E-01  6.07030535487078304E-01
  6.07030535386609005E-01  6.07030535283596295E-01  6.07030535177975894E-01
  6.07030535069681632E-01  6.07030534958645895E-01  6.07030534844799297E-01
  6.07030534728070559E-01  6.07030534608386851E-01  6.07030534485673345E-01
  6.07030534359853324E-01  6.07030534230848184E-01  6.07030534098577323E-01
  6.07030533962958141E-01  6.07030533823905594E-01  6.07030533681332862E-01
  6.07030533535150907E-01  6.07030533385268467E-01  6.07030533231591618E-01
  6.07030533074024325E-01  6.07030532912468335E-01  6.07030532746822393E-01
  6.07030532576983251E-01  6.07030532402844547E-01  6.07030532224297481E-01
  6.07030532041230364E-01  6.07030531853529065E-01  6.07030531661076123E-01
  6.07030531463751188E-01  6.07030531261430917E-01  6.07030531053988742E-01
  6.07030530841295102E-01  6.07030530623217324E-01  6.07030530399618740E-01
  6.07030530170359905E-01  6.07030529935297158E-01  6.07030529694283838E-01
  6.07030529447169065E-01  6.07030529193798851E-01  6.07030528934014546E-01
  6.07030528667653724E-01  6.07030528394549851E-01  6.07030528114532397E-01
  6.07030527827426281E-01  6.07030527533051867E-01  6.07030527231225414E-01
  6.07030526921758184E-01  6.07030526604456888E-01  6.07030526279122906E-01
  6.07030525945553068E-01  6.07030525603538984E-01  6.07030525252866826E-01
  6.07030524893317214E-01  6.07030524524665438E-01  6.07030524146681350E-01
  6.07030523759128804E-01  6.07030523361765106E-01  6.07030522954342011E-01
  6.07030522536604833E-01  6.07030522108292669E-01  6.07030521669137957E-01
  6.07030521218865915E-01  6.07030520757194991E-01  6.07030520283836972E-01
  6.07030519798495982E-01  6.07030519300868154E-01  6.07030518790642848E-01
  6.07030518267501207E-01  6.07030517731116492E-01  6.07030517181152973E-01
  6.07030516617266813E-01  6.07030516039105961E-01  6.07030515446308927E-01
  6.07030514838505120E-01  6.07030514215314732E-01  6.07030513576348185E-01
  6.07030512921206133E-01  6.07030512249479126E-01  6.07030511560747277E-01
  6.07030510854579930E-01  6.07030510130535883E-01  6.07030509388162831E-01
  6.07030508626996368E-01  6.07030507846560874E-01  6.07030507046368628E-01
  6.07030506225919142E-01  6.07030505384700048E-01  6.07030504522185543E-01
  6.07030503637836394E-01  6.07030502731099708E-01  6.07030501801408828E-01
  6.07030500848182775E-01  6.07030499870825802E-01  6.07030498868726731E-01
  6.07030497841259398E-01  6.07030496787781870E-01  6.07030495707635231E-01
  6.07030494600144466E-01  6.07030493464617571E-01  6.07030492300344782E-01
  6.07030491106598014E-01  6.07030489882631308E-01  6.07030488627680165E-01
  6.07030487340959657E-01  6.07030486021665427E-01  6.07030484668973580E-01
  6.07030483282037570E-01  6.07030481859991422E-01  6.07030480401945960E-01
  6.07030478906989912E-01  6.07030477374189137E-01  6.07030475802585179E-01
  6.07030474191195712E-01  6.07030472539013544E-01  6.07030470845006720E-01
  6.07030469108115756E-01  6.07030467327254852E-01  6.07030465501311345E-01
  6.07030463629144146E-01  6.07030461709582747E-01  6.07030459741427220E-01
  6.07030457723447769E-01  6.07030455654382961E-01  6.07030453532939385E-01
  6.07030451357791212E-01  6.07030449127579086E-01  6.07030446840908677E-01
  6.07030444496350907E-01  6.07030442092440725E-01  6.07030439627674889E-01
  6.07030437100513520E-01  6.07030434509376660E-01  6.07030431852644714E-01
  6.07030429128657345E-01  6.07030426335711915E-01  6.07030423472062708E-01
  6.07030420535919935E-01  6.07030417525448396E-01  6.07030414438766375E-01
  6.07030411273944748E-01  6.07030408029005097E-01  6.07030404701919601E-01
  6.07030401290608590E-01  6.07030397792939547E-01  6.07030394206726664E-01
  6.07030390529728403E-01  6.07030386759646601E-01  6.07030382894124920E-01
  6.07030378930746961E-01  6.07030374867035372E-01  6.07030370700450628E-01
  6.07030366428388479E-01  6.07030362048178285E-01  6.07030357557082678E-01
  6.07030352952294461E-01  6.07030348230935379E-01  6.07030343390054794E-01
  6.07030338426626792E-01  6.07030333337548633E-01  6.07030328119640084E-01
  6.07030322769639641E-01  6.07030317284203202E-01  6.07030311659902511E-01
  6.07030305893221822E-01  6.07030299980556909E-01  6.07030293918212394E-01
  6.07030287702398752E-01  6.07030281329231203E-01  6.07030274794726266E-01
  6.07030268094799208E-01  6.07030261225263046E-01  6.07030254181823548E-01
  6.07030246960078901E-01  6.07030239555514606E-01  6.07030231963503253E-01
  6.07030224179299083E-01  6.07030216198036876E-01  6.07030208014728290E-01
  6.07030199624258193E-01  6.07030191021382448E-01  6.07030182200723800E-01
  6.07030173156769548E-01  6.07030163883865992E-01  6.07030154376218323E-01
  6.07030144627883406E-01  6.07030134632768004E-01  6.07030124384625447E-01
  6.07030113877049859E-01  6.07030103103474050E-01  6.07030092057163850E-01
  6.07030080731214894E-01  6.07030069118548510E-01  6.07030057211906060E-01
  6.07030045003845720E-01  6.07030032486736926E-01  6.07030019652756270E-01
  6.07030006493881835E-01  6.07029993001889423E-01  6.07029979168345224E-01
  6.07029964984603709E-01  6.07029950441799304E-01  6.07029935530842057E-01
  6.07029920242412424E-01  6.07029904566954381E-01  6.07029888494670766E-01
  6.07029872015515060E-01  6.07029855119188388E-01  6.07029837795128979E-01
  6.07029820032509493E-01  6.07029801820227366E-01  6.07029783146899260E-01
  6.07029764000853955E-01  6.07029744370124469E-01  6.07029724242441393E-01
  6.07029703605223681E-01  6.07029682445572538E-01  6.07029660750262878E-01
  6.07029638505734215E-01  6.07029615698083114E-01  6.07029592313054089E-01
  6.07029568336030501E-01  6.07029543752026446E-01  6.07029518545675884E-01
  6.07029492701223861E-01  6.07029466202516965E-01  6.07029439032992890E-01
  6.07029411175669775E-01  6.07029382613135771E-01  6.07029353327538379E-01
  6.07029323300573576E-01  6.07029292513473040E-01  6.07029260946994609E-01
  6.07029228581407287E-01  6.07029195396482590E-01  6.07029161371478221E-01
  6.07029126485127968E-01  6.07029090715626607E-01  6.07029054040617244E-01
  6.07029016437176439E-01  6.07028977881801768E-01  6.07028938350393954E-01
  6.07028897818245539E-01  6.07028856260022120E-01  6.07028813649748922E-01
  6.07028769960793246E-01  6.07028725165847716E-01  6.07028679236914726E-01
  6.07028632145287128E-01  6.07028583861531357E-01  6.07028534355468552E-01
  6.07028483596155688E-01  6.07028431551867254E-01  6.07028378190073714E-01
  6.07028323477422638E-01  6.07028267379716602E-01  6.07028209861893209E-01
  6.07028150888002216E-01  6.07028090421183109E-01  6.07028028423642230E-01
  6.07027964856629687E-01  6.07027899680414373E-01  6.07027832854258764E-01
  6.07027764336395048E-01  6.07027694083997371E-01  6.07027622053156413E-01
  6.07027548198850520E-01  6.07027472474918728E-01  6.07027394834031564E-01
  6.07027315227661179E-01  6.07027233606052041E-01  6.07027149918187625E-01
  6.07027064111760883E-01  6.07026976133140606E-01  6.07026885927338333E-01
  6.07026793437971834E-01  6.07026698607233905E-01  6.07026601375852293E-01
  6.07026501683054942E-01  6.07026399466531030E-01  6.07026294662392885E-01
  6.07026187205135237E-01  6.07026077027593924E-01  6.07025964060906253E-01
  6.07025848234463927E-01  6.07025729475873410E-01  6.07025607710907411E-01
  6.07025482863459920E-01  6.07025354855497690E-01  6.07025223607013276E-01
  6.07025089035972854E-01  6.07024951058266260E-01  6.07024809587654479E-01
  6.07024664535714575E-01  6.07024515811786070E-01  6.07024363322912985E-01
  6.07024206973786229E-01  6.07024046666684192E-01  6.07023882301411355E-01
  6.07023713775235674E-01  6.07023540982824739E-01  6.07023363816179717E-01
  6.07023182164567299E-01  6.07022995914451857E-01  6.07022804949422956E-01
  6.07022609150123293E-01  6.07022408394175095E-01  6.07022202556101509E-01
  6.07021991507249781E-01  6.07021775115710427E-01  6.07021553246234635E-01
  6.07021325760149999E-01  6.07021092515273475E-01  6.07020853365822899E-01
  6.07020608162325837E-01  6.07020356751526102E-01  6.07020098976287614E-01
  6.07019834675496583E-01  6.07019563683961150E-01  6.07019285832307465E-01
  6.07019000946874110E-01  6.07018708849603517E-01  6.07018409357930722E-01
  6.07018102284669903E-01  6.07017787437895695E-01  6.07017464620825509E-01
  6.07017133631694628E-01  6.07016794263630755E-01  6.07016446304525670E-01
  6.07016089536901005E-01  6.07015723737773905E-01  6.07015348678516142E-01
  6.07014964124712786E-01  6.07014569836014761E-01  6.07014165565987973E-01
  6.07013751061961981E-01  6.07013326064868575E-01  6.07012890309082787E-01
  6.07012443522254697E-01  6.07011985425141343E-01  6.07011515731429863E-01
  6.07011034147561301E-01  6.07010540372544316E-01  6.07010034097769213E-01
  6.07009515006814104E-01  6.07008982775247952E-01  6.07008437070426066E-01
  6.07007877551285047E-01  6.07007303868126513E-01  6.07006715662401497E-01
  6.07006112566484068E-01  6.07005494203442963E-01  6.07004860186805550E-01
  6.07004210120317023E-01  6.07003543597690820E-01  6.07002860202357941E-01
  6.07002159507203487E-01  6.07001441074301762E-01  6.07000704454641715E-01
  6.06999949187846721E-01  6.06999174801887253E-01  6.06998380812785232E-01
  6.06997566724311488E-01  6.06996732027677233E-01  6.06995876201214424E-01
  6.06994998710050360E-01  6.06994099005773391E-01  6.06993176526091971E-01
  6.06992230694479717E-01  6.06991260919818698E-01  6.06990266596028727E-01
  6.06989247101687668E-01  6.06988201799645299E-01  6.06987130036623523E-01
  6.06986031142809579E-01  6.06984904431435934E-01  6.06983749198353073E-01
  6.06982564721587292E-01  6.06981350260892394E-01  6.06980105057285280E-01
  6.06978828332572440E-01  6.06977519288863676E-01  6.06976177108073611E-01
  6.06974800951411098E-01  6.06973389958854415E-01  6.06971943248615142E-01
  6.06970459916585714E-01  6.06968939035776422E-01  6.06967379655735551E-01
  6.06965780801955068E-01  6.06964141475263119E-01  6.06962460651199298E-01
  6.06960737279374496E-01  6.06958970282815424E-01  6.06957158557291709E-01
  6.06955300970625999E-01  6.06953396361986863E-01  6.06951443541164148E-01
  6.06949441287825686E-01  6.06947388350754458E-01  6.06945283447067441E-01
  6.06943125261415251E-01  6.06940912445159797E-01  6.06938643615532070E-01
  6.06936317354769828E-01  6.06933932209230309E-01  6.06931486688483846E-01
  6.06928979264383717E-01  6.06926408370110471E-01  6.06923772399194705E-01
  6.06921069704513871E-01  6.06918298597262984E-01  6.06915457345901577E-01
  6.06912544175071789E-01  6.06909557264490696E-01  6.06906494747812664E-01
  6.06903354711465393E-01  6.06900135193455870E-01  6.06896834182143574E-01
  6.06893449614986591E-01  6.06889979377254196E-01  6.06886421300705026E-01
  6.06882773162236488E-01  6.06879032682495212E-01  6.06875197524455401E-01
  6.06871265291959672E-01  6.06867233528225136E-01  6.06863099714308962E-01
  6.06858861267536853E-01  6.06854515539891781E-01  6.06850059816361309E-01
  6.06845491313245056E-01  6.06840807176415420E-01  6.06836004479539559E-01
  6.06831080222252517E-01  6.06826031328285609E-01  6.06820854643547847E-01
  6.06815546934158623E-01  6.06810104884430990E-01  6.06804525094802649E-01
  6.06798804079716869E-01  6.06792938265449111E-01  6.06786923987877591E-01
  6.06780757490198996E-01  6.06774434920586581E-01  6.06767952329788418E-01
  6.06761305668665041E-01  6.06754490785665790E-01  6.06747503424240997E-01
  6.06740339220189107E-01  6.06732993698935963E-01  6.06725462272746596E-01
  6.06717740237867509E-01  6.06709822771593910E-01  6.06701704929266117E-01
  6.06693381641188800E-01  6.06684847709472952E-01  6.06676097804796810E-01
  6.06667126463089290E-01  6.06657928082124043E-01  6.06648496918032687E-01
  6.06638827081727450E-01  6.06628912535234543E-01  6.06618747087935950E-01
  6.06608324392714948E-01  6.06597637942005830E-01  6.06586681063743693E-01
  6.06575446917212879E-01  6.06563928488790705E-01  6.06552118587582623E-01
  6.06540009840950689E-01  6.06527594689926342E-01  6.06514865384510049E-01
  6.06501813978852278E-01  6.06488432326311666E-01  6.06474712074391853E-01
  6.06460644659549297E-01  6.06446221301870092E-01  6.06431432999614661E-01
  6.06416270523624679E-01  6.06400724411589320E-01  6.06384784962168188E-01
  6.06368442228966020E-01  6.06351686014357183E-01  6.06334505863153184E-01
  6.06316891056114970E-01  6.06298830603297922E-01  6.06280313237234969E-01
  6.06261327405944628E-01  6.06241861265765847E-01  6.06221902674013657E-01
  6.06201439181450197E-01  6.06180458024566438E-01  6.06158946117673292E-01
  6.06136890044791987E-01  6.06114276051342826E-01  6.06091090035626778E-01
  6.06067317540093242E-01  6.06042943742389539E-01  6.06017953446186808E-01
  6.05992331071778079E-01  6.05966060646438764E-01  6.05939125794550559E-01
  6.05911509727476316E-01  6.05883195233180349E-01  6.05854164665596828E-01
  6.05824399933725721E-01  6.05793882490461733E-01  6.05762593321144016E-01
  6.05730512931820564E-01  6.05697621337220604E-01  6.05663898048427796E-01
  6.05629322060249886E-01  6.05593871838267850E-01  6.05557525305573385E-01
  6.05520259829167129E-01  6.05482052206026689E-01  6.05442878648826288E-01
  6.05402714771302808E-01  6.05361535573260556E-01  6.05319315425203563E-01
  6.05276028052588844E-01  6.05231646519689748E-01  6.05186143213061856E-01
  6.05139489824598198E-01  6.05091657334170696E-01  6.05042615991838395E-01
  6.04992335299622042E-01  6.04940783992827580E-01  6.04887930020910569E-01
  6.04833740527870312E-01  6.04778181832162809E-01  6.04721219406120003E-01
  6.04662817854865642E-01  6.04602940894711893E-01  6.04541551331031823E-01
  6.04478611035584867E-01  6.04414080923291963E-01  6.04347920928444582E-01
  6.04280089980329116E-01  6.04210545978262070E-01  6.04139245766014521E-01
  6.04066145105616403E-01  6.03991198650523753E-01  6.03914359918135135E-01
  6.03835581261642274E-01  6.03754813841198890E-01  6.03672007594392879E-01
  6.03587111206006388E-01  6.03500072077045147E-01  6.03410836293021613E-01
  6.03319348591478621E-01  6.03225552328729431E-01  6.03129389445801301E-01
  6.03030800433564940E-01  6.02929724297029068E-01  6.02826098518781883E-01
  6.02719859021562665E-01  6.02610940129942652E-01  6.02499274531094975E-01
  6.02384793234635341E-01  6.02267425531510692E-01  6.02147098951920312E-01
  6.02023739222239285E-01  6.01897270220933422E-01  6.01767613933438139E-01
  6.01634690405975614E-01  6.01498417698299592E-01  6.01358711835330961E-01
  6.01215486757672779E-01  6.01068654270972114E-01  6.00918123994113929E-01
  6.00763803306213595E-01  6.00605597292390381E-01  6.00443408688295821E-01
  6.00277137823369888E-01  6.00106682562799754E-01  5.99931938248159602E-01
  5.99752797636699309E-01  5.99569150839261544E-01  5.99380885256797447E-01
  5.99187885515454322E-01  5.98990033400211175E-01  5.98787207787031317E-01
  5.98579284573506953E-01  5.98366136607968890E-01  5.98147633617031049E-01
  5.97923642131544697E-01  5.97694025410933194E-01  5.97458643365880948E-01
  5.97217352479344155E-01  5.96970005725863562E-01  5.96716452489140847E-01
  5.96456538477861620E-01  5.96190105639729184E-01  5.95916992073683760E-01
  5.95637031940283723E-01  5.95350055370215570E-01  5.95055888370910169E-01
  5.94754352731237446E-01  5.94445265924252841E-01  5.94128441007973684E-01
  5.93803686524153385E-01  5.93470806395038686E-01  5.93129599818077669E-01
  5.92779861158561405E-01  5.92421379840177065E-01  5.92053940233448039E-01
  5.91677321542045553E-01  5.91291297686953099E-01  5.90895637188462386E-01
  5.90490103045993142E-01  5.90074452615711897E-01  5.89648437485952748E-01
  5.89211803350411234E-01  5.88764289879122438E-01  5.88305630587202422E-01
  5.87835552701357122E-01  5.87353777024157364E-01  5.86860017796080990E-01
  5.86353982555325448E-01  5.85835371995402476E-01  5.85303879820527118E-01
  5.84759192598812816E-01  5.84200989613295918E-01  5.83628942710814336E-01
  5.83042716148765239E-01  5.82441966439781300E-01  5.81826342194358137E-01
  5.81195483961485793E-01  5.80549024067326447E-01  5.79886586452004527E-01
  5.79207786504568167E-01  5.78512230896194080E-01  5.77799517411720087E-01
  5.77069234779587270E-01  5.76320962500295297E-01  5.75554270673471313E-01
  5.74768719823673502E-01  5.73963860725055341E-01  5.73139234225028771E-01
  5.72294371067079366E-01  5.71428791712891848E-01  5.70542006163972770E-01
  5.69633513782952683E-01  5.68702803114780386E-01  5.67749351708032313E-01
  5.66772625936576957E-01  5.65772080821853152E-01  5.64747159856042624E-01
  5.63697294826433160E-01  5.62621905641296771E-01  5.61520400157621391E-01
  5.60392174011071664E-01  5.59236610448566429E-01  5.58053080163895432E-01
  5.56840941136828693E-01  5.55599538476193811E-01  5.54328204267440783E-01
  5.53026257425234591E-01  5.51693003551665617E-01  5.50327734800691970E-01
  5.48929729749480955E-01  5.47498253277352687E-01  5.46032556453070805E-01
  5.44531876431284201E-01  5.42995436358959971E-01  5.41422445292711330E-01
  5.39812098127974260E-01  5.38163575541048766E-01  5.36476043945082859E-01
  5.34748655461137590E-01  5.32980547905552049E-01  5.31170844794890518E-01
  5.29318655369832469E-01  5.27423074639455480E-01  5.25483183447436830E-01
  5.23498048561797713E-01  5.21466722789905468E-01  5.19388245120555037E-01
  5.17261640895050223E-01  5.15085922009326458E-01  5.12860087149260790E-01
  5.10583122061456729E-01  5.08253999861912442E-01  5.05871681385126504E-01
  5.03435115576330250E-01  5.00943239929702466E-01  4.98394980975576884E-01
  4.95789254819823832E-01  4.93124967738774456E-01  4.90401016833234782E-01
  4.87616290745349179E-01  4.84769670442273148E-01  4.81860030070844048E-01
  4.78886237887669930E-01  4.75847157269301380E-01  4.72741647807414900E-01
  4.69568566494205974E-01  4.66326769003478747E-01  4.63015111073224406E-01
  4.59632449995796055E-01  4.56177646222128808E-01  4.52649565086801264E-01
  4.49047078661115984E-01  4.45369067741758273E-01  4.41614423983021420E-01
  4.37782052181014458E-01  4.33870872718698286E-01  4.29879824181118531E-01
  4.25807866150705316E-01  4.21653982193030352E-01  4.17417183043977902E-01
  4.13096510009881734E-01  4.08691038592798594E-01  4.04199882353750373E-01
  3.99622197027454273E-01  3.94957184902784308E-01  3.90204099483979494E-01
  3.85362250448410659E-01  3.80431008917569369E-01  3.75409813058835362E-01
  3.70298174036507111E-01  3.65095682331583793E-01  3.59802014450805674E-01
  3.54416940046567819E-01  3.48940329470467991E-01  3.43372161784449792E-01
  3.37712533254793945E-01  3.31961666355529428E-01  3.26119919309258210E-01
  3.20187796194869367E-01  3.14165957653175953E-01  3.08055232223196584E-01
  3.01856628343351030E-01  2.95571347053856015E-01  2.89200795438483038E-01
  2.82746600845781126E-01  2.76210625932023113E-01  2.69594984570341367E-01
  2.62902058672870198E-01  2.56134515975173283E-01  2.49295328834810315E-01
  2.42387794098640724E-01  2.35415554096304686E-01  2.28382618820352296E-01
  2.21293389356651299E-01  2.14152682632036101E-01  2.06965757549675472E-01
  1.99738342586312595E-01  1.92476664929417174E-01  1.85187481236368245E-01
  1.77878110102068832E-01  1.70556466325919254E-01  1.63231097073807674E-01
  1.55911220035775677E-01  1.48606763685268289E-01  1.41328409751386747E-01
  1.34087638021451988E-01  1.26896773597279938E-01  1.19769036734445514E-01
  1.12718595401500504E-01  1.05760620702702826E-01  9.89113453152977579E-02
  9.21881251002829721E-02  8.56095040538574076E-02  7.91952827754387051E-02
  7.29665906372631984E-02  6.69459618501967862E-02  6.11574156304745056E-02
  5.56265406826850495E-02  5.03805842250502553E-02  4.54485457885340782E-02
  4.08612759452564867E-02  3.66511840354129675E-02  3.28277586400547508E-02
  2.93631439763356594E-02  2.62280449949772558E-02  2.33951152343132331E-02
  2.08388689882315521E-02  1.85355934418429853E-02  1.64632614310970676E-02
  1.46014452037724566E-02  1.29312315081924409E-02  1.14351383041173746E-02
  1.00970333435014079E-02  8.90205484739027379E-03  7.83653448230681691E-03
  6.88792279552970232E-03  6.04471724553780430E-03  5.29639293775381083E-03
  4.63333615091109704E-03  4.04678071616401073E-03  3.52874728948668641E-03
  3.07198553794332894E-03  2.66991924206634547E-03  2.31659429982169780E-03
  2.00662960245311280E-03  1.73517073884473763E-03  1.49784647288570103E-03
  1.29072792762037806E-03  1.11029040067079439E-03  9.53377727469269221E-04
  8.17169102181794461E-04  6.99148260769429509E-04  5.97074926360602982E-04
  5.08958413918517518E-04  4.33033289013261442E-04  3.67736974270492967E-04
  3.11689196859341522E-04  2.63673170559265734E-04  2.22618406107452546E-04
  1.87585047743508109E-04  1.57749634281139733E-04  1.32392186068334381E-04
  1.10884522535745336E-04  9.26797185534743287E-05  7.73026116118819890E-05
  6.43412758516640745E-05  5.34393831350920130E-05  4.42893756212037532E-05
  3.66263786348250227E-05  3.02227869586146199E-05  2.48834619899979564E-05
  2.04414814561020365E-05  1.67543875396209106E-05  1.37008833112073669E-05
  1.11779312678042859E-05  9.09821152379957111E-06  7.38790077900216459E-06
  5.98473658381272715E-06  4.83633463030486517E-06  3.89872981384106992E-06
  3.13511463154909428E-06  2.51475111332759937E-06  2.01203492263769872E-06
  1.60569247816243060E-06  1.27809407432842304E-06  1.01466784523321309E-06
  8.03401131168804965E-07  6.34417385505830159E-07  4.99618178664575517E-07
  3.92381134611890309E-07  3.07305783337490609E-07  2.40000339552896141E-07
  1.86903332786934030E-07  1.45134826287131000E-07  1.12372680544029887E-07
  8.67499503461500425E-08  6.67700601426356509E-08  5.12368887818556627E-08
  3.91973185736013472E-08  2.98941717609611660E-08  2.27277760587985935E-08
  1.72246755948873285E-08  1.30122395667860097E-08  9.79812292045913844E-09
  7.35370563124895505E-09  5.50078356126708213E-09  4.10090781485167240E-09
  3.04687410068484672E-09  2.25595133663321694E-09  1.66451249639605808E-09
  1.22379208620814635E-09  8.96545495761544825E-10  6.54427787207206395E-10
  4.75944328766420659E-10  3.44854306211754613E-10  2.48931577462741184E-10
  1.79006441191308075E-10  1.28227407646140570E-10  9.14946132447317039E-11
  6.50266357042854035E-11  4.60305844952064299E-11  3.24518302314705113E-11
  2.27849020732931334E-11  1.59311772826951696E-11  1.10922200604448558E-11
  7.69016847250799165E-12  5.30855799657421393E-12  3.64852117695092664E-12
  2.49650659107005284E-12  1.70059046041202649E-12  1.15316978656087303E-12
  7.78373903163277779E-13  5.22949151429125379E-13  3.49688407118625154E-13
  2.32716757341115334E-13  1.54124783091069745E-13  1.01575535880118680E-13
  6.66117251093961805E-14  4.34640223242210497E-14  2.82162469444490358E-14
  1.82234568344188843E-14  1.17083635846012925E-14  7.48284854296089629E-15
  4.75679099142982257E-15  3.00751797624612963E-15  1.89112297839908894E-15
  1.18254766435619098E-15  7.35316783528263794E-16  4.54628302731752507E-16
  2.79468891544415300E-16  1.70794527869151438E-16  1.03763827313224951E-16
  6.26638741647296771E-17  3.76144751348276666E-17  2.24401700607001760E-17
  1.33044555082585584E-17  7.83851723308896381E-18  4.58883244267427085E-18
  2.66911466964071408E-18  1.54238889860647367E-18  8.85414497980901820E-19
  5.04881515804065842E-19  2.85947304108259392E-19  1.60841969948308620E-19
  8.98446671865067653E-20  4.98341456064516999E-20  2.74451310955309822E-20
  1.50061230774023863E-20  8.14511926177710890E-21  4.38846365228341374E-21
  2.34678634967684655E-21  1.24548920570726450E-21  6.55949822059064497E-22
  3.42786616415350951E-22  1.77728677015826231E-22  9.14173981277802854E-23
  4.66438764808361479E-23  2.36053812153303956E-23  1.18476875794800657E-23
  5.89681303958254205E-24  2.91015887519339419E-24  1.42391927849592004E-24
  6.90679445030451238E-25  3.32080213360226270E-25  1.58247586495426102E-25
  7.47326793239920785E-26  3.49715202828590208E-26  1.62143487771565042E-26
  7.44758507907240827E-27  3.38853288826628340E-27  1.52699242238986378E-27
  6.81457913025129962E-28  3.01137999496076625E-28  1.31753806413824772E-28
  5.70660637166741990E-29  2.44655599384542737E-29  1.03810086004260040E-29
  4.35887754133306059E-30  1.81093536386396047E-30  7.44334018245313211E-31
  3.02629338498951276E-31  1.21695146354334639E-31  4.83943369058421689E-32
  1.90289138816937315E-32  7.39724197117469465E-33  2.84249199543764870E-33
  1.07953938866154210E-33  4.05156502539455695E-34  1.50240622761370346E-34
  5.50385448157261395E-35  1.99156961432666043E-35  7.11715123347303776E-36
  2.51148977116785867E-36  8.74989197687366651E-37  3.00919781116170370E-37
  1.02142249165000697E-37  3.42133607914344417E-38  1.13070635091571397E-38
  3.68633618935665781E-39  1.18537943301408297E-39  3.75891548191606366E-40
  1.17526248825607605E-40  3.62241112266860019E-41  1.10045810550857093E-41
  3.29445409254269956E-42  9.71734624659145964E-43  2.82348204806008116E-43
  8.08003157435903534E-44  2.27692061897662938E-44  6.31687161747986326E-45
                             </PP_NLCC> 
 <PP_LOCAL type="real" size="   999" columns="3">
 -2.15989779072183552E+01 -2.15989779072786376E+01 -2.15989779073404478E+01
 -2.15989779074038246E+01 -2.15989779074688037E+01 -2.15989779075354278E+01
 -2.15989779076037358E+01 -2.15989779076737705E+01 -2.15989779077455815E+01
 -2.15989779078192079E+01 -2.15989779078947031E+01 -2.15989779079721131E+01
 -2.15989779080514772E+01 -2.15989779081328521E+01 -2.15989779082162840E+01
 -2.15989779083018263E+01 -2.15989779083895357E+01 -2.15989779084794691E+01
 -2.15989779085716762E+01 -2.15989779086662210E+01 -2.15989779087631604E+01
 -2.15989779088625582E+01 -2.15989779089644642E+01 -2.15989779090689495E+01
 -2.15989779091760816E+01 -2.15989779092859244E+01 -2.15989779093985454E+01
 -2.15989779095140193E+01 -2.15989779096324170E+01 -2.15989779097538097E+01
 -2.15989779098782790E+01 -2.15989779100058996E+01 -2.15989779101367567E+01
 -2.15989779102709214E+01 -2.15989779104084825E+01 -2.15989779105495252E+01
 -2.15989779106941349E+01 -2.15989779108424038E+01 -2.15989779109944315E+01
 -2.15989779111503104E+01 -2.15989779113101363E+01 -2.15989779114740053E+01
 -2.15989779116420202E+01 -2.15989779118142842E+01 -2.15989779119909180E+01
 -2.15989779121720247E+01 -2.15989779123577108E+01 -2.15989779125480972E+01
 -2.15989779127433010E+01 -2.15989779129434467E+01 -2.15989779131486657E+01
 -2.15989779133590751E+01 -2.15989779135748137E+01 -2.15989779137960127E+01
 -2.15989779140228073E+01 -2.15989779142553466E+01 -2.15989779144937692E+01
 -2.15989779147382279E+01 -2.15989779149888825E+01 -2.15989779152458823E+01
 -2.15989779155093871E+01 -2.15989779157795603E+01 -2.15989779160565725E+01
 -2.15989779163405942E+01 -2.15989779166318030E+01 -2.15989779169303873E+01
 -2.15989779172365353E+01 -2.15989779175504353E+01 -2.15989779178722792E+01
 -2.15989779182022694E+01 -2.15989779185406121E+01 -2.15989779188875204E+01
 -2.15989779192432074E+01 -2.15989779196079006E+01 -2.15989779199818273E+01
 -2.15989779203652219E+01 -2.15989779207583190E+01 -2.15989779211613673E+01
 -2.15989779215746260E+01 -2.15989779219983440E+01 -2.15989779224327876E+01
 -2.15989779228782268E+01 -2.15989779233349459E+01 -2.15989779238032256E+01
 -2.15989779242833535E+01 -2.15989779247756424E+01 -2.15989779252803977E+01
 -2.15989779257979215E+01 -2.15989779263285513E+01 -2.15989779268726174E+01
 -2.15989779274304503E+01 -2.15989779280024017E+01 -2.15989779285888410E+01
 -2.15989779291901307E+01 -2.15989779298066331E+01 -2.15989779304387390E+01
 -2.15989779310868499E+01 -2.15989779317513708E+01 -2.15989779324327209E+01
 -2.15989779331313123E+01 -2.15989779338475820E+01 -2.15989779345819883E+01
 -2.15989779353349896E+01 -2.15989779361070546E+01 -2.15989779368986596E+01
 -2.15989779377103055E+01 -2.15989779385424967E+01 -2.15989779393957555E+01
 -2.15989779402706219E+01 -2.15989779411676253E+01 -2.15989779420873411E+01
 -2.15989779430303415E+01 -2.15989779439972089E+01 -2.15989779449885546E+01
 -2.15989779460050038E+01 -2.15989779470471781E+01 -2.15989779481157278E+01
 -2.15989779492113421E+01 -2.15989779503346853E+01 -2.15989779514864679E+01
 -2.15989779526674077E+01 -2.15989779538782400E+01 -2.15989779551197287E+01
 -2.15989779563926483E+01 -2.15989779576977838E+01 -2.15989779590359632E+01
 -2.15989779604080177E+01 -2.15989779618148035E+01 -2.15989779632572123E+01
 -2.15989779647361253E+01 -2.15989779662524803E+01 -2.15989779678072296E+01
 -2.15989779694013357E+01 -2.15989779710357865E+01 -2.15989779727116229E+01
 -2.15989779744298858E+01 -2.15989779761916374E+01 -2.15989779779979862E+01
 -2.15989779798500621E+01 -2.15989779817490337E+01 -2.15989779836960700E+01
 -2.15989779856923896E+01 -2.15989779877392571E+01 -2.15989779898379304E+01
 -2.15989779919897380E+01 -2.15989779941960194E+01 -2.15989779964581459E+01
 -2.15989779987775492E+01 -2.15989780011556647E+01 -2.15989780035939702E+01
 -2.15989780060940042E+01 -2.15989780086573369E+01 -2.15989780112855598E+01
 -2.15989780139803109E+01 -2.15989780167432812E+01 -2.15989780195761902E+01
 -2.15989780224808179E+01 -2.15989780254589760E+01 -2.15989780285125228E+01
 -2.15989780316433695E+01 -2.15989780348534701E+01 -2.15989780381448462E+01
 -2.15989780415195334E+01 -2.15989780449796527E+01 -2.15989780485273641E+01
 -2.15989780521648811E+01 -2.15989780558944844E+01 -2.15989780597185046E+01
 -2.15989780636393256E+01 -2.15989780676593988E+01 -2.15989780717812501E+01
 -2.15989780760074304E+01 -2.15989780803406113E+01 -2.15989780847834751E+01
 -2.15989780893388108E+01 -2.15989780940094640E+01 -2.15989780987983551E+01
 -2.15989781037084718E+01 -2.15989781087428909E+01 -2.15989781139047530E+01
 -2.15989781191972838E+01 -2.15989781246237982E+01 -2.15989781301876782E+01
 -2.15989781358924127E+01 -2.15989781417415578E+01 -2.15989781477387695E+01
 -2.15989781538878063E+01 -2.15989781601924982E+01 -2.15989781666567957E+01
 -2.15989781732847277E+01 -2.15989781800804543E+01 -2.15989781870481963E+01
 -2.15989781941923376E+01 -2.15989782015173262E+01 -2.15989782090277451E+01
 -2.15989782167282875E+01 -2.15989782246237603E+01 -2.15989782327191016E+01
 -2.15989782410193669E+01 -2.15989782495297646E+01 -2.15989782582555812E+01
 -2.15989782672022947E+01 -2.15989782763754867E+01 -2.15989782857808876E+01
 -2.15989782954243914E+01 -2.15989783053120021E+01 -2.15989783154499086E+01
 -2.15989783258444561E+01 -2.15989783365021246E+01 -2.15989783474295933E+01
 -2.15989783586336692E+01 -2.15989783701213760E+01 -2.15989783818998902E+01
 -2.15989783939765516E+01 -2.15989784063589312E+01 -2.15989784190547596E+01
 -2.15989784320719664E+01 -2.15989784454186839E+01 -2.15989784591032645E+01
 -2.15989784731342525E+01 -2.15989784875204229E+01 -2.15989785022707572E+01
 -2.15989785173944782E+01 -2.15989785329010324E+01 -2.15989785488001154E+01
 -2.15989785651016639E+01 -2.15989785818158637E+01 -2.15989785989531562E+01
 -2.15989786165242563E+01 -2.15989786345401455E+01 -2.15989786530120647E+01
 -2.15989786719515848E+01 -2.15989786913705188E+01 -2.15989787112810170E+01
 -2.15989787316955066E+01 -2.15989787526267669E+01 -2.15989787740878469E+01
 -2.15989787960921795E+01 -2.15989788186535137E+01 -2.15989788417859359E+01
 -2.15989788655039092E+01 -2.15989788898222486E+01 -2.15989789147561559E+01
 -2.15989789403212029E+01 -2.15989789665333767E+01 -2.15989789934090481E+01
 -2.15989790209650003E+01 -2.15989790492184675E+01 -2.15989790781870958E+01
 -2.15989791078889866E+01 -2.15989791383426954E+01 -2.15989791695672615E+01
 -2.15989792015821820E+01 -2.15989792344074658E+01 -2.15989792680636192E+01
 -2.15989793025716743E+01 -2.15989793379531925E+01 -2.15989793742302645E+01
 -2.15989794114255815E+01 -2.15989794495623642E+01 -2.15989794886644439E+01
 -2.15989795287562494E+01 -2.15989795698628271E+01 -2.15989796120098632E+01
 -2.15989796552236832E+01 -2.15989796995312844E+01 -2.15989797449603529E+01
 -2.15989797915392501E+01 -2.15989798392970940E+01 -2.15989798882637167E+01
 -2.15989799384697037E+01 -2.15989799899464074E+01 -2.15989800427259979E+01
 -2.15989800968414372E+01 -2.15989801523265328E+01 -2.15989802092159486E+01
 -2.15989802675452012E+01 -2.15989803273507377E+01 -2.15989803886699114E+01
 -2.15989804515410277E+01 -2.15989805160033441E+01 -2.15989805820971341E+01
 -2.15989806498636625E+01 -2.15989807193452776E+01 -2.15989807905853439E+01
 -2.15989808636283698E+01 -2.15989809385199720E+01 -2.15989810153069186E+01
 -2.15989810940371640E+01 -2.15989811747598708E+01 -2.15989812575254483E+01
 -2.15989813423855708E+01 -2.15989814293932376E+01 -2.15989815186027769E+01
 -2.15989816100698988E+01 -2.15989817038517025E+01 -2.15989818000067508E+01
 -2.15989818985950706E+01 -2.15989819996782231E+01 -2.15989821033193152E+01
 -2.15989822095830384E+01 -2.15989823185357466E+01 -2.15989824302454458E+01
 -2.15989825447818724E+01 -2.15989826622165104E+01 -2.15989827826226950E+01
 -2.15989829060755518E+01 -2.15989830326521535E+01 -2.15989831624314910E+01
 -2.15989832954945697E+01 -2.15989834319244274E+01 -2.15989835718062011E+01
 -2.15989837152271882E+01 -2.15989838622768886E+01 -2.15989840130470547E+01
 -2.15989841676317695E+01 -2.15989843261274821E+01 -2.15989844886330715E+01
 -2.15989846552499465E+01 -2.15989848260820345E+01 -2.15989850012359099E+01
 -2.15989851808208257E+01 -2.15989853649488097E+01 -2.15989855537347069E+01
 -2.15989857472962576E+01 -2.15989859457541939E+01 -2.15989861492322568E+01
 -2.15989863578573669E+01 -2.15989865717595748E+01 -2.15989867910722815E+01
 -2.15989870159322237E+01 -2.15989872464795738E+01 -2.15989874828580639E+01
 -2.15989877252150464E+01 -2.15989879737015897E+01 -2.15989882284725603E+01
 -2.15989884896867466E+01 -2.15989887575069268E+01 -2.15989890321000111E+01
 -2.15989893136370696E+01 -2.15989896022935284E+01 -2.15989898982492114E+01
 -2.15989902016884763E+01 -2.15989905128003485E+01 -2.15989908317785968E+01
 -2.15989911588218533E+01 -2.15989914941338021E+01 -2.15989918379232186E+01
 -2.15989921904041395E+01 -2.15989925517960089E+01 -2.15989929223237809E+01
 -2.15989933022180729E+01 -2.15989936917153216E+01 -2.15989940910578859E+01
 -2.15989945004942641E+01 -2.15989949202791642E+01 -2.15989953506737322E+01
 -2.15989957919456508E+01 -2.15989962443693670E+01 -2.15989967082262062E+01
 -2.15989971838045811E+01 -2.15989976714001202E+01 -2.15989981713159231E+01
 -2.15989986838626749E+01 -2.15989992093588903E+01 -2.15989997481310496E+01
 -2.15990003005138576E+01 -2.15990008668504139E+01 -2.15990014474924195E+01
 -2.15990020428004073E+01 -2.15990026531439625E+01 -2.15990032789019253E+01
 -2.15990039204626427E+01 -2.15990045782241893E+01 -2.15990052525946368E+01
 -2.15990059439922568E+01 -2.15990066528457980E+01 -2.15990073795947666E+01
 -2.15990081246896679E+01 -2.15990088885922518E+01 -2.15990096717758639E+01
 -2.15990104747256666E+01 -2.15990112979389544E+01 -2.15990121419254599E+01
 -2.15990130072076418E+01 -2.15990138943210290E+01 -2.15990148038144909E+01
 -2.15990157362506459E+01 -2.15990166922060922E+01 -2.15990176722718736E+01
 -2.15990186770537207E+01 -2.15990197071725092E+01 -2.15990207632645266E+01
 -2.15990218459819587E+01 -2.15990229559932025E+01 -2.15990240939832994E+01
 -2.15990252606543223E+01 -2.15990264567257810E+01 -2.15990276829351053E+01
 -2.15990289400380036E+01 -2.15990302288089602E+01 -2.15990315500416834E+01
 -2.15990329045495528E+01 -2.15990342931661168E+01 -2.15990357167455791E+01
 -2.15990371761632680E+01 -2.15990386723161834E+01 -2.15990402061235329E+01
 -2.15990417785272015E+01 -2.15990433904923655E+01 -2.15990450430080188E+01
 -2.15990467370875336E+01 -2.15990484737692796E+01 -2.15990502541172127E+01
 -2.15990520792214404E+01 -2.15990539501989254E+01 -2.15990558681940605E+01
 -2.15990578343793338E+01 -2.15990598499560349E+01 -2.15990619161548771E+01
 -2.15990640342367506E+01 -2.15990662054933864E+01 -2.15990684312481029E+01
 -2.15990707128565589E+01 -2.15990730517075065E+01 -2.15990754492235695E+01
 -2.15990779068620036E+01 -2.15990804261155525E+01 -2.15990830085132366E+01
 -2.15990856556212023E+01 -2.15990883690435922E+01 -2.15990911504234298E+01
 -2.15990940014434472E+01 -2.15990969238271120E+01 -2.15990999193394551E+01
 -2.15991029897880935E+01 -2.15991061370241297E+01 -2.15991093629431923E+01
 -2.15991126694864342E+01 -2.15991160586415383E+01 -2.15991195324437797E+01
 -2.15991230929770666E+01 -2.15991267423750664E+01 -2.15991304828222503E+01
 -2.15991343165550944E+01 -2.15991382458631556E+01 -2.15991422730902691E+01
 -2.15991464006357283E+01 -2.15991506309554850E+01 -2.15991549665633755E+01
 -2.15991594100323852E+01 -2.15991639639958883E+01 -2.15991686311489488E+01
 -2.15991734142496163E+01 -2.15991783161202662E+01 -2.15991833396489348E+01
 -2.15991884877907125E+01 -2.15991937635690618E+01 -2.15991991700773269E+01
 -2.15992047104800307E+01 -2.15992103880144413E+01 -2.15992162059919508E+01
 -2.15992221677995886E+01 -2.15992282769014530E+01 -2.15992345368403349E+01
 -2.15992409512391532E+01 -2.15992475238025321E+01 -2.15992542583183322E+01
 -2.15992611586592531E+01 -2.15992682287843891E+01 -2.15992754727408176E+01
 -2.15992828946652224E+01 -2.15992904987854786E+01 -2.15992982894222934E+01
 -2.15993062709907981E+01 -2.15993144480022039E+01 -2.15993228250654177E+01
 -2.15993314068886590E+01 -2.15993401982811264E+01 -2.15993492041545565E+01
 -2.15993584295248873E+01 -2.15993678795138528E+01 -2.15993775593505539E+01
 -2.15993874743730849E+01 -2.15993976300300510E+01 -2.15994080318821169E+01
 -2.15994186856035384E+01 -2.15994295969836081E+01 -2.15994407719281618E+01
 -2.15994522164609251E+01 -2.15994639367249484E+01 -2.15994759389838684E+01
 -2.15994882296231943E+01 -2.15995008151515684E+01 -2.15995137022018362E+01
 -2.15995268975321402E+01 -2.15995404080269431E+01 -2.15995542406979020E+01
 -2.15995684026846817E+01 -2.15995829012556904E+01 -2.15995977438086477E+01
 -2.15996129378710933E+01 -2.15996284911006953E+01 -2.15996444112854959E+01
 -2.15996607063439434E+01 -2.15996773843247993E+01 -2.15996944534068120E+01
 -2.15997119218982832E+01 -2.15997297982363854E+01 -2.15997480909861928E+01
 -2.15997668088396537E+01 -2.15997859606141098E+01 -2.15998055552506720E+01
 -2.15998256018122916E+01 -2.15998461094814544E+01 -2.15998670875576693E+01
 -2.15998885454544407E+01 -2.15999104926960470E+01 -2.15999329389137813E+01
 -2.15999558938418268E+01 -2.15999793673126597E+01 -2.16000033692519828E+01
 -2.16000279096731269E+01 -2.16000529986709644E+01 -2.16000786464151275E+01
 -2.16001048631427395E+01 -2.16001316591503993E+01 -2.16001590447855314E+01
 -2.16001870304368992E+01 -2.16002156265245198E+01 -2.16002448434885217E+01
 -2.16002746917773045E+01 -2.16003051818346989E+01 -2.16003363240860544E+01
 -2.16003681289234919E+01 -2.16004006066898171E+01 -2.16004337676613893E+01
 -2.16004676220297291E+01 -2.16005021798818184E+01 -2.16005374511789405E+01
 -2.16005734457341703E+01 -2.16006101731881870E+01 -2.16006476429835246E+01
 -2.16006858643370663E+01 -2.16007248462106674E+01 -2.16007645972799125E+01
 -2.16008051259006955E+01 -2.16008464400738092E+01 -2.16008885474070951E+01
 -2.16009314550752478E+01 -2.16009751697770618E+01 -2.16010196976900346E+01
 -2.16010650444220076E+01 -2.16011112149599853E+01 -2.16011582136156122E+01
 -2.16012060439674940E+01 -2.16012547087998605E+01 -2.16013042100376218E+01
 -2.16013545486774454E+01 -2.16014057247147626E+01 -2.16014577370664576E+01
 -2.16015105834888530E+01 -2.16015642604910525E+01 -2.16016187632430672E+01
 -2.16016740854786420E+01 -2.16017302193924152E+01 -2.16017871555311984E+01
 -2.16018448826789182E+01 -2.16019033877350388E+01 -2.16019626555859929E+01
 -2.16020226689693757E+01 -2.16020834083303690E+01 -2.16021448516701220E+01
 -2.16022069743856306E+01 -2.16022697491006035E+01 -2.16023331454869201E+01
 -2.16023971300761701E+01 -2.16024616660606981E+01 -2.16025267130838081E+01
 -2.16025922270181816E+01 -2.16026581597323464E+01 -2.16027244588442819E+01
 -2.16027910674615953E+01 -2.16028579239075320E+01 -2.16029249614321834E+01
 -2.16029921079080438E+01 -2.16030592855091719E+01 -2.16031264103730933E+01
 -2.16031933922445063E+01 -2.16032601341000472E+01 -2.16033265317529342E+01
 -2.16033924734366565E+01 -2.16034578393664418E+01 -2.16035225012776699E+01
 -2.16035863219398010E+01 -2.16036491546446889E+01 -2.16037108426680859E+01
 -2.16037712187028568E+01 -2.16038301042625527E+01 -2.16038873090539028E+01
 -2.16039426303166096E+01 -2.16039958521289108E+01 -2.16040467446771132E+01
 -2.16040950634874065E+01 -2.16041405486180906E+01 -2.16041829238102281E+01
 -2.16042218955947156E+01 -2.16042571523536537E+01 -2.16042883633338079E+01
 -2.16043151776096991E+01 -2.16043372229941468E+01 -2.16043541048934244E+01
 -2.16043654051045912E+01 -2.16043706805520479E+01 -2.16043694619605944E+01
 -2.16043612524617785E+01 -2.16043455261304089E+01 -2.16043217264480063E+01
 -2.16042892646896227E+01 -2.16042475182304763E+01 -2.16041958287685674E+01
 -2.16041335004594686E+01 -2.16040597979590743E+01 -2.16039739443699794E+01
 -2.16038751190872915E+01 -2.16037624555388348E+01 -2.16036350388153338E+01
 -2.16034919031851373E+01 -2.16033320294884810E+01 -2.16031543424057588E+01
 -2.16029577075941042E+01 -2.16027409286863197E+01 -2.16025027441460900E+01
 -2.16022418239729923E+01 -2.16019567662508045E+01 -2.16016460935319863E+01
 -2.16013082490514101E+01 -2.16009415927617461E+01 -2.16005443971828583E+01
 -2.16001148430572592E+01 -2.15996510148032428E+01 -2.15991508957572975E+01
 -2.15986123631966827E+01 -2.15980331831333423E+01 -2.15974110048693575E+01
 -2.15967433553043762E+01 -2.15960276329848249E+01 -2.15952611018844571E+01
 -2.15944408849056728E+01 -2.15935639570903426E+01 -2.15926271385290498E+01
 -2.15916270869567448E+01 -2.15905602900231735E+01 -2.15894230572255204E+01
 -2.15882115114909396E+01 -2.15869215803957424E+01 -2.15855489870085684E+01
 -2.15840892403436833E+01 -2.15825376254110317E+01 -2.15808891928490354E+01
 -2.15791387481259633E+01 -2.15772808402958631E+01 -2.15753097502942346E+01
 -2.15732194787592206E+01 -2.15710037333634617E+01 -2.15686559156419726E+01
 -2.15661691073014730E+01 -2.15635360559962557E+01 -2.15607491605564405E+01
 -2.15578004556539504E+01 -2.15546815958922480E+01 -2.15513838393061654E+01
 -2.15478980302582848E+01 -2.15442145817191850E+01 -2.15403234569191966E+01
 -2.15362141503603475E+01 -2.15318756681776300E+01 -2.15272965078402407E+01
 -2.15224646371839761E+01 -2.15173674727679405E+01 -2.15119918575495213E+01
 -2.15063240378738350E+01 -2.15003496397754539E+01 -2.14940536445922206E+01
 -2.14874203638936159E+01 -2.14804334137285267E+01 -2.14730756882001295E+01
 -2.14653293323788930E+01 -2.14571757145682049E+01 -2.14485953979408563E+01
 -2.14395681115688497E+01 -2.14300727208738877E+01 -2.14200871975302825E+01
 -2.14095885888582771E+01 -2.13985529867509712E+01 -2.13869554961850312E+01
 -2.13747702033720337E+01 -2.13619701436147693E+01 -2.13485272689410515E+01
 -2.13344124155961055E+01 -2.13195952714843671E+01 -2.13040443436610332E+01
 -2.12877269259848383E+01 -2.12706090670547994E+01 -2.12526555385657758E+01
 -2.12338298042311742E+01 -2.12140939894341685E+01 -2.11934088517843442E+01
 -2.11717337527713916E+01 -2.11490266307243040E+01 -2.11252439753015331E+01
 -2.11003408037557385E+01 -2.10742706392357988E+01 -2.10469854914083143E+01
 -2.10184358397019437E+01 -2.09885706194990362E+01 -2.09573372116214252E+01
 -2.09246814354804798E+01 -2.08905475462847470E+01 -2.08548782367232484E+01
 -2.08176146435669693E+01 -2.07786963596562870E+01 -2.07380614517677166E+01
 -2.06956464848797417E+01 -2.06513865533784120E+01 -2.06052153197734924E+01
 -2.05570650615194310E+01 -2.05068667265577318E+01 -2.04545499982203687E+01
 -2.04000433701551280E+01 -2.03432742319526945E+01 -2.02841689661724836E+01
 -2.02226530574781513E+01 -2.01586512146048342E+01 -2.00920875058871466E+01
 -2.00228855090796358E+01 -1.99509684761991970E+01 -1.98762595141105223E+01
 -1.97986817815612248E+01 -1.97181587033513352E+01 -1.96346142022915728E+01
 -1.95479729495657821E+01 -1.94581606340641606E+01 -1.93651042511933724E+01
 -1.92687324115986200E+01 -1.91689756701475602E+01 -1.90657668754279719E+01
 -1.89590415398977363E+01 -1.88487382306975988E+01 -1.87347989809953575E+01
 -1.86171697215482794E+01 -1.84958007320117943E+01 -1.83706471113167176E+01
 -1.82416692662113711E+01 -1.81088334168274798E+01 -1.79721121178686403E+01
 -1.78314847937393104E+01 -1.76869382856318005E+01 -1.75384674082674969E+01
 -1.73860755136495726E+01 -1.72297750588259575E+01 -1.70695881742868458E+01
 -1.69055472292310469E+01 -1.67376953895315630E+01 -1.65660871638165439E+01
 -1.63907889326578164E+01 -1.62118794554299264E+01 -1.60294503489703750E+01
 -1.58436065317390113E+01 -1.56544666267467285E+01 -1.54621633161016394E+01
 -1.52668436396105083E+01 -1.50686692294771802E+01 -1.48678164727614561E+01
 -1.46644765929048830E+01 -1.44588556412969105E+01 -1.42511743895761231E+01
 -1.40416681130853078E+01 -1.38305862556881749E+01 -1.36181919660036677E+01
 -1.34047614950294509E+01 -1.31905834451372233E+01 -1.29759578605543684E+01
 -1.27611951497382208E+01 -1.25466148305512313E+01 -1.23325440899193595E+01
 -1.21193161507811276E+01 -1.19072684406996725E+01 -1.16967405586157724E+01
 -1.14880720390100315E+01 -1.12816006604376451E+01 -1.10777066276771752E+01
 -1.08768404952915354E+01 -1.06794546976298470E+01 -1.04859939211489586E+01
 -1.02968916619032527E+01 -1.01125664853890047E+01 -9.93341795828735385E+00
 -9.75982222253750642E+00 -9.59212718497880878E+00 -9.43064730122989658E+00
 -9.27565794166416424E+00 -9.12738934067253282E+00 -8.98602014917602077E+00
 -8.85167063641238627E+00 -8.72439562108402278E+00 -8.60417725515156384E+00
 -8.49091782400716966E+00 -8.38443255429067591E+00 -8.28443582949765123E+00
 -8.19032057412743875E+00 -8.10148443636118643E+00 -8.01734110078693618E+00
 -7.93720125267555954E+00 -7.86028029697944763E+00 -7.78571033697383363E+00
 -7.71255920421595231E+00 -7.63985847407787855E+00 -7.56664265191093843E+00
 -7.49200209340108714E+00 -7.41515266929338157E+00 -7.33552571114722074E+00
 -7.25288240308743060E+00 -7.16745754213682229E+00 -7.08013850371836551E+00
 -6.99261918774550484E+00 -6.90606277648652878E+00 -6.82051494038227890E+00
 -6.73596917809160889E+00 -6.65241978047329852E+00 -6.56986198550620770E+00
 -6.48829214357489370E+00 -6.40770789523351603E+00 -6.32810836149736122E+00
 -6.24949353865972501E+00 -6.17185613654101228E+00 -6.09518395155682757E+00
 -6.01946487497381799E+00 -5.94468696504019789E+00 -5.87083844280275180E+00
 -5.79790768820551605E+00 -5.72588323645515818E+00 -5.65475377462870288E+00
 -5.58450813850040895E+00 -5.51513530956628806E+00 -5.44662441224843086E+00
 -5.37896471125472164E+00 -5.31214560909026723E+00 -5.24615664369411849E+00
 -5.18098748619344640E+00 -5.11662793876332866E+00 -5.05306793258539866E+00
 -4.99029752588230124E+00 -4.92830690202749189E+00 -4.86708636772701553E+00
 -4.80662635126283622E+00 -4.74691740079167346E+00 -4.68795018269414143E+00
 -4.62971547996941624E+00 -4.57220419067048311E+00 -4.51540732638017772E+00
 -4.45931601071823991E+00 -4.40392147788171773E+00 -4.34921507121506146E+00
 -4.29518824180738346E+00 -4.24183254711513236E+00 -4.18913964960871166E+00
 -4.13710131544152038E+00 -4.08570941314031710E+00 -4.03495591231577944E+00
 -3.98483288239235200E+00 -3.93533249135657215E+00 -3.88644700452318714E+00
 -3.83816878331845768E+00 -3.79049028408000632E+00 -3.74340405687298539E+00
 -3.69690274432518828E+00 -3.65097908047432851E+00 -3.60562588962618458E+00
 -3.56083608523105077E+00 -3.51660266877485306E+00 -3.47291872868432128E+00
 -3.42977743924599077E+00 -3.38717205953896450E+00 -3.34509593238097613E+00
 -3.30354248328776379E+00 -3.26250521944541072E+00 -3.22197772869557753E+00
 -3.18195367853339661E+00 -3.14242681511785493E+00 -3.10339096229449396E+00
 -3.06484002063029948E+00 -3.02676796646059953E+00 -2.98916885094781559E+00
 -2.95203679915190520E+00 -2.91536600911238919E+00 -2.87915075094177420E+00
 -2.84338536593023461E+00 -2.80806426566142076E+00 -2.77318193113927869E+00
 -2.73873291192569912E+00 -2.70471182529066478E+00 -2.67111335537278638E+00
 -2.63793225234547446E+00 -2.60516333159624081E+00 -2.57280147291657757E+00
 -2.54084161970196787E+00 -2.50927877816177070E+00 -2.47810801653894819E+00
 -2.44732446433948070E+00 -2.41692331157136264E+00 -2.38689980799304768E+00
 -2.35724926237121579E+00 -2.32796704174777869E+00 -2.29904857071597535E+00
 -2.27048933070547898E+00 -2.24228485927636045E+00 -2.21443074942183360E+00
 -2.18692264887967580E+00 -2.15975625945217775E+00 -2.13292733633455489E+00
 -2.10643168745168463E+00 -2.08026517280311918E+00 -2.05442370381619233E+00
 -2.02890324270718159E+00 -2.00369980185041996E+00 -1.97880944315606255E+00
 -1.95422827745663419E+00 -1.92995246389700181E+00 -1.90597820933369011E+00
 -1.88230176774218516E+00 -1.85891943963163153E+00 -1.83582757146678199E+00
 -1.81302255509714039E+00 -1.79050082719320414E+00 -1.76825886868967652E+00
 -1.74629320423562473E+00 -1.72460040165146178E+00 -1.70317707139266505E+00
 -1.68201986602016307E+00 -1.66112547967729918E+00 -1.64049064757330276E+00
 -1.62011214547315330E+00 -1.59998678919379755E+00 -1.58011143410662869E+00
 -1.56048297464614083E+00 -1.54109834382467259E+00 -1.52195451275319793E+00
 -1.50304849016806652E+00 -1.48437732196361072E+00 -1.46593809073058234E+00
 -1.44772791530067724E+00 -1.42974395029797874E+00 -1.41198338569287674E+00
 -1.39444344636234185E+00 -1.37712139165632341E+00 -1.36001451496951153E+00
 -1.34312014331844920E+00 -1.32643563692385991E+00 -1.30995838879820647E+00
 -1.29368582433834090E+00 -1.27761540092322057E+00 -1.26174460751663786E+00
 -1.24607096427485708E+00 -1.23059202215915509E+00 -1.21530536255314936E+00
 -1.20020859688489523E+00 -1.18529936625367083E+00 -1.17057534106140482E+00
 -1.15603422064867312E+00 -1.14167373293521690E+00 -1.12749163406494235E+00
 -1.11348570805531111E+00 -1.09965376645108992E+00 -1.08599364798241194E+00
 -1.07250321822707617E+00 -1.05918036927722725E+00 -1.04602301941119946E+00
 -1.03302911276742604E+00 -1.02019661902254732E+00 -1.00752353307416831E+00
 -9.95007874727559805E-01 -9.82647688386259488E-01 -9.70441042746512994E-01
 -9.58386030495501862E-01 -9.46480768013340801E-01 -9.34723395078744468E-01
 -9.23112074578390507E-01 -9.11644992219855510E-01 -9.00320356248139886E-01
 -8.89136397165715131E-01 -8.78091367456018568E-01 -8.67183541310417194E-01
 -8.56411214358575257E-01 -8.45772703402092985E-01 -8.35266346151563810E-01
 -8.24890500966786733E-01 -8.14643546600325785E-01 -8.04523881944125496E-01
                             </PP_LOCAL> 
<PP_NONLOCAL> 
 <PP_BETA.1 type="real" size="   999" angular_momentum="0" columns="3" cutoff_radius_index="   836" norm_conserving_radius="    1.903803" label= "3S">
  2.34370606581134924E-04  2.37318625892155900E-04  2.40303726720976534E-04
  2.43326375495661943E-04  2.46387044511220323E-04  2.49486212003398821E-04
  2.52624362223409374E-04  2.55801985513594234E-04  2.59019578384042139E-04
  2.62277643590170194E-04  2.65576690211279250E-04  2.68917233730098996E-04
  2.72299796113333232E-04  2.75724905893218002E-04  2.79193098250106572E-04
  2.82704915096091130E-04  2.86260905159678480E-04  2.89861624071529895E-04
  2.93507634451278983E-04  2.97199505995443297E-04  3.00937815566439180E-04
  3.04723147282718319E-04  3.08556092610037455E-04  3.12437250453875674E-04
  3.16367227253015629E-04  3.20346637074299184E-04  3.24376101708577730E-04
  3.28456250767867925E-04  3.32587721783729321E-04  3.36771160306881462E-04
  3.41007220008070406E-04  3.45296562780207509E-04  3.49639858841790821E-04
  3.54037786841627958E-04  3.58491033964877467E-04  3.63000296040421060E-04
  3.67566277649589406E-04  3.72189692236254087E-04  3.76871262218304447E-04
  3.81611719100527892E-04  3.86411803588906596E-04  3.91272265706356078E-04
  3.96193864909917266E-04  4.01177370209422970E-04  4.06223560287658490E-04
  4.11333223622029694E-04  4.16507158607766069E-04  4.21746173682670971E-04
  4.27051087453441368E-04  4.32422728823577893E-04  4.37861937122900819E-04
  4.43369562238698134E-04  4.48946464748521657E-04  4.54593516054653426E-04
  4.60311598520265933E-04  4.66101605607290351E-04  4.71964442016023294E-04
  4.77901023826488014E-04  4.83912278641572405E-04  4.89999145731970839E-04
  4.96162576182944425E-04  5.02403533042931850E-04  5.08722991474026332E-04
  5.15121938904346526E-04  5.21601375182325646E-04  5.28162312732937951E-04
  5.34805776715892409E-04  5.41532805185815868E-04  5.48344449254450353E-04
  5.55241773254893430E-04  5.62225854907899753E-04  5.69297785490278040E-04
  5.76458670005404851E-04  5.83709627355882593E-04  5.91051790518373190E-04
  5.98486306720623362E-04  6.06014337620723793E-04  6.13637059488619536E-04
  6.21355663389904183E-04  6.29171355371927398E-04  6.37085356652239442E-04
  6.45098903809410542E-04  6.53213248976248291E-04  6.61429660035443346E-04
  6.69749420817682540E-04  6.78173831302246455E-04  6.86704207820134260E-04
  6.95341883259742075E-04  7.04088207275129960E-04  7.12944546496909327E-04
  7.21912284745777422E-04  7.30992823248744644E-04  7.40187580858077247E-04
  7.49497994272995760E-04  7.58925518264163060E-04  7.68471625900991905E-04
  7.78137808781817486E-04  7.87925577266959686E-04  7.97836460714719314E-04
  8.07872007720346883E-04  8.18033786358007592E-04  8.28323384425798978E-04
  8.38742409693845324E-04  8.49292490155514022E-04  8.59975274281796079E-04
  8.70792431278876551E-04  8.81745651348953582E-04  8.92836645954335202E-04
  9.04067148084856378E-04  9.15438912528664583E-04  9.26953716146404548E-04
  9.38613358148856743E-04  9.50419660378066231E-04  9.62374467592009056E-04
  9.74479647752839423E-04  9.86737092318757791E-04  9.99148716539557339E-04
  1.01171645975588263E-03  1.02444228570225480E-03  1.03732818281390953E-03
  1.05037616453748845E-03  1.06358826964564660E-03  1.07696656255561293E-03
  1.09051313365175523E-03  1.10423009961221029E-03  1.11811960373961396E-03
  1.13218381629599514E-03  1.14642493484188234E-03  1.16084518457967509E-03
  1.17544681870133602E-03  1.19023211874045394E-03  1.20520339492873269E-03
  1.22036298655697198E-03  1.23571326234058095E-03  1.25125662078969489E-03
  1.26699549058394687E-03  1.28293233095194323E-03  1.29906963205552936E-03
  1.31540991537887450E-03  1.33195573412245869E-03  1.34870967360201164E-03
  1.36567435165247221E-03  1.38285241903702313E-03  1.40024655986127991E-03
  1.41785949199268037E-03  1.43569396748515865E-03  1.45375277300914931E-03
  1.47203873028701137E-03  1.49055469653392217E-03  1.50930356490431802E-03
  1.52828826494395592E-03  1.54751176304765230E-03  1.56697706292278330E-03
  1.58668720605861986E-03  1.60664527220155564E-03  1.62685437983632738E-03
  1.64731768667326982E-03  1.66803839014171467E-03  1.68901972788958687E-03
  1.71026497828929112E-03  1.73177746094995712E-03  1.75356053723612617E-03
  1.77561761079296845E-03  1.79795212807809892E-03  1.82056757890008709E-03
  1.84346749696374804E-03  1.86665546042226829E-03  1.89013509243630344E-03
  1.91391006174009004E-03  1.93798408321468603E-03  1.96236091846842611E-03
  1.98704437642465608E-03  2.01203831391689233E-03  2.03734663629143989E-03
  2.06297329801759938E-03  2.08892230330556252E-03  2.11519770673205144E-03
  2.14180361387385308E-03  2.16874418194930828E-03  2.19602362046787203E-03
  2.22364619188785383E-03  2.25161621228240879E-03  2.27993805201392877E-03
  2.30861613641690369E-03  2.33765494648936756E-03  2.36705901959306450E-03
  2.39683295016238519E-03  2.42698139042225348E-03  2.45750905111502202E-03
  2.48842070223651707E-03  2.51972117378135340E-03  2.55141535649759058E-03
  2.58350820265092120E-03  2.61600472679843817E-03  2.64891000657215556E-03
  2.68222918347237787E-03  2.71596746367103962E-03  2.75013011882515928E-03
  2.78472248690052023E-03  2.81974997300571493E-03  2.85521805023668078E-03
  2.89113226053184418E-03  2.92749821553803420E-03  2.96432159748728861E-03
  3.00160816008467448E-03  3.03936372940729520E-03  3.07759420481457926E-03
  3.11630555987004419E-03  3.15550384327462812E-03  3.19519517981178272E-03
  3.23538577130445121E-03  3.27608189758405322E-03  3.31728991747169775E-03
  3.35901626977170870E-03  3.40126747427765223E-03  3.44405013279104047E-03
  3.48737093015279599E-03  3.53123663528774395E-03  3.57565410226220711E-03
  3.62063027135491175E-03  3.66617217014137634E-03  3.71228691459190522E-03
  3.75898171018341836E-03  3.80626385302526744E-03  3.85414073099918462E-03
  3.90261982491360571E-03  3.95170870967246571E-03  4.00141505545873691E-03
  4.05174662893281919E-03  4.10271129444602593E-03  4.15431701526932512E-03
  4.20657185483751944E-03  4.25948397800907791E-03  4.31306165234183851E-03
  4.36731324938471974E-03  4.42224724598569950E-03  4.47787222561622181E-03
  4.53419687971228728E-03  4.59123000903239199E-03  4.64898052503253181E-03
  4.70745745125854091E-03  4.76666992475589107E-03  4.82662719749724686E-03
  4.88733863782797508E-03  4.94881373192982386E-03  5.01106208530300353E-03
  5.07409342426692975E-03  5.13791759747980400E-03  5.20254457747733844E-03
  5.26798446223080037E-03  5.33424747672467132E-03  5.40134397455414514E-03
  5.46928443954268918E-03  5.53807948737997709E-03  5.60773986728040769E-03
  5.67827646366247593E-03  5.74970029784925736E-03  5.82202252979028591E-03
  5.89525445980509238E-03  5.96940753034863342E-03  6.04449332779894832E-03
  6.12052358426730218E-03  6.19751017943104450E-03  6.27546514238957413E-03
  6.35440065354359908E-03  6.43432904649802063E-03  6.51526280998881036E-03
  6.59721458983400077E-03  6.68019719090932624E-03  6.76422357914862726E-03
  6.84930688356942628E-03  6.93546039832398670E-03  7.02269758477613339E-03
  7.11103207360420497E-03  7.20047766693045471E-03  7.29104834047717386E-03
  7.38275824574999382E-03  7.47562171224857783E-03  7.56965324970512634E-03
  7.66486755035105521E-03  7.76127949121210164E-03  7.85890413643236009E-03
  7.95775673962746677E-03  8.05785274626742189E-03  8.15920779608933673E-03
  8.26183772554049678E-03  8.36575857025219534E-03  8.47098656754457710E-03
  8.57753815896304846E-03  8.68542999284655122E-03  8.79467892692804495E-03
  8.90530203096781721E-03  9.01731658941975003E-03  9.13074010413119155E-03
  9.24559029707674486E-03  9.36188511312636105E-03  9.47964272284832973E-03
  9.59888152534737853E-03  9.71962015113852530E-03  9.84187746505704557E-03
  9.96567256920491765E-03  1.00910248059344603E-02  1.02179537608692826E-02
  1.03464792659633334E-02  1.04766214025983455E-02  1.06084005047201672E-02
  1.07418371620145742E-02  1.08769522231229182E-02  1.10137667988982318E-02
  1.11523022657022079E-02  1.12925802687436315E-02  1.14346227254587488E-02
  1.15784518289340829E-02  1.17240900513722636E-02  1.18715601476014447E-02
  1.20208851586286972E-02  1.21720884152382025E-02  1.23251935416344438E-02
  1.24802244591313578E-02  1.26372053898876711E-02  1.27961608606892568E-02
  1.29571157067789426E-02  1.31200950757344361E-02  1.32851244313949204E-02
  1.34522295578370522E-02  1.36214365634007659E-02  1.37927718847657092E-02
  1.39662622910788833E-02  1.41419348881340161E-02  1.43198171226035439E-02
  1.44999367863235772E-02  1.46823220206327640E-02  1.48670013207656514E-02
  1.50540035403010433E-02  1.52433578956663856E-02  1.54350939706985359E-02
  1.56292417212618717E-02  1.58258314799243488E-02  1.60248939606921700E-02
  1.62264602638039664E-02  1.64305618805850838E-02  1.66372306983627698E-02
  1.68464990054430983E-02  1.70583994961502131E-02  1.72729652759289892E-02
  1.74902298665114038E-02  1.77102272111480524E-02  1.79329916799050443E-02
  1.81585580750273749E-02  1.83869616363696621E-02  1.86182380468948583E-02
  1.88524234382419463E-02  1.90895543963635339E-02  1.93296679672339301E-02
  1.95728016626290288E-02  1.98189934659784087E-02  2.00682818382909127E-02
  2.03207057241544566E-02  2.05763045578110232E-02  2.08351182693078223E-02
  2.10971872907253499E-02  2.13625525624837088E-02  2.16312555397277714E-02
  2.19033381987923138E-02  2.21788430437482587E-02  2.24578131130306231E-02
  2.27402919861497618E-02  2.30263237904864276E-02  2.33159532081719419E-02
  2.36092254830544968E-02  2.39061864277526522E-02  2.42068824307969908E-02
  2.45113604638613515E-02  2.48196680890841459E-02  2.51318534664817309E-02
  2.54479653614540606E-02  2.57680531523843855E-02  2.60921668383340861E-02
  2.64203570468333725E-02  2.67526750417696850E-02  2.70891727313744279E-02
  2.74299026763096428E-02  2.77749180978556845E-02  2.81242728862009829E-02
  2.84780216088356755E-02  2.88362195190496190E-02  2.91989225645368326E-02
  2.95661873961071027E-02  2.99380713765064303E-02  3.03146325893474088E-02
  3.06959298481511260E-02  3.10820227055015885E-02  3.14729714623145501E-02
  3.18688371772216789E-02  3.22696816760717695E-02  3.26755675615502186E-02
  3.30865582229184357E-02  3.35027178458744274E-02  3.39241114225362836E-02
  3.43508047615497109E-02  3.47828644983214155E-02  3.52203581053799272E-02
  3.56633539028649929E-02  3.61119210691476025E-02  3.65661296515817982E-02
  3.70260505773902654E-02  3.74917556646849615E-02  3.79633176336246422E-02
  3.84408101177108122E-02  3.89243076752240277E-02  3.94138858008016985E-02
  3.99096209371597246E-02  4.04115904869593451E-02  4.09198728248208257E-02
  4.14345473094862582E-02  4.19556942961325716E-02  4.24833951488371234E-02
  4.30177322531973758E-02  4.35587890291066898E-02  4.41066499436878548E-02
  4.46614005243864756E-02  4.52231273722259602E-02  4.57919181752260915E-02
  4.63678617219871192E-02  4.69510479154411978E-02  4.75415677867734657E-02
  4.81395135095142868E-02  4.87449784138050402E-02  4.93580570008396516E-02
  4.99788449574830179E-02  5.06074391710696625E-02  5.12439377443837663E-02
  5.18884400108228921E-02  5.25410465497480675E-02  5.32018592020215009E-02
  5.38709810857348273E-02  5.45485166121296577E-02  5.52345715017128688E-02
  5.59292528005688738E-02  5.66326688968707970E-02  5.73449295375932575E-02
  5.80661458454288584E-02  5.87964303359105392E-02  5.95358969347424064E-02
  6.02846609953412230E-02  6.10428393165908800E-02  6.18105501608124802E-02
  6.25879132719519560E-02  6.33750498939882612E-02  6.41720827895640722E-02
  6.49791362588417881E-02  6.57963361585869322E-02  6.66238099214818552E-02
  6.74616865756720169E-02  6.83100967645474538E-02  6.91691727667617107E-02
  7.00390485164914256E-02  7.09198596239380696E-02  7.18117433960759471E-02
  7.27148388576472626E-02  7.36292867724084588E-02  7.45552296646294216E-02
  7.54928118408486337E-02  7.64421794118865794E-02  7.74034803151210093E-02
  7.83768643370249679E-02  7.93624831359721478E-02  8.03604902653109604E-02
  8.13710411967105557E-02  8.23942933437815106E-02  8.34304060859734492E-02
  8.44795407927528413E-02  8.55418608480634918E-02  8.66175316750719543E-02
  8.77067207612014510E-02  8.88095976834563233E-02  8.99263341340397621E-02
  9.10571039462678838E-02  9.22020831207827074E-02  9.33614498520661390E-02
  9.45353845552586308E-02  9.57240698932842193E-02  9.69276908042853852E-02
  9.81464345293696916E-02  9.93804906406709904E-02  1.00630051069728166E-01
  1.01895310136183539E-01  1.03176464576803364E-01  1.04473713574823504E-01
  1.05787258789622099E-01  1.07117304386721984E-01  1.08464057068125272E-01
  1.09827726102982290E-01  1.11208523358597391E-01  1.12606663331773216E-01
  1.14022363180496911E-01  1.15455842755968985E-01  1.16907324634977688E-01
  1.18377034152620991E-01  1.19865199435377406E-01  1.21372051434528228E-01
  1.22897823959932637E-01  1.24442753714156848E-01  1.26007080326960397E-01
  1.27591046390138685E-01  1.29194897492725641E-01  1.30818882256555691E-01
  1.32463252372187312E-01  1.34128262635189066E-01  1.35814170982788307E-01
  1.37521238530884021E-01  1.39249729611423484E-01  1.40999911810143985E-01
  1.42772056004679682E-01  1.44566436403031989E-01  1.46383330582406379E-01
  1.48223019528411520E-01  1.50085787674623661E-01  1.51971922942512105E-01
  1.53881716781727268E-01  1.55815464210748156E-01  1.57773463857888402E-01
  1.59756018002658845E-01  1.61763432617483938E-01  1.63796017409769373E-01
  1.65854085864318740E-01  1.67937955286094898E-01  1.70047946843321834E-01
  1.72184385610925250E-01  1.74347600614304016E-01  1.76537924873430618E-01
  1.78755695447271379E-01  1.81001253478524970E-01  1.83274944238667720E-01
  1.85577117173302691E-01  1.87908125947801902E-01  1.90268328493234801E-01
  1.92658087052573063E-01  1.95077768227162968E-01  1.97527743023453078E-01
  2.00008386899968166E-01  2.02520079814515058E-01  2.05063206271609122E-01
  2.07638155370105881E-01  2.10245320851025069E-01  2.12885101145548483E-01
  2.15557899423176269E-01  2.18264123640025010E-01  2.21004186587243828E-01
  2.23778505939533412E-01  2.26587504303741416E-01  2.29431609267514880E-01
  2.32311253447981148E-01  2.35226874540435199E-01  2.38178915367001032E-01
  2.41167823925241609E-01  2.44194053436682990E-01  2.47258062395221606E-01
  2.50360314615376334E-01  2.53501279280352265E-01  2.56681430989873227E-01
  2.59901249807740597E-01  2.63161221309077986E-01  2.66461836627210347E-01
  2.69803592500129918E-01  2.73186991316496763E-01  2.76612541161116110E-01
  2.80080755859836439E-01  2.83592155023802583E-01  2.87147264093002064E-01
  2.90746614379030988E-01  2.94390743107009523E-01  2.98080193456565778E-01
  3.01815514601809609E-01  3.05597261750206961E-01  3.09425996180263507E-01
  3.13302285277923087E-01  3.17226702571573982E-01  3.21199827765562551E-01
  3.25222246772091661E-01  3.29294551741391106E-01  3.33417341090028241E-01
  3.37591219527228426E-01  3.41816798079060569E-01  3.46094694110341217E-01
  3.50425531344098040E-01  3.54809939878428626E-01  3.59248556200576274E-01
  3.63742023198039832E-01  3.68290990166523446E-01  3.72896112814517455E-01
  3.77558053264295368E-01  3.82277480049096896E-01  3.87055068106256284E-01
  3.91891498766020918E-01  3.96787459735788606E-01  4.01743645079484846E-01
  4.06760755191777568E-01  4.11839496766814139E-01  4.16980582761149410E-01
  4.22184732350513570E-01  4.27452670880049901E-01  4.32785129807631785E-01
  4.38182846639848744E-01  4.43646564860229409E-01  4.49177033849240459E-01
  4.54775008795584579E-01  4.60441250598285723E-01  4.66176525759029570E-01
  4.71981606264192333E-01  4.77857269455967015E-01  4.83804297891954671E-01
  4.89823479192567635E-01  4.95915605875541288E-01  5.02081475176830438E-01
  5.08321888857109938E-01  5.14637652993069072E-01  5.21029577752644690E-01
  5.27498477153287570E-01  5.34045168802312453E-01  5.40670473618330871E-01
  5.47375215532715731E-01  5.54160221169981426E-01  5.61026319505918747E-01
  5.67974341502251678E-01  5.75005119716521795E-01  5.82119487885843223E-01
  5.89318280483091206E-01  5.96602332244020039E-01  6.03972477663727858E-01
  6.11429550460801496E-01  6.18974383007387274E-01  6.26607805723352396E-01
  6.34330646432596290E-01  6.42143729679486741E-01  6.50047876003276626E-01
  6.58043901168269940E-01  6.66132615347373336E-01  6.74314822256566693E-01
  6.82591318237703915E-01  6.90962891286913350E-01  6.99430320025756447E-01
  7.07994372612142930E-01  7.16655805587883776E-01  7.25415362659586727E-01
  7.34273773409457653E-01  7.43231751932411755E-01  7.52289995395721056E-01
  7.61449182517264012E-01  7.70709971958257078E-01  7.80073000626160029E-01
  7.89538881883261490E-01  7.99108203656251681E-01  8.08781526441882392E-01
  8.18559381203610159E-01  8.28442267153900125E-01  8.38430649416651019E-01
  8.48524956563972310E-01  8.58725578021315439E-01  8.69032861334733564E-01
  8.79447109293791107E-01  8.89968576903423347E-01  9.00597468197776418E-01
  9.11333932888840681E-01  9.22178062842420654E-01  9.33129888373747995E-01
  9.44189374354802768E-01  9.55356416125154095E-01  9.66630835197908489E-01
  9.78012374752096791E-01  9.89500694902630484E-01  1.00109536773876640E+00
  1.01279587212174982E+00  1.02460158823216130E+00  1.03651179185731923E+00
  1.04852564840894580E+00  1.06064220666115538E+00  1.07286039219876783E+00
  1.08517900056584105E+00  1.09759669010433303E+00  1.11011197447277765E+00
  1.12272321483496085E+00  1.13542861170867382E+00  1.14822619646479640E+00
  1.16111382246723083E+00  1.17408915584449725E+00  1.18714966588421156E+00
  1.20029261504217066E+00  1.21351504855833903E+00  1.22681378367275662E+00
  1.24018539843520181E+00  1.25362622010340075E+00  1.26713231312568908E+00
  1.28069946670528156E+00  1.29432318194475826E+00  1.30799865857098174E+00
  1.32172078124249026E+00  1.33548410544346630E+00  1.34928284297071110E+00
  1.36311084702246044E+00  1.37696159690079889E+00  1.39082818234248395E+00
  1.40470328749643314E+00  1.41857917456984151E+00  1.43244766716902183E+00
  1.44630013336550634E+00  1.46012746852284536E+00  1.47392007792479829E+00
  1.48766785925134748E+00  1.50136018495514656E+00  1.51498588459767158E+00
  1.52853322721150442E+00  1.54198990376283640E+00  1.55534300979650841E+00
  1.56857902835461527E+00  1.58168381326902985E+00  1.59464257293803247E+00
  1.60743985470768602E+00  1.62005952998955016E+00  1.63248478025787014E+00
  1.64469808408147866E+00  1.65668120535818852E+00  1.66841518293263968E+00
  1.67988032179226221E+00  1.69105618604903607E+00  1.70192159392997255E+00
  1.71245461501361862E+00  1.72263256996429726E+00  1.73243203303067261E+00
  1.74182883758992069E+00  1.75079808503328094E+00  1.75931415730293161E+00
  1.76735073340365401E+00  1.77488081022565480E+00  1.78187672802669606E+00
  1.78831020093229820E+00  1.79415235282185281E+00  1.79937375897566443E+00
  1.80394449386299960E+00  1.80783418545369212E+00  1.81101207643536166E+00
  1.81344709271446636E+00  1.81510791957175588E+00  1.81596308583070254E+00
  1.81598105638073704E+00  1.81513033337509988E+00  1.81337956639520881E+00
  1.81069767183926222E+00  1.80705396175203958E+00  1.80241828226587097E+00
  1.79676116175907374E+00  1.79005396878196565E+00  1.78226907972541770E+00
  1.77338005612177452E+00  1.76336183137692570E+00  1.75219090663062893E+00
  1.73984555533059848E+00  1.72630603598468202E+00  1.71155481242453411E+00
  1.69557678077415641E+00  1.67835950216779839E+00  1.65989344010478690E+00
  1.64017220116487050E+00  1.61919277763755742E+00  1.59695579044431257E+00
  1.57346573055476036E+00  1.54873119691916794E+00  1.52276512876158487E+00
  1.49558502990308928E+00  1.46721318261555189E+00  1.43767684834522225E+00
  1.40700845249540163E+00  1.37524575032090013E+00  1.34243197086657284E+00
  1.30861593578066571E+00  1.27385214975138417E+00  1.23820085925723333E+00
  1.20172807629240785E+00  1.16450556371386105E+00  1.12661077887332195E+00
  1.08812677223736354E+00  1.04914203776071080E+00  1.00975031185983521E+00
  9.70050317932337758E-01  9.30145453478610884E-01  8.90143417001114989E-01
  8.50155771978852615E-01  8.10297445335896427E-01  7.70686157940064676E-01
  7.31441784780159310E-01  6.92685642579466632E-01  6.54539702716725347E-01
  6.17125727456256712E-01  5.80564327658114387E-01  5.44973940378709609E-01
  5.10469725126931340E-01  4.77162378070270510E-01  4.45156864267249042E-01
  4.14551069133842653E-01  3.85434371951107524E-01  3.57886146412031980E-01
  3.31974196253982445E-01  3.07753137948793332E-01  2.85262747488392643E-01
  2.64526294891637703E-01  2.45548898190606935E-01  2.28315938663869927E-01
  2.12791591174693845E-01  1.98917537836973635E-01  1.86611950024040768E-01
  1.75768843052021284E-01  1.66257929736921023E-01  1.57925123390218136E-01
  1.50593867548662497E-01  1.44067498628847712E-01  1.38132878516549040E-01
  1.32565566620352487E-01  1.27136835011171123E-01  1.21622866011232122E-01
  1.15816509403022613E-01  1.09542017184938917E-01  1.02673218956287837E-01
  9.51556525633097949E-02  8.70332248475844394E-02  7.84800474286733024E-02
  6.98248112222848299E-02  6.12790226975028218E-02  5.28271125483438519E-02
  4.44430506955699536E-02  3.61011922761878754E-02  2.77764927160987184E-02
  1.94440725603731400E-02  1.10680328053405844E-02  2.42029968987072814E-03
  9.62222621979868208E-05  6.93966146832577163E-06  0.00000000000000000E+00
  0.00000000000000000E+00  0.00000000000000000E+00  0.00000000000000000E+00
  0.00000000000000000E+00  0.00000000000000000E+00  0.00000000000000000E+00
  0.00000000000000000E+00  0.00000000000000000E+00  0.00000000000000000E+00
  0.00000000000000000E+00  0.00000000000000000E+00  0.00000000000000000E+00
  0.00000000000000000E+00  0.00000000000000000E+00  0.00000000000000000E+00
  0.00000000000000000E+00  0.00000000000000000E+00  0.00000000000000000E+00
  0.00000000000000000E+00  0.00000000000000000E+00  0.00000000000000000E+00
  0.00000000000000000E+00  0.00000000000000000E+00  0.00000000000000000E+00
  0.00000000000000000E+00  0.00000000000000000E+00  0.00000000000000000E+00
  0.00000000000000000E+00  0.00000000000000000E+00  0.00000000000000000E+00
  0.00000000000000000E+00  0.00000000000000000E+00  0.00000000000000000E+00
  0.00000000000000000E+00  0.00000000000000000E+00  0.00000000000000000E+00
  0.00000000000000000E+00  0.00000000000000000E+00  0.00000000000000000E+00
  0.00000000000000000E+00  0.00000000000000000E+00  0.00000000000000000E+00
  0.00000000000000000E+00  0.00000000000000000E+00  0.00000000000000000E+00
  0.00000000000000000E+00  0.00000000000000000E+00  0.00000000000000000E+00
  0.00000000000000000E+00  0.00000000000000000E+00  0.00000000000000000E+00
  0.00000000000000000E+00  0.00000000000000000E+00  0.00000000000000000E+00
  0.00000000000000000E+00  0.00000000000000000E+00  0.00000000000000000E+00
  0.00000000000000000E+00  0.00000000000000000E+00  0.00000000000000000E+00
  0.00000000000000000E+00  0.00000000000000000E+00  0.00000000000000000E+00
  0.00000000000000000E+00  0.00000000000000000E+00  0.00000000000000000E+00
  0.00000000000000000E+00  0.00000000000000000E+00  0.00000000000000000E+00
  0.00000000000000000E+00  0.00000000000000000E+00  0.00000000000000000E+00
  0.00000000000000000E+00  0.00000000000000000E+00  0.00000000000000000E+00
  0.00000000000000000E+00  0.00000000000000000E+00  0.00000000000000000E+00
  0.00000000000000000E+00  0.00000000000000000E+00  0.00000000000000000E+00
  0.00000000000000000E+00  0.00000000000000000E+00  0.00000000000000000E+00
  0.00000000000000000E+00  0.00000000000000000E+00  0.00000000000000000E+00
  0.00000000000000000E+00  0.00000000000000000E+00  0.00000000000000000E+00
  0.00000000000000000E+00  0.00000000000000000E+00  0.00000000000000000E+00
  0.00000000000000000E+00  0.00000000000000000E+00  0.00000000000000000E+00
  0.00000000000000000E+00  0.00000000000000000E+00  0.00000000000000000E+00
  0.00000000000000000E+00  0.00000000000000000E+00  0.00000000000000000E+00
  0.00000000000000000E+00  0.00000000000000000E+00  0.00000000000000000E+00
  0.00000000000000000E+00  0.00000000000000000E+00  0.00000000000000000E+00
  0.00000000000000000E+00  0.00000000000000000E+00  0.00000000000000000E+00
  0.00000000000000000E+00  0.00000000000000000E+00  0.00000000000000000E+00
  0.00000000000000000E+00  0.00000000000000000E+00  0.00000000000000000E+00
  0.00000000000000000E+00  0.00000000000000000E+00  0.00000000000000000E+00
  0.00000000000000000E+00  0.00000000000000000E+00  0.00000000000000000E+00
  0.00000000000000000E+00  0.00000000000000000E+00  0.00000000000000000E+00
  0.00000000000000000E+00  0.00000000000000000E+00  0.00000000000000000E+00
  0.00000000000000000E+00  0.00000000000000000E+00  0.00000000000000000E+00
  0.00000000000000000E+00  0.00000000000000000E+00  0.00000000000000000E+00
  0.00000000000000000E+00  0.00000000000000000E+00  0.00000000000000000E+00
  0.00000000000000000E+00  0.00000000000000000E+00  0.00000000000000000E+00
  0.00000000000000000E+00  0.00000000000000000E+00  0.00000000000000000E+00
  0.00000000000000000E+00  0.00000000000000000E+00  0.00000000000000000E+00
  0.00000000000000000E+00  0.00000000000000000E+00  0.00000000000000000E+00
  0.00000000000000000E+00  0.00000000000000000E+00  0.00000000000000000E+00
  0.00000000000000000E+00  0.00000000000000000E+00  0.00000000000000000E+00
  0.00000000000000000E+00  0.00000000000000000E+00  0.00000000000000000E+00
  0.00000000000000000E+00  0.00000000000000000E+00  0.00000000000000000E+00
                              </PP_BETA.1>
 <PP_BETA.2 type="real" size="   999" angular_momentum="0" columns="3" cutoff_radius_index="   836" norm_conserving_radius="    1.903803" label= "0S">
 -1.38443815812863203E-04 -1.40185224622510534E-04 -1.41948537657769519E-04
 -1.43734030439853237E-04 -1.45541981955604239E-04 -1.47372674701086231E-04
 -1.49226394725724814E-04 -1.51103431677003421E-04 -1.53004078845720765E-04
 -1.54928633211818948E-04 -1.56877395490786180E-04 -1.58850670180644580E-04
 -1.60848765609528495E-04 -1.62871993983861182E-04 -1.64920671437138243E-04
 -1.66995118079323008E-04 -1.69095658046865038E-04 -1.71222619553346893E-04
 -1.73376334940767790E-04 -1.75557140731473336E-04 -1.77765377680736786E-04
 -1.80001390830003181E-04 -1.82265529560802575E-04 -1.84558147649341596E-04
 -1.86879603321782003E-04 -1.89230259310213197E-04 -1.91610482909330325E-04
 -1.94020646033824515E-04 -1.96461125276495031E-04 -1.98932301967093392E-04
 -2.01434562231905654E-04 -2.03968297054086010E-04 -2.06533902334748217E-04
 -2.09131778954825759E-04 -2.11762332837710785E-04 -2.14425975012679556E-04
 -2.17123121679116735E-04 -2.19854194271547159E-04 -2.22619619525485374E-04
 -2.25419829544114720E-04 -2.28255261865802984E-04 -2.31126359532469262E-04
 -2.34033571158809403E-04 -2.36977351002392629E-04 -2.39958159034641056E-04
 -2.42976461012699857E-04 -2.46032728552212949E-04 -2.49127439201013532E-04
 -2.52261076513741241E-04 -2.55434130127399329E-04 -2.58647095837859925E-04
 -2.61900475677333809E-04 -2.65194777992813302E-04 -2.68530517525502059E-04
 -2.71908215491244870E-04 -2.75328399661966747E-04 -2.78791604448139349E-04
 -2.82298370982282979E-04 -2.85849247203519014E-04 -2.89444787943187235E-04
 -2.93085555011537112E-04 -2.96772117285512517E-04 -3.00505050797639272E-04
 -3.04284938826030523E-04 -3.08112371985525913E-04 -3.11987948319974258E-04
 -3.15912273395679583E-04 -3.19885960396020853E-04 -3.23909630217263133E-04
 -3.27983911565574550E-04 -3.32109441055259292E-04 -3.36286863308230444E-04
 -3.40516831054734487E-04 -3.44800005235339864E-04 -3.49137055104209242E-04
 -3.53528658333670273E-04 -3.57975501120105549E-04 -3.62478278291169360E-04
 -3.67037693414353622E-04 -3.71654458906923817E-04 -3.76329296147233264E-04
 -3.81062935587439002E-04 -3.85856116867635754E-04 -3.90709588931425534E-04
 -3.95624110142940686E-04 -4.00600448405336984E-04 -4.05639381280781264E-04
 -4.10741696111945054E-04 -4.15908190145026667E-04 -4.21139670654322340E-04
 -4.26436955068362268E-04 -4.31800871097635193E-04 -4.37232256863917903E-04
 -4.42731961031230697E-04 -4.48300842938445174E-04 -4.53939772733552159E-04
 -4.59649631509623040E-04 -4.65431311442482897E-04 -4.71285715930112176E-04
 -4.77213759733802710E-04 -4.83216369121087337E-04 -4.89294482010471502E-04
 -4.95449048117981841E-04 -5.01681029105558590E-04 -5.07991398731317775E-04
 -5.14381143001697567E-04 -5.20851260325522441E-04 -5.27402761670004252E-04
 -5.34036670718705721E-04 -5.40754024031491701E-04 -5.47555871206486969E-04
 -5.54443275044080451E-04 -5.61417311712983477E-04 -5.68479070918378689E-04
 -5.75629656072193670E-04 -5.82870184465498738E-04 -5.90201787443087132E-04
 -5.97625610580246477E-04 -6.05142813861750373E-04 -6.12754571863109027E-04
 -6.20462073934095618E-04 -6.28266524384574762E-04 -6.36169142672674795E-04
 -6.44171163595334351E-04 -6.52273837481231371E-04 -6.60478430386140288E-04
 -6.68786224290758807E-04 -6.77198517301013606E-04 -6.85716623850883122E-04
 -6.94341874907777640E-04 -7.03075618180494478E-04 -7.11919218329806801E-04
 -7.20874057181676315E-04 -7.29941533943164432E-04 -7.39123065421054700E-04
 -7.48420086243224334E-04 -7.57834049082801932E-04 -7.67366424885143898E-04
 -7.77018703097656139E-04 -7.86792391902528467E-04 -7.96689018452375534E-04
 -8.06710129108847941E-04 -8.16857289684250914E-04 -8.27132085686187375E-04
 -8.37536122565295097E-04 -8.48071025966094230E-04 -8.58738441980974338E-04
 -8.69540037407396760E-04 -8.80477500008328964E-04 -8.91552538775936942E-04
 -9.02766884198622790E-04 -9.14122288531386677E-04 -9.25620526069616842E-04
 -9.37263393426316510E-04 -9.49052709812805355E-04 -9.60990317322967815E-04
 -9.73078081221064213E-04 -9.85317890233168743E-04 -9.97711656842270329E-04
 -1.01026131758708026E-03 -1.02296883336461405E-03 -1.03583618973655638E-03
 -1.04886539723948800E-03 -1.06205849169903007E-03 -1.07541753454791869E-03
 -1.08894461314808060E-03 -1.10264184111677163E-03 -1.11651135865680905E-03
 -1.13055533289096078E-03 -1.14477595820054430E-03 -1.15917545656825664E-03
 -1.17375607792535950E-03 -1.18852010050319863E-03 -1.20346983118914896E-03
 -1.21860760588705149E-03 -1.23393578988216165E-03 -1.24945677821070478E-03
 -1.26517299603406963E-03 -1.28108689901770974E-03 -1.29720097371480636E-03
 -1.31351773795477253E-03 -1.33003974123661580E-03 -1.34676956512726946E-03
 -1.36370982366492842E-03 -1.38086316376744727E-03 -1.39823226564588757E-03
 -1.41581984322325881E-03 -1.43362864455852520E-03 -1.45166145227593928E-03
 -1.46992108399978815E-03 -1.48841039279460101E-03 -1.50713226761088333E-03
 -1.52608963373645590E-03 -1.54528545325349894E-03 -1.56472272550128985E-03
 -1.58440448754482545E-03 -1.60433381464926634E-03 -1.62451382076040990E-03
 -1.64494765899116623E-03 -1.66563852211415648E-03 -1.68658964306052481E-03
 -1.70780429542500309E-03 -1.72928579397731456E-03 -1.75103749518005516E-03
 -1.77306279771304379E-03 -1.79536514300426072E-03 -1.81794801576751121E-03
 -1.84081494454676835E-03 -1.86396950226747136E-03 -1.88741530679463823E-03
 -1.91115602149807568E-03 -1.93519535582466901E-03 -1.95953706587785083E-03
 -1.98418495500438411E-03 -2.00914287438851190E-03 -2.03441472365356634E-03
 -2.06000445147114675E-03 -2.08591605617796522E-03 -2.11215358640044499E-03
 -2.13872114168714043E-03 -2.16562287314916741E-03 -2.19286298410861563E-03
 -2.22044573075518047E-03 -2.24837542281097454E-03 -2.27665642420377254E-03
 -2.30529315374866390E-03 -2.33429008583829322E-03 -2.36365175114176948E-03
 -2.39338273731238595E-03 -2.42348768970420802E-03 -2.45397131209766292E-03
 -2.48483836743427448E-03 -2.51609367856061661E-03 -2.54774212898162614E-03
 -2.57978866362336499E-03 -2.61223828960540846E-03 -2.64509607702287201E-03
 -2.67836715973833635E-03 -2.71205673618369605E-03 -2.74617007017207478E-03
 -2.78071249171994890E-03 -2.81568939787962044E-03 -2.85110625358211403E-03
 -2.88696859249071725E-03 -2.92328201786518733E-03 -2.96005220343685755E-03
 -2.99728489429472965E-03 -3.03498590778269583E-03 -3.07316113440800906E-03
 -3.11181653876121218E-03 -3.15095816044761237E-03 -3.19059211503043257E-03
 -3.23072459498581098E-03 -3.27136187066983351E-03 -3.31251029129769501E-03
 -3.35417628593512665E-03 -3.39636636450233896E-03 -3.43908711879052902E-03
 -3.48234522349112749E-03 -3.52614743723809413E-03 -3.57050060366313109E-03
 -3.61541165246430504E-03 -3.66088760048797037E-03 -3.70693555282433553E-03
 -3.75356270391681004E-03 -3.80077633868521666E-03 -3.84858383366312295E-03
 -3.89699265814952853E-03 -3.94601037537484906E-03 -3.99564464368174898E-03
 -4.04590321772054819E-03 -4.09679394965993364E-03 -4.14832479041253848E-03
 -4.20050379087618872E-03 -4.25333910319054646E-03 -4.30683898200956861E-03
 -4.36101178579001696E-03 -4.41586597809601276E-03 -4.47141012891998785E-03
 -4.52765291602032910E-03 -4.58460312627560242E-03 -4.64226965705595747E-03
 -4.70066151761159255E-03 -4.75978783047873756E-03 -4.81965783290317241E-03
 -4.88028087828169116E-03 -4.94166643762161857E-03 -5.00382410101854729E-03
 -5.06676357915275283E-03 -5.13049470480417269E-03 -5.19502743438662526E-03
 -5.26037184950099105E-03 -5.32653815850809165E-03 -5.39353669812113294E-03
 -5.46137793501816696E-03 -5.53007246747476682E-03 -5.59963102701711238E-03
 -5.67006448009577113E-03 -5.74138382978062189E-03 -5.81360021747673490E-03
 -5.88672492466192892E-03 -5.96076937464605754E-03 -6.03574513435225016E-03
 -6.11166391612058373E-03 -6.18853757953418630E-03 -6.26637813326833513E-03
 -6.34519773696255382E-03 -6.42500870311627035E-03 -6.50582349900812214E-03
 -6.58765474863930080E-03 -6.67051523470114753E-03 -6.75441790056742486E-03
 -6.83937585231150693E-03 -6.92540236074871540E-03 -7.01251086350424165E-03
 -7.10071496710694503E-03 -7.19002844910922399E-03 -7.28046526023350821E-03
 -7.37203952654536757E-03 -7.46476555165403143E-03 -7.55865781894015688E-03
 -7.65373099381154703E-03 -7.74999992598691088E-03 -7.84747965180830967E-03
 -7.94618539658229622E-03 -8.04613257695032703E-03 -8.14733680328875304E-03
 -8.24981388213869016E-03 -8.35357981866628393E-03 -8.45865081915353652E-03
 -8.56504329352024939E-03 -8.67277385787735416E-03 -8.78185933711205999E-03
 -8.89231676750522511E-03 -9.00416339938122680E-03 -9.11741669979100958E-03
 -9.23209435522819727E-03 -9.34821427437935309E-03 -9.46579459090824728E-03
 -9.58485366627474626E-03 -9.70541009258878498E-03 -9.82748269549980381E-03
 -9.95109053712206308E-03 -1.00762529189963208E-02 -1.02029893850882000E-02
 -1.03313197248238176E-02 -1.04612639761631591E-02 -1.05928424287113840E-02
 -1.07260756268687824E-02 -1.08609843730199315E-02 -1.09975897307620103E-02
 -1.11359130281734990E-02 -1.12759758611228715E-02 -1.14178000966187968E-02
 -1.15614078762012358E-02 -1.17068216193746983E-02 -1.18540640270840061E-02
 -1.20031580852328641E-02 -1.21541270682458107E-02 -1.23069945426742752E-02
 -1.24617843708470927E-02 -1.26185207145657566E-02 -1.27772280388456609E-02
 -1.29379311157029470E-02 -1.31006550279882551E-02 -1.32654251732675730E-02
 -1.34322672677505868E-02 -1.36012073502677425E-02 -1.37722717862954862E-02
 -1.39454872720316831E-02 -1.41208808385203059E-02 -1.42984798558269295E-02
 -1.44783120372657201E-02 -1.46604054436774434E-02 -1.48447884877603523E-02
 -1.50314899384537733E-02 -1.52205389253753515E-02 -1.54119649433121456E-02
 -1.56057978567668617E-02 -1.58020679045591597E-02 -1.60008057044831453E-02
 -1.62020422580213992E-02 -1.64058089551163688E-02 -1.66121375789995314E-02
 -1.68210603110794388E-02 -1.70326097358885382E-02 -1.72468188460901360E-02
 -1.74637210475461803E-02 -1.76833501644455375E-02 -1.79057404444948609E-02
 -1.81309265641716663E-02 -1.83589436340405865E-02 -1.85898272041340115E-02
 -1.88236132693967335E-02 -1.90603382751963653E-02 -1.93000391228997405E-02
 -1.95427531755157091E-02 -1.97885182634059374E-02 -2.00373726900631710E-02
 -2.02893552379590329E-02 -2.05445051744609711E-02 -2.08028622578196667E-02
 -2.10644667432275806E-02 -2.13293593889488514E-02 -2.15975814625224694E-02
 -2.18691747470378429E-02 -2.21441815474849694E-02 -2.24226446971789416E-02
 -2.27046075642601819E-02 -2.29901140582706547E-02 -2.32792086368073317E-02
 -2.35719363122529404E-02 -2.38683426585855132E-02 -2.41684738182671513E-02
 -2.44723765092123881E-02 -2.47800980318376753E-02 -2.50916862761919185E-02
 -2.54071897291697352E-02 -2.57266574818069797E-02 -2.60501392366605626E-02
 -2.63776853152725040E-02 -2.67093466657189853E-02 -2.70451748702454850E-02
 -2.73852221529887856E-02 -2.77295413877859109E-02 -2.80781861060714205E-02
 -2.84312105048638471E-02 -2.87886694548407616E-02 -2.91506185085054909E-02
 -2.95171139084434049E-02 -2.98882125956707670E-02 -3.02639722180757277E-02
 -3.06444511389521029E-02 -3.10297084456272951E-02 -3.14198039581839728E-02
 -3.18147982382775349E-02 -3.22147525980481936E-02 -3.26197291091308017E-02
 -3.30297906117595769E-02 -3.34450007239722596E-02 -3.38654238509108266E-02
 -3.42911251942218040E-02 -3.47221707615547603E-02 -3.51586273761616067E-02
 -3.56005626865946861E-02 -3.60480451765068932E-02 -3.65011441745514489E-02
 -3.69599298643843374E-02 -3.74244732947681610E-02 -3.78948463897780599E-02
 -3.83711219591103062E-02 -3.88533737084945791E-02 -3.93416762502078673E-02
 -3.98361051136933361E-02 -4.03367367562821114E-02 -4.08436485740187455E-02
 -4.13569189125907941E-02 -4.18766270783622954E-02 -4.24028533495115351E-02
 -4.29356789872725533E-02 -4.34751862472804174E-02 -4.40214583910204377E-02
 -4.45745796973815375E-02 -4.51346354743125330E-02 -4.57017120705809077E-02
 -4.62758968876359617E-02 -4.68572783915726515E-02 -4.74459461251981393E-02
 -4.80419907201994484E-02 -4.86455039094114347E-02 -4.92565785391853236E-02
 -4.98753085818554459E-02 -5.05017891483042838E-02 -5.11361165006254670E-02
 -5.17783880648821568E-02 -5.24287024439598071E-02 -5.30871594305137931E-02
 -5.37538600200081138E-02 -5.44289064238449583E-02 -5.51124020825836392E-02
 -5.58044516792461989E-02 -5.65051611527087119E-02 -5.72146377111754229E-02
 -5.79329898457337442E-02 -5.86603273439894185E-02 -5.93967613037756498E-02
 -6.01424041469375073E-02 -6.08973696331866210E-02 -6.16617728740225454E-02
 -6.24357303467204042E-02 -6.32193599083782226E-02 -6.40127808100223739E-02
 -6.48161137107668289E-02 -6.56294806920216384E-02 -6.64530052717475922E-02
 -6.72868124187507161E-02 -6.81310285670149590E-02 -6.89857816300640109E-02
 -6.98512010153498897E-02 -7.07274176386630815E-02 -7.16145639385559196E-02
 -7.25127738907745956E-02 -7.34221830226944872E-02 -7.43429284277492830E-02
 -7.52751487798491575E-02 -7.62189843477796697E-02 -7.71745770095731143E-02
 -7.81420702668452066E-02 -7.91216092590869419E-02 -8.01133407779045376E-02
 -8.11174132811956633E-02 -8.21339769072550047E-02 -8.31631834887955612E-02
 -8.42051865668765054E-02 -8.52601414047279293E-02 -8.63282050014557434E-02
 -8.74095361056194536E-02 -8.85042952286676093E-02 -8.96126446582152653E-02
 -9.07347484711540919E-02 -9.18707725465755104E-02 -9.30208845784945004E-02
 -9.41852540883551248E-02 -9.53640524373050302E-02 -9.65574528382164426E-02
 -9.77656303674381555E-02 -9.89887619762589016E-02 -1.00227026502062319E-01
 -1.01480604679150002E-01 -1.02749679149216080E-01 -1.04034434471443935E-01
 -1.05335057132207477E-01 -1.06651735554348204E-01 -1.07984660106004673E-01
 -1.09334023108964493E-01 -1.10700018846516993E-01 -1.12082843570768143E-01
 -1.13482695509397949E-01 -1.14899774871819016E-01 -1.16334283854711298E-01
 -1.17786426646893400E-01 -1.19256409433497051E-01 -1.20744440399409333E-01
 -1.22250729731938457E-01 -1.23775489622670321E-01 -1.25318934268469018E-01
 -1.26881279871578739E-01 -1.28462744638782128E-01 -1.30063548779571853E-01
 -1.31683914503276295E-01 -1.33324066015104159E-01 -1.34984229511036974E-01
 -1.36664633171531824E-01 -1.38365507153965062E-01 -1.40087083583762401E-01
 -1.41829596544153919E-01 -1.43593282064490818E-01 -1.45378378107052092E-01
 -1.47185124552280999E-01 -1.49013763182368253E-01 -1.50864537663118387E-01
 -1.52737693524015894E-01 -1.54633478136408264E-01 -1.56552140689730584E-01
 -1.58493932165677170E-01 -1.60459105310234051E-01 -1.62447914603477628E-01
 -1.64460616227044359E-01 -1.66497468029167123E-01 -1.68558729487177872E-01
 -1.70644661667365694E-01 -1.72755527182078289E-01 -1.74891590143949588E-01
 -1.77053116117136256E-01 -1.79240372065429643E-01 -1.81453626297122111E-01
 -1.83693148406484763E-01 -1.85959209211724680E-01 -1.88252080689266604E-01
 -1.90572035904215564E-01 -1.92919348936846924E-01 -1.95294294804949586E-01
 -1.97697149381868859E-01 -2.00128189310066290E-01 -2.02587691910020740E-01
 -2.05075935084279737E-01 -2.07593197216472264E-01 -2.10139757065079785E-01
 -2.12715893651759497E-01 -2.15321886144002744E-01 -2.17958013731907013E-01
 -2.20624555498832031E-01 -2.23321790285698929E-01 -2.26049996548686655E-01
 -2.28809452210067599E-01 -2.31600434501922303E-01 -2.34423219802449456E-01
 -2.37278083464596556E-01 -2.40165299636712654E-01 -2.43085141074918465E-01
 -2.46037878946882616E-01 -2.49023782626668910E-01 -2.52043119480332478E-01
 -2.55096154641901163E-01 -2.58183150779389414E-01 -2.61304367850469732E-01
 -2.64460062847414912E-01 -2.67650489530915359E-01 -2.70875898152350303E-01
 -2.74136535164096695E-01 -2.77432642917422756E-01 -2.80764459347524586E-01
 -2.84132217645218677E-01 -2.87536145914815022E-01 -2.90976466817657653E-01
 -2.94453397200817202E-01 -2.97967147710396174E-01 -3.01517922388893245E-01
 -3.05105918256042052E-01 -3.08731324872546897E-01 -3.12394323886086234E-01
 -3.16095088558958848E-01 -3.19833783276717631E-01 -3.23610563037111498E-01
 -3.27425572918643049E-01 -3.31278947528011791E-01 -3.35170810425707399E-01
 -3.39101273528976233E-01 -3.43070436491374253E-01 -3.47078386058082111E-01
 -3.51125195396133016E-01 -3.55210923398685374E-01 -3.59335613962432687E-01
 -3.63499295237219022E-01 -3.67701978846911859E-01 -3.71943659080506916E-01
 -3.76224312052477916E-01 -3.80543894831286200E-01 -3.84902344534972685E-01
 -3.89299577392691776E-01 -3.93735487771037007E-01 -3.98209947163948752E-01
 -4.02722803144973329E-01 -4.07273878280567436E-01 -4.11862969003164769E-01
 -4.16489844442616830E-01 -4.21154245214603817E-01 -4.25855882164568489E-01
 -4.30594435065674963E-01 -4.35369551269236377E-01 -4.40180844306030550E-01
 -4.45027892436839767E-01 -4.49910237150530246E-01 -4.54827381607905923E-01
 -4.59778789029536172E-01 -4.64763881025682446E-01 -4.69782035866417091E-01
 -4.74832586689916292E-01 -4.79914819646924062E-01 -4.85027971979233974E-01
 -4.90171230030053584E-01 -4.95343727183968907E-01 -5.00544541734254222E-01
 -5.05772694675092227E-01 -5.11027147416311944E-01 -5.16306799418094431E-01
 -5.21610485743081664E-01 -5.26936974523219637E-01 -5.32284964338620159E-01
 -5.37653081505638397E-01 -5.43039877271318416E-01 -5.48443824911244993E-01
 -5.53863316727824739E-01 -5.59296660945962976E-01 -5.64742078502974310E-01
 -5.70197699729602769E-01 -5.75661560918930948E-01 -5.81131600779906776E-01
 -5.86605656772244854E-01 -5.92081461319395319E-01 -5.97556637896257126E-01
 -6.03028696988398449E-01 -6.08495031919483398E-01 -6.13952914543707928E-01
 -6.19399490800135233E-01 -6.24831776125867711E-01 -6.30246650725187152E-01
 -6.35640854691916779E-01 -6.41010982982526789E-01 -6.46353480237693234E-01
 -6.51664635450415197E-01 -6.56940576479125515E-01 -6.62177264404651300E-01
 -6.67370487730494677E-01 -6.72515856426404768E-01 -6.77608795816001863E-01
 -6.82644540309994330E-01 -6.87618126987475153E-01 -6.92524389028832510E-01
 -6.97357949005089073E-01 -7.02113212029820133E-01 -7.06784358781412658E-01
 -7.11365338405185677E-01 -7.15849861306868007E-01 -7.20231391851215208E-01
 -7.24503140982042604E-01 -7.28658058782707174E-01 -7.32688826999282949E-01
 -7.36587851552048978E-01 -7.40347255064821574E-01 -7.43958869445839110E-01
 -7.47414228558651916E-01 -7.50704561026612760E-01 -7.53820783220134127E-01
 -7.56753492482198808E-01 -7.59492960654241878E-01 -7.62029127971931231E-01
 -7.64351597408385430E-01 -7.66449629550900458E-01 -7.68312138106751918E-01
 -7.69927686143517920E-01 -7.71284483180272318E-01 -7.72370383257425686E-01
 -7.73172884125484683E-01 -7.73679127705389491E-01 -7.73875901987421844E-01
 -7.73749644550062232E-01 -7.73286447895061180E-01 -7.72472066810775293E-01
 -7.71291927992076576E-01 -7.69731142161696802E-01 -7.67774518954882690E-01
 -7.65406584846273552E-01 -7.62611604414845656E-01 -7.59373605259536788E-01
 -7.55676406894218999E-01 -7.51503653965969298E-01 -7.46838854154532550E-01
 -7.41665421123158586E-01 -7.35966722901147063E-01 -7.29726136085870225E-01
 -7.22927106256117225E-01 -7.15553214988777331E-01 -7.07588253866241690E-01
 -6.99016305851798747E-01 -6.89821834393619326E-01 -6.79989780594016380E-01
 -6.69505668748214156E-01 -6.58355720515124587E-01 -6.46526977931192293E-01
 -6.34007435408858622E-01 -6.20786180789553388E-01 -6.06853545428327923E-01
 -5.92201263178377180E-01 -5.76822638020713652E-01 -5.60712719942525917E-01
 -5.43868488507665004E-01 -5.26289043382649258E-01 -5.07975800881499628E-01
 -4.88932695371947723E-01 -4.69166384143860027E-01 -4.48686454078775054E-01
 -4.27505628177453467E-01 -4.05639969701928393E-01 -3.83109081371310223E-01
 -3.59936296719186255E-01 -3.36148860377905201E-01 -3.11778093705911974E-01
 -2.86859541823238307E-01 -2.61433097773628664E-01 -2.35543099197058514E-01
 -2.09238392581696880E-01 -1.82572359879989154E-01 -1.55602902030572754E-01
 -1.28392373738595966E-01 -1.01007463745467166E-01 -7.35190147913712400E-02
 -4.60017775379469654E-02 -1.85340929103473863E-02  8.80250234257233879E-03
  3.59237515624712678E-02  6.27432395563384676E-02  8.91730424841958857E-02
  1.15124468118540518E-01  1.40508886845576247E-01  1.65238651956425286E-01
  1.89228105580442035E-01  2.12394663999668581E-01  2.34659973008792322E-01
  2.55951120404277810E-01  2.76201888557079445E-01  2.95354025308821877E-01
  3.13358506104118306E-01  3.30176754321617083E-01  3.45781780207935485E-01
  3.60159191703681214E-01  3.73308022882825719E-01  3.85241317880228307E-01
  3.95986400326054089E-01  4.05584750831685104E-01  4.14091408528913740E-01
  4.21573807748668039E-01  4.28109958741795471E-01  4.33785883009882078E-01
  4.38692220904528918E-01  4.42919943701747587E-01  4.46555126627881993E-01
  4.49672776059159507E-01  4.52329756491306745E-01  4.54556934410416391E-01
  4.56350750739378086E-01  4.57664555144841556E-01  4.58400188290467969E-01
  4.58400486111633976E-01  4.57443607019433485E-01  4.55240351700349044E-01
  4.51435958161984563E-01  4.45618213256845030E-01  4.37334126499267284E-01
  4.26117862124919700E-01  4.11533119981985995E-01  3.93233693687218111E-01
  3.71046514140704831E-01  3.45082105969817809E-01  3.15878036442371446E-01
  2.84540369430208995E-01  2.51957978600300947E-01  2.18385108386563553E-01
  1.84060400679963820E-01  1.49237155218912732E-01  1.14181447350519744E-01
  7.91674295004606565E-02  4.44319926804191898E-02  9.49926626030044539E-03
  3.76591617575357566E-04  2.71602254830053556E-05  0.00000000000000000E+00
  0.00000000000000000E+00  0.00000000000000000E+00  0.00000000000000000E+00
  0.00000000000000000E+00  0.00000000000000000E+00  0.00000000000000000E+00
  0.00000000000000000E+00  0.00000000000000000E+00  0.00000000000000000E+00
  0.00000000000000000E+00  0.00000000000000000E+00  0.00000000000000000E+00
  0.00000000000000000E+00  0.00000000000000000E+00  0.00000000000000000E+00
  0.00000000000000000E+00  0.00000000000000000E+00  0.00000000000000000E+00
  0.00000000000000000E+00  0.00000000000000000E+00  0.00000000000000000E+00
  0.00000000000000000E+00  0.00000000000000000E+00  0.00000000000000000E+00
  0.00000000000000000E+00  0.00000000000000000E+00  0.00000000000000000E+00
  0.00000000000000000E+00  0.00000000000000000E+00  0.00000000000000000E+00
  0.00000000000000000E+00  0.00000000000000000E+00  0.00000000000000000E+00
  0.00000000000000000E+00  0.00000000000000000E+00  0.00000000000000000E+00
  0.00000000000000000E+00  0.00000000000000000E+00  0.00000000000000000E+00
  0.00000000000000000E+00  0.00000000000000000E+00  0.00000000000000000E+00
  0.00000000000000000E+00  0.00000000000000000E+00  0.00000000000000000E+00
  0.00000000000000000E+00  0.00000000000000000E+00  0.00000000000000000E+00
  0.00000000000000000E+00  0.00000000000000000E+00  0.00000000000000000E+00
  0.00000000000000000E+00  0.00000000000000000E+00  0.00000000000000000E+00
  0.00000000000000000E+00  0.00000000000000000E+00  0.00000000000000000E+00
  0.00000000000000000E+00  0.00000000000000000E+00  0.00000000000000000E+00
  0.00000000000000000E+00  0.00000000000000000E+00  0.00000000000000000E+00
  0.00000000000000000E+00  0.00000000000000000E+00  0.00000000000000000E+00
  0.00000000000000000E+00  0.00000000000000000E+00  0.00000000000000000E+00
  0.00000000000000000E+00  0.00000000000000000E+00  0.00000000000000000E+00
  0.00000000000000000E+00  0.00000000000000000E+00  0.00000000000000000E+00
  0.00000000000000000E+00  0.00000000000000000E+00  0.00000000000000000E+00
  0.00000000000000000E+00  0.00000000000000000E+00  0.00000000000000000E+00
  0.00000000000000000E+00  0.00000000000000000E+00  0.00000000000000000E+00
  0.00000000000000000E+00  0.00000000000000000E+00  0.00000000000000000E+00
  0.00000000000000000E+00  0.00000000000000000E+00  0.00000000000000000E+00
  0.00000000000000000E+00  0.00000000000000000E+00  0.00000000000000000E+00
  0.00000000000000000E+00  0.00000000000000000E+00  0.00000000000000000E+00
  0.00000000000000000E+00  0.00000000000000000E+00  0.00000000000000000E+00
  0.00000000000000000E+00  0.00000000000000000E+00  0.00000000000000000E+00
  0.00000000000000000E+00  0.00000000000000000E+00  0.00000000000000000E+00
  0.00000000000000000E+00  0.00000000000000000E+00  0.00000000000000000E+00
  0.00000000000000000E+00  0.00000000000000000E+00  0.00000000000000000E+00
  0.00000000000000000E+00  0.00000000000000000E+00  0.00000000000000000E+00
  0.00000000000000000E+00  0.00000000000000000E+00  0.00000000000000000E+00
  0.00000000000000000E+00  0.00000000000000000E+00  0.00000000000000000E+00
  0.00000000000000000E+00  0.00000000000000000E+00  0.00000000000000000E+00
  0.00000000000000000E+00  0.00000000000000000E+00  0.00000000000000000E+00
  0.00000000000000000E+00  0.00000000000000000E+00  0.00000000000000000E+00
  0.00000000000000000E+00  0.00000000000000000E+00  0.00000000000000000E+00
  0.00000000000000000E+00  0.00000000000000000E+00  0.00000000000000000E+00
  0.00000000000000000E+00  0.00000000000000000E+00  0.00000000000000000E+00
  0.00000000000000000E+00  0.00000000000000000E+00  0.00000000000000000E+00
  0.00000000000000000E+00  0.00000000000000000E+00  0.00000000000000000E+00
  0.00000000000000000E+00  0.00000000000000000E+00  0.00000000000000000E+00
  0.00000000000000000E+00  0.00000000000000000E+00  0.00000000000000000E+00
  0.00000000000000000E+00  0.00000000000000000E+00  0.00000000000000000E+00
  0.00000000000000000E+00  0.00000000000000000E+00  0.00000000000000000E+00
  0.00000000000000000E+00  0.00000000000000000E+00  0.00000000000000000E+00
  0.00000000000000000E+00  0.00000000000000000E+00  0.00000000000000000E+00
                              </PP_BETA.2>
 <PP_BETA.3 type="real" size="   999" angular_momentum="1" columns="3" cutoff_radius_index="   836" norm_conserving_radius="    1.903803" label= "3P">
  4.26653746265711743E-08  4.37454537587333900E-08  4.48528750619141590E-08
  4.59883307416936409E-08  4.71525306082913190E-08  4.83462024484321329E-08
  4.95700924424927209E-08  5.08249655098983351E-08  5.21116058900077265E-08
  5.34308176727910256E-08  5.47834253714945569E-08  5.61702744505338144E-08
  5.75922317836496452E-08  5.90501861689955757E-08  6.05450488323941856E-08
  6.20777540504329400E-08  6.36492597660321158E-08  6.52605483021365524E-08
  6.69126269121693226E-08  6.86065283388439718E-08  7.03433112586726123E-08
  7.21240609951188146E-08  7.39498903461360915E-08  7.58219404897607066E-08
  7.77413816706858097E-08  7.97094137666160812E-08  8.17272669680510722E-08
  8.37962025611677015E-08  8.59175137449239683E-08  8.80925262922344082E-08
  9.03225994446223199E-08  9.26091268879820266E-08  9.49535377980068183E-08
  9.73572975951730025E-08  9.98219088240946226E-08  1.02348912117266481E-07
  1.04939887108608337E-07  1.07596453215461526E-07  1.10320270680860698E-07
  1.13113041814505855E-07  1.15976512208949261E-07  1.18912471692484759E-07
  1.21922755369091785E-07  1.25009244763931434E-07  1.28173869019414652E-07
  1.31418606073485793E-07  1.34745483929203413E-07  1.38156581975113646E-07
  1.41654032270646180E-07  1.45240020884819023E-07  1.48916789282488173E-07
  1.52686635663530507E-07  1.56551916353849811E-07  1.60515047286042593E-07
  1.64578505325635449E-07  1.68744829972061980E-07  1.73016625433484552E-07
  1.77396562127018873E-07  1.81887377723009123E-07  1.86491878840951761E-07
  1.91212943298128715E-07  1.96053521976610326E-07  2.01016640436671184E-07
  2.06105400775759413E-07  2.11322983671933671E-07  2.16672650404908773E-07
  2.22157744709005985E-07  2.27781694802820444E-07  2.33548015735050211E-07
  2.39460311619078294E-07  2.45522277991905484E-07  2.51737704077983503E-07
  2.58110474493703316E-07  2.64644571932271121E-07  2.71344080771030345E-07
  2.78213188999612934E-07  2.85256189869093650E-07  2.92477485109649968E-07
  2.99881587884423095E-07  3.07473125991086246E-07  3.15256844796381084E-07
  3.23237609559357249E-07  3.31420408526112688E-07  3.39810356093008815E-07
  3.48412696093090423E-07  3.57232805138900632E-07  3.66276196338917351E-07
  3.75548522479690041E-07  3.85055579055960805E-07  3.94803307894090333E-07
  4.04797801037706931E-07  4.15045305493631072E-07  4.25552226864256380E-07
  4.36325133004894650E-07  4.47370756521870079E-07  4.58696000664519893E-07
  4.70307945039661885E-07  4.82213847382323839E-07  4.94421148752460804E-07
  5.06937479104371055E-07  5.19770662265461258E-07  5.32928719267150387E-07
  5.46419873130441546E-07  5.60252557608372324E-07  5.74435418752240222E-07
  5.88977320162359583E-07  6.03887351407844686E-07  6.19174832589169235E-07
  6.34849318474203889E-07  6.50920604764325979E-07  6.67398738137826483E-07
  6.84294017211155105E-07  7.01617001672264671E-07  7.19378520711321916E-07
  7.37589674477409538E-07  7.56261845455296349E-07  7.75406704655306816E-07
  7.95036218341350039E-07  8.15162656278751133E-07  8.35798596663800658E-07
  8.56956938218813467E-07  8.78650905832788974E-07  9.00894058489219620E-07
  9.23700300222265332E-07  9.47083883413922222E-07  9.71059425050475322E-07
  9.95641911352687933E-07  1.02084670598403687E-06  1.04668956207729526E-06
  1.07318663303149274E-06  1.10035448196677506E-06  1.12821008728221879E-06
  1.15677086049159510E-06  1.18605465315369466E-06  1.21607976826593126E-06
  1.24686497298151835E-06  1.27842950922430990E-06  1.31079310511438618E-06
  1.34397598844932906E-06  1.37799890153380177E-06  1.41288310826509461E-06
  1.44865041254117285E-06  1.48532317085855702E-06  1.52292430395485434E-06
  1.56147731517921563E-06  1.60100629927050408E-06  1.64153596407925019E-06
  1.68309164295745808E-06  1.72569930887891069E-06  1.76938559203637539E-06
  1.81417779902491819E-06  1.86010392606791387E-06  1.90719267830146161E-06
  1.95547348797451122E-06  2.00497653242138266E-06  2.05573275174903714E-06
  2.10777387072326305E-06  2.16113241633742596E-06  2.21584174050132686E-06
  2.27193603664399922E-06  2.32945036686536152E-06  2.38842068010471564E-06
  2.44888383347027701E-06  2.51087761675652502E-06  2.57444078236325664E-06
  2.63961305647240471E-06  2.70643517291590069E-06  2.77494889988791958E-06
  2.84519705917472586E-06  2.91722355956373834E-06  2.99107341805743854E-06
  3.06679279521701728E-06  3.14442901735992212E-06  3.22403060952987452E-06
  3.30564732373322813E-06  3.38933017569247461E-06  3.47513146862776301E-06
  3.56310483074125862E-06  3.65330524939377769E-06  3.74578910166573396E-06
  3.84061419261885830E-06  3.93783979247276058E-06  4.03752666872122109E-06
  4.13973712963887020E-06  4.24453506065793739E-06  4.35198596349590562E-06
  4.46215699749076411E-06  4.57511702362000531E-06  4.69093664639016837E-06
  4.80968825512643337E-06  4.93144607370026974E-06  5.05628620676108231E-06
  5.18428668100392508E-06  5.31552750191034431E-06  5.45009069957096284E-06
  5.58806037820011743E-06  5.72952277558086648E-06  5.87456630948733968E-06
  6.02328163526874744E-06  6.17576170720088183E-06  6.33210182989745478E-06
  6.49239971798395033E-06  6.65675556688787213E-06  6.82527210064087160E-06
  6.99805464977166744E-06  7.17521120772565400E-06  7.35685250287369891E-06
  7.54309206822934969E-06  7.73404630747062711E-06  7.92983457419278060E-06
  8.13057924292010691E-06  8.33640578389401261E-06  8.54744284606418254E-06
  8.76382233393025846E-06  8.98567949098393733E-06  9.21315298638985758E-06
  9.44638499730159750E-06  9.68552130122418245E-06  9.93071136614893592E-06
  1.01821084431300438E-05  1.04398696632768201E-05  1.07041561355411174E-05
  1.09751330468277909E-05  1.12529697665389615E-05  1.15378399526485519E-05
  1.18299216562471776E-05  1.21293974376837887E-05  1.24364544784433325E-05
  1.27512847004384194E-05  1.30740848802013568E-05  1.34050567785008662E-05
  1.37444072640427609E-05  1.40923484402808212E-05  1.44490977823908778E-05
  1.48148782681469676E-05  1.51899185227032907E-05  1.55744529583245588E-05
  1.59687219192868965E-05  1.63729718362757216E-05  1.67874553794307449E-05
  1.72124316110156694E-05  1.76481661580391890E-05  1.80949313640529548E-05
  1.85530064720113289E-05  1.90226777938380318E-05  1.95042388872230065E-05
  1.99979907440734633E-05  2.05042419725000903E-05  2.10233089953682582E-05
  2.15555162460290757E-05  2.21011963678395751E-05  2.26606904306406177E-05
  2.32343481328004175E-05  2.38225280270035468E-05  2.44255977444022651E-05
  2.50439342221687856E-05  2.56779239364011199E-05  2.63279631532634745E-05
  2.69944581633871995E-05  2.76778255466707879E-05  2.83784924277130315E-05
  2.90968967447602122E-05  2.98334875207737921E-05  3.05887251466729391E-05
  3.13630816674384549E-05  3.21570410791839766E-05  3.29710996287147561E-05
  3.38057661263312993E-05  3.46615622638826688E-05  3.55390229366652960E-05
  3.64386965822437357E-05  3.73611455242972942E-05  3.83069463181854973E-05
  3.92766901158505755E-05  4.02709830355677686E-05  4.12904465373630951E-05
  4.23357178142823998E-05  4.34074501909464516E-05  4.45063135277175859E-05
  4.56329946474587426E-05  4.67881977531314834E-05  4.79726448810667403E-05
  4.91870763409824470E-05  5.04322511862819668E-05  5.17089476840967450E-05
  5.30179638048223936E-05  5.43601177169081355E-05  5.57362483025501684E-05
  5.71472156797334251E-05  5.85939017395819772E-05  6.00772106990717298E-05
  6.15980696641332831E-05  6.31574292082450953E-05  6.47562639753536216E-05
  6.63955732737056098E-05  6.80763817135248328E-05  6.97997398426184032E-05
  7.15667248020587430E-05  7.33784409995905654E-05  7.52360208030591546E-05
  7.71406252442138896E-05  7.90934447457758752E-05  8.10956998650797574E-05
  8.31486420607456051E-05  8.52535544674412041E-05  8.74117527046852362E-05
  8.96245856934512521E-05  9.18934365052749823E-05  9.42197232230410390E-05
  9.66048998241176681E-05  9.90504570978507763E-05  1.01557923568857544E-04
  1.04128866455933480E-04  1.06764892652957529E-04  1.09467649728745822E-04
  1.12238826961884921E-04  1.15080156393757363E-04  1.17993413908452116E-04
  1.20980420349465221E-04  1.24043042652718927E-04  1.27183195013296071E-04
  1.30402840081506369E-04  1.33703990195047366E-04  1.37088708628473527E-04
  1.40559110890963601E-04  1.44117366038604161E-04  1.47765698039952886E-04
  1.51506387160718777E-04  1.55341771388598562E-04  1.59274247896356837E-04
  1.63306274537747622E-04  1.67440371386795675E-04  1.71679122311564923E-04
  1.76025176583634524E-04  1.80481250545156882E-04  1.85050129293907800E-04
  1.89734668432837858E-04  1.94537795850908962E-04  1.99462513552305223E-04
  2.04511899536997618E-04  2.09689109714733275E-04  2.14997379890182356E-04
  2.20440027774854652E-04  2.26020455065645547E-04  2.31742149566086707E-04
  2.37608687373829587E-04  2.43623735106530709E-04  2.49791052198092495E-04
  2.56114493249689785E-04  2.62598010434545543E-04  2.69245655965939432E-04
  2.76061584637153331E-04  2.83050056414042351E-04  2.90215439092716097E-04
  2.97562211035655498E-04  3.05094963966717650E-04  3.12818405841188861E-04
  3.20737363787261683E-04  3.28856787124240119E-04  3.37181750451856672E-04
  3.45717456826815251E-04  3.54469241008935245E-04  3.63442572793926772E-04
  3.72643060439666160E-04  3.82076454159715280E-04  3.91748649724654589E-04
  4.01665692140843768E-04  4.11833779432372660E-04  4.22259266508891098E-04
  4.32948669140487596E-04  4.43908668026500618E-04  4.55146112973030476E-04
  4.66668027167097780E-04  4.78481611571496030E-04  4.90594249418834232E-04
  5.03013510831083234E-04  5.15747157537796278E-04  5.28803147743087186E-04
  5.42189641079555431E-04  5.55915003718494079E-04  5.69987813594471839E-04
  5.84416865760394510E-04  5.99211177887167120E-04  6.14379995897890163E-04
  6.29932799738502241E-04  6.45879309307430282E-04  6.62229490523061587E-04
  6.78993561553731381E-04  6.96181999198584151E-04  7.13805545432341301E-04
  7.31875214117687551E-04  7.50402297886698113E-04  7.69398375190999385E-04
  7.88875317539757914E-04  8.08845296913238555E-04  8.29320793365236281E-04
  8.50314602818866890E-04  8.71839845066465168E-04  8.93909971954141218E-04
  9.16538775789348613E-04  9.39740397958408738E-04  9.63529337755752589E-04
  9.87920461442177858E-04  1.01292901152799978E-03  1.03857061629597709E-03
  1.06486129956254389E-03  1.09181749067939721E-03  1.11945603480487427E-03
  1.14779420341478843E-03  1.17684970509419223E-03  1.20664069659563332E-03
  1.23718579417620485E-03  1.26850408522506740E-03  1.30061514018204563E-03
  1.33353902475923363E-03  1.36729631246904201E-03  1.40190809747347514E-03
  1.43739600775174333E-03  1.47378221860989395E-03  1.51108946652035682E-03
  1.54934106332511694E-03  1.58856091078199359E-03  1.62877351549232182E-03
  1.67000400420174800E-03  1.71227813948170312E-03  1.75562233581644982E-03
  1.80006367608968572E-03  1.84562992849276976E-03  1.89234956385732128E-03
  1.94025177342341867E-03  1.98936648706254634E-03  2.03972439196152848E-03
  2.09135695176712166E-03  2.14429642622984565E-03  2.19857589133027774E-03
  2.25422925992885400E-03  2.31129130291771656E-03  2.36979767092596223E-03
  2.42978491656089439E-03  2.49129051721506001E-03  2.55435289845305433E-03
  2.61901145797776951E-03  2.68530659021748008E-03  2.75327971151475680E-03
  2.82297328597572953E-03  2.89443085194546245E-03  2.96769704917006997E-03
  3.04281764663820236E-03  3.11983957112722419E-03  3.19881093646662154E-03
  3.27978107353745722E-03  3.36280056104597703E-03  3.44792125704613140E-03
  3.53519633128091633E-03  3.62468029832933728E-03  3.71642905158868844E-03
  3.81049989812140858E-03  3.90695159437177107E-03  4.00584438278656085E-03
  4.10724002936487757E-03  4.21120186214531816E-03  4.31779481067011937E-03
  4.42708544644347321E-03  4.53914202440465226E-03  4.65403452545315455E-03
  4.77183470004040496E-03  4.89261611286280745E-03  5.01645418868055127E-03
  5.14342625928657614E-03  5.27361161166811209E-03  5.40709153736603117E-03
  5.54394938309397435E-03  5.68427060261839784E-03  5.82814280995591801E-03
  5.97565583389596516E-03  6.12690177391173475E-03  6.28197505746498457E-03
  6.44097249875632671E-03  6.60399335895751199E-03  6.77113940795410693E-03
  6.94251498764041682E-03  7.11822707681039266E-03  7.29838535767260519E-03
  7.48310228404089860E-03  7.67249315124430686E-03  7.86667616777741822E-03
  8.06577252876873943E-03  8.26990649128030511E-03  8.47920545150239284E-03
  8.69380002389192642E-03  8.91382412228082337E-03  9.13941504303957507E-03
  9.37071355030939974E-03  9.60786396338270468E-03  9.85101424626896004E-03
  1.01003160995051522E-02  1.03559250542701754E-02  1.06180005688534876E-02
  1.08867061275417266E-02  1.11622093419776469E-02  1.14446820550569879E-02
  1.17343004474326374E-02  1.20312451466637067E-02  1.23357013391189665E-02
  1.26478588846493951E-02  1.29679124341502763E-02  1.32960615500435694E-02
  1.36325108297785710E-02  1.39774700324024753E-02  1.43311542083040724E-02
  1.46937838321814906E-02  1.50655849393220350E-02  1.54467892652917511E-02
  1.58376343890913943E-02  1.62383638798742694E-02  1.66492274473299430E-02
  1.70704810957869914E-02  1.75023872821642688E-02  1.79452150778312211E-02
  1.83992403345027387E-02  1.88647458542352403E-02  1.93420215636458739E-02
  1.98313646924569847E-02  2.03330799564462282E-02  2.08474797449452326E-02
  2.13748843129629752E-02  2.19156219780616626E-02  2.24700293221030099E-02
  2.30384513979677956E-02  2.36212419413830838E-02  2.42187635879556815E-02
  2.48313880955737740E-02  2.54594965722680575E-02  2.61034797096717959E-02
  2.67637380222327179E-02  2.74406820922812912E-02  2.81347328211213228E-02
  2.88463216862632835E-02  2.95758910049594460E-02  3.03238942041824666E-02
  3.10907960971905407E-02  3.18770731668556878E-02  3.26832138558820900E-02
  3.35097188640932561E-02  3.43571014529527249E-02  3.52258877574709028E-02
  3.61166171056787125E-02  3.70298423458410089E-02  3.79661301815728200E-02
  3.89260615150603326E-02  3.99102317985476698E-02  4.09192513942862185E-02
  4.19537459431382279E-02  4.30143567420244594E-02  4.41017411304015852E-02
  4.52165728859902777E-02  4.63595426299441699E-02  4.75313582416621166E-02
  4.87327452834603325E-02  4.99644474353223150E-02  5.12272269399254923E-02
  5.25218650581793581E-02  5.38491625355007469E-02  5.52099400790207820E-02
  5.66050388460013626E-02  5.80353209436444140E-02  5.95016699405598662E-02
  6.10049913901146434E-02  6.25462133659027142E-02  6.41262870095843929E-02
  6.57461870913278457E-02  6.74069125831090743E-02  6.91094872451147590E-02
  7.08549602254844035E-02  7.26444066736664784E-02  7.44789283676142583E-02
  7.63596543550890544E-02  7.82877416093212541E-02  8.02643756992688362E-02
  8.22907714747446034E-02  8.43681737666505949E-02  8.64978581025607624E-02
  8.86811314379224030E-02  9.09193329031076358E-02  9.32138345665419615E-02
  9.55660422141888372E-02  9.79773961455761011E-02  1.00449371986627942E-01
  1.02983481519507175E-01  1.05581273529696179E-01  1.08244334670498238E-01
  1.10974290345196833E-01  1.13772805607020078E-01  1.16641586077114973E-01
  1.19582378880689233E-01  1.22596973601451997E-01  1.25687203254516155E-01
  1.28854945277858041E-01  1.32102122542434836E-01  1.35430704381040989E-01
  1.38842707635951801E-01  1.42340197725385864E-01  1.45925289728772695E-01
  1.49600149490817652E-01  1.53366994744275342E-01  1.57228096251346067E-01
  1.61185778963558568E-01  1.65242423199939398E-01  1.69400465843269732E-01
  1.73662401554116358E-01  1.78030784002343706E-01  1.82508227115682847E-01
  1.87097406344926553E-01  1.91801059945218955E-01  1.96621990272850211E-01
  2.01563065096875521E-01  2.06627218924812811E-01  2.11817454341543615E-01
  2.17136843360494186E-01  2.22588528786019563E-01  2.28175725585833350E-01
  2.33901722272180396E-01  2.39769882290330610E-01  2.45783645412828128E-01
  2.51946529137781094E-01  2.58262130089288777E-01  2.64734125418002009E-01
  2.71366274199502655E-01  2.78162418828131641E-01  2.85126486403563473E-01
  2.92262490107262851E-01  2.99574530565696495E-01  3.07066797196907659E-01
  3.14743569536779622E-01  3.22609218541046738E-01  3.30668207858734908E-01
  3.38925095072449223E-01  3.47384532900493148E-01  3.56051270355477845E-01
  3.64930153853623096E-01  3.74026128268555080E-01  3.83344237922903064E-01
  3.92889627510522310E-01  4.02667542941672785E-01  4.12683332102869671E-01
  4.22942445522552890E-01  4.33450436933102978E-01  4.44212963719035403E-01
  4.55235787240529599E-01  4.66524773020664585E-01  4.78085890783949696E-01
  4.89925214332905201E-01  5.02048921248516522E-01  5.14463292399495842E-01
  5.27174711244232763E-01  5.40189662908290180E-01  5.53514733019185079E-01
  5.67156606279003217E-01  5.81122064754181711E-01  5.95417985860459686E-01
  6.10051340019662214E-01  6.25029187963509480E-01  6.40358677658125486E-01
  6.56047040821376215E-01  6.72101589003437971E-01  6.88529709199301676E-01
  7.05338858960075643E-01  7.22536560968030095E-01  7.40130397038376575E-01
  7.58128001508644456E-01  7.76537053974385105E-01  7.95365271327903911E-01
  8.14620399054023503E-01  8.34310201734740686E-01  8.54442452712097067E-01
  8.75024922856057152E-01  8.96065368381546712E-01  9.17571517656142643E-01
  9.39551056937130591E-01  9.62011614973904416E-01  9.84960746408781396E-01
  1.00840591390650314E+00  1.03235446893977456E+00  1.05681363115530447E+00
  1.08179046624197217E+00  1.10729186221986908E+00  1.13332450406620389E+00
  1.15989484659137032E+00  1.18700908547585660E+00  1.21467312637627622E+00
  1.24289255200648374E+00  1.27167258709776232E+00  1.30101806114020468E+00
  1.33093336880603452E+00  1.36142242795446622E+00  1.39248863511706111E+00
  1.42413481836221756E+00  1.45636318743807069E+00  1.48917528109467234E+00
  1.52257191148682480E+00  1.55655310556245685E+00  1.59111804334489437E+00
  1.62626499302199790E+00  1.66199124276091714E+00  1.69829302917434544E+00
  1.73516546237270375E+00  1.77260244754684781E+00  1.81059660303775560E+00
  1.84913917486349244E+00  1.88821994768963375E+00  1.92782715224750234E+00
  1.96794736922523161E+00  2.00856542967999641E+00  2.04966431204592547E+00
  2.09122503584156139E+00  2.13322655221329516E+00  2.17564563148741863E+00
  2.21845674794330483E+00  2.26163196206421180E+00  2.30514080057022763E+00
  2.34895013459048130E+00  2.39302405638885096E+00  2.43732375511930410E+00
  2.48180739215392654E+00  2.52642997659923996E+00  2.57114324169236275E+00
  2.61589552285162474E+00  2.66063163824400917E+00  2.70529277282462122E+00
  2.74981636690118769E+00  2.79413601037953008E+00  2.83818134395333788E+00
  2.88187796861319567E+00  2.92514736496523486E+00  2.96790682396808503E+00
  3.01006939081760061E+00  3.05154382383086986E+00  3.09223457030320859E+00
  3.13204176143323743E+00  3.17086122852964714E+00  3.20858454282770866E+00
  3.24509908135165626E+00  3.28028812135880665E+00  3.31403096599000513E+00
  3.34620310382623254E+00  3.37667640510978018E+00  3.40531935742725045E+00
  3.43199734366716447E+00  3.45657296505458245E+00  3.47890641202853024E+00
  3.49885588562452776E+00  3.51627807193524422E+00  3.53102867205752791E+00
  3.54296298971573131E+00  3.55193657849223055E+00  3.55780595027630930E+00
  3.56042934616101148E+00  3.55966757057035421E+00  3.55538488888273108E+00
  3.54744998822754720E+00  3.53573700046831441E+00  3.52012658564523040E+00
  3.50050707333298927E+00  3.47677565847526404E+00  3.44883964728822345E+00
  3.41661774778401073E+00  3.38004139835645390E+00  3.33905612670135765E+00
  3.29362293012038698E+00  3.24371966699098468E+00  3.18934244788577947E+00
  3.13050701350716265E+00  3.06725008528081355E+00  2.99963067314152765E+00
  2.92773132377010414E+00  2.85165929129943141E+00  2.77154761128895677E+00
  2.68755605778264339E+00  2.59987196221131134E+00  2.50871087202940046E+00
  2.41431702623432276E+00  2.31696362430620262E+00  2.21695286463908348E+00
  2.11461572821490318E+00  2.01031148309825225E+00  1.90442688529873450E+00
  1.79737505165265854E+00  1.68959398060898125E+00  1.58154469716038082E+00
  1.47370899863786753E+00  1.36658677869476675E+00  1.26069290756743402E+00
  1.15655364766160007E+00  1.05470258475293677E+00  9.55676056728059109E-01
  8.60008064000081007E-01  7.68224648750771344E-01  6.80837734297630837E-01
  5.98338421570470569E-01  5.21189747423023042E-01  4.49818919847254972E-01
  3.84609059317760682E-01  3.25890493635554113E-01  2.73931676949631719E-01
  2.28929834021571993E-01  1.91001468546610681E-01  1.60172921193416751E-01
  1.36371220245970426E-01  1.19415536641007625E-01  1.09009637046409202E-01
  1.04735824551352302E-01  1.06050967504878579E-01  1.12285343822094444E-01
  1.22645171279055942E-01  1.36219854439746074E-01  1.51995156463392456E-01
  1.68873700019862516E-01  1.85704417528544913E-01  2.01322809852460760E-01
  2.14604139309772540E-01  2.24531984964208564E-01  2.30284936415477537E-01
  2.31344610800090722E-01  2.27628662656062825E-01  2.19653029758769575E-01
  2.08666545422202199E-01  1.95412897445600975E-01  1.79600879944096875E-01
  1.60893680731498789E-01  1.38961496501778525E-01  1.13485574157532743E-01
  8.41592843890045100E-02  5.06361488561829498E-02  1.16363552252372517E-02
  4.64876189141029091E-04  3.35274114703948653E-05  0.00000000000000000E+00
  0.00000000000000000E+00  0.00000000000000000E+00  0.00000000000000000E+00
  0.00000000000000000E+00  0.00000000000000000E+00  0.00000000000000000E+00
  0.00000000000000000E+00  0.00000000000000000E+00  0.00000000000000000E+00
  0.00000000000000000E+00  0.00000000000000000E+00  0.00000000000000000E+00
  0.00000000000000000E+00  0.00000000000000000E+00  0.00000000000000000E+00
  0.00000000000000000E+00  0.00000000000000000E+00  0.00000000000000000E+00
  0.00000000000000000E+00  0.00000000000000000E+00  0.00000000000000000E+00
  0.00000000000000000E+00  0.00000000000000000E+00  0.00000000000000000E+00
  0.00000000000000000E+00  0.00000000000000000E+00  0.00000000000000000E+00
  0.00000000000000000E+00  0.00000000000000000E+00  0.00000000000000000E+00
  0.00000000000000000E+00  0.00000000000000000E+00  0.00000000000000000E+00
  0.00000000000000000E+00  0.00000000000000000E+00  0.00000000000000000E+00
  0.00000000000000000E+00  0.00000000000000000E+00  0.00000000000000000E+00
  0.00000000000000000E+00  0.00000000000000000E+00  0.00000000000000000E+00
  0.00000000000000000E+00  0.00000000000000000E+00  0.00000000000000000E+00
  0.00000000000000000E+00  0.00000000000000000E+00  0.00000000000000000E+00
  0.00000000000000000E+00  0.00000000000000000E+00  0.00000000000000000E+00
  0.00000000000000000E+00  0.00000000000000000E+00  0.00000000000000000E+00
  0.00000000000000000E+00  0.00000000000000000E+00  0.00000000000000000E+00
  0.00000000000000000E+00  0.00000000000000000E+00  0.00000000000000000E+00
  0.00000000000000000E+00  0.00000000000000000E+00  0.00000000000000000E+00
  0.00000000000000000E+00  0.00000000000000000E+00  0.00000000000000000E+00
  0.00000000000000000E+00  0.00000000000000000E+00  0.00000000000000000E+00
  0.00000000000000000E+00  0.00000000000000000E+00  0.00000000000000000E+00
  0.00000000000000000E+00  0.00000000000000000E+00  0.00000000000000000E+00
  0.00000000000000000E+00  0.00000000000000000E+00  0.00000000000000000E+00
  0.00000000000000000E+00  0.00000000000000000E+00  0.00000000000000000E+00
  0.00000000000000000E+00  0.00000000000000000E+00  0.00000000000000000E+00
  0.00000000000000000E+00  0.00000000000000000E+00  0.00000000000000000E+00
  0.00000000000000000E+00  0.00000000000000000E+00  0.00000000000000000E+00
  0.00000000000000000E+00  0.00000000000000000E+00  0.00000000000000000E+00
  0.00000000000000000E+00  0.00000000000000000E+00  0.00000000000000000E+00
  0.00000000000000000E+00  0.00000000000000000E+00  0.00000000000000000E+00
  0.00000000000000000E+00  0.00000000000000000E+00  0.00000000000000000E+00
  0.00000000000000000E+00  0.00000000000000000E+00  0.00000000000000000E+00
  0.00000000000000000E+00  0.00000000000000000E+00  0.00000000000000000E+00
  0.00000000000000000E+00  0.00000000000000000E+00  0.00000000000000000E+00
  0.00000000000000000E+00  0.00000000000000000E+00  0.00000000000000000E+00
  0.00000000000000000E+00  0.00000000000000000E+00  0.00000000000000000E+00
  0.00000000000000000E+00  0.00000000000000000E+00  0.00000000000000000E+00
  0.00000000000000000E+00  0.00000000000000000E+00  0.00000000000000000E+00
  0.00000000000000000E+00  0.00000000000000000E+00  0.00000000000000000E+00
  0.00000000000000000E+00  0.00000000000000000E+00  0.00000000000000000E+00
  0.00000000000000000E+00  0.00000000000000000E+00  0.00000000000000000E+00
  0.00000000000000000E+00  0.00000000000000000E+00  0.00000000000000000E+00
  0.00000000000000000E+00  0.00000000000000000E+00  0.00000000000000000E+00
  0.00000000000000000E+00  0.00000000000000000E+00  0.00000000000000000E+00
  0.00000000000000000E+00  0.00000000000000000E+00  0.00000000000000000E+00
  0.00000000000000000E+00  0.00000000000000000E+00  0.00000000000000000E+00
  0.00000000000000000E+00  0.00000000000000000E+00  0.00000000000000000E+00
  0.00000000000000000E+00  0.00000000000000000E+00  0.00000000000000000E+00
  0.00000000000000000E+00  0.00000000000000000E+00  0.00000000000000000E+00
  0.00000000000000000E+00  0.00000000000000000E+00  0.00000000000000000E+00
  0.00000000000000000E+00  0.00000000000000000E+00  0.00000000000000000E+00
                              </PP_BETA.3>
 <PP_BETA.4 type="real" size="   999" angular_momentum="1" columns="3" cutoff_radius_index="   836" norm_conserving_radius="    1.903803" label= "0P">
  1.21864937876415223E-08  1.24949963791378060E-08  1.28113100158902315E-08
  1.31356320357985119E-08  1.34681641511985041E-08  1.38091131165179261E-08
  1.41586912380926139E-08  1.45171177379801911E-08  1.48846178462473086E-08
  1.52614225222460606E-08  1.56477676716009599E-08  1.60438941273371138E-08
  1.64500487297025957E-08  1.68664847054244231E-08  1.72934622259850681E-08
  1.77312481576524371E-08  1.81801161294770347E-08  1.86403467460504382E-08
  1.91122277400515699E-08  1.95960541580295932E-08  2.00921288404658313E-08
  2.06007625366138750E-08  2.11222738478700671E-08  2.16569886248271342E-08
  2.22052402729008301E-08  2.27673706083993974E-08  2.33437305171799182E-08
  2.39346800838089896E-08  2.45405885728670721E-08  2.51618351588841615E-08
  2.57988089382416833E-08  2.64519087500522819E-08  2.71215428613556118E-08
  2.78081296685499015E-08  2.85120978262119132E-08  2.92338861557616255E-08
  2.99739445646093221E-08  3.07327360836013477E-08  3.15107369046304121E-08
  3.23084347621448206E-08  3.31263273627441989E-08  3.39649244405707895E-08
  3.48247496862437652E-08  3.57063411213264600E-08  3.66102504261276795E-08
  3.75370431558173398E-08  3.84872990799985546E-08  3.94616114899380557E-08
  4.04605879404399338E-08  4.14848522787799931E-08  4.25350456174574728E-08
  4.36118251580400632E-08  4.47158637530890732E-08  4.58478511255209821E-08
  4.70084948255990417E-08  4.81985204584037684E-08  4.94186718271822057E-08
  5.06697114467179703E-08  5.19524211977038686E-08  5.32676028194256121E-08
  5.46160783219083957E-08  5.59986904939466655E-08  5.74163037354759123E-08
  5.88698047234913927E-08  6.03601016521203974E-08  6.18881242538527215E-08
  6.34548274453372228E-08  6.50611928545997947E-08  6.67082252433090095E-08
  6.83969524519057737E-08  7.01284291941043220E-08  7.19037379909880284E-08
  7.37239904018741158E-08  7.55903263522901566E-08  7.75039079923905877E-08
  7.94659261075984509E-08  8.14776110839018710E-08  8.35402250936557724E-08
  8.56550580342065061E-08  8.78234292591880579E-08  9.00466892494651880E-08
  9.23262297853647525E-08  9.46634798862563920E-08  9.70598972731067095E-08
  9.95169787359696067E-08  1.02036264246546098E-07  1.04619327278197807E-07
  1.07267778608381328E-07  1.09983273137411122E-07  1.12767510672126352E-07
  1.15622235369819396E-07  1.18549228594620456E-07  1.21550316151461596E-07
  1.24627373754745847E-07  1.27782330447543442E-07  1.31017159753315881E-07
  1.34333873748947835E-07  1.37734548637613326E-07  1.41221315838295189E-07
  1.44796352537390552E-07  1.48461891432803605E-07  1.52220223223092766E-07
  1.56073697318031395E-07  1.60024719905110362E-07  1.64075761827103294E-07
  1.68229359399679612E-07  1.72488108593907657E-07  1.76854664587307688E-07
  1.81331756056942121E-07  1.85922190398485714E-07  1.90628834911464586E-07
  1.95454628616930200E-07  2.00402586668593577E-07  2.05475801305257359E-07
  2.10677443322502918E-07  2.16010766914536218E-07  2.21479105875340237E-07
  2.27085874209122845E-07  2.32834575251604996E-07  2.38728809097812177E-07
  2.44772259406222314E-07  2.50968699466705012E-07  2.57322000611334945E-07
  2.63836134446126500E-07  2.70515179512336294E-07  2.77363305682564416E-07
  2.84384786867029390E-07  2.91584018075888578E-07  2.98965505647645715E-07
  3.06533853046750746E-07  3.14293789142783468E-07  3.22250173521016540E-07
  3.30407979007614065E-07  3.38772293718722982E-07  3.47348350422050889E-07
  3.56141514420137763E-07  3.65157277176476182E-07  3.74401279117626352E-07
  3.83879293365036786E-07  3.93597236402981705E-07  4.03561201479627123E-07
  4.13777399987453995E-07  4.24252215882891073E-07  4.34992212489403391E-07
  4.46004087051929366E-07  4.57294736040490148E-07  4.68871208981603802E-07
  4.80740734028546246E-07  4.92910739579602059E-07  5.05388829418671116E-07
  5.18182808160287506E-07  5.31300665408009818E-07  5.44750600084230237E-07
  5.58541023016603622E-07  5.72680554951677847E-07  5.87178025844987657E-07
  6.02042503050883000E-07  6.17283279531811028E-07  6.32909878205400780E-07
  6.48932061845019431E-07  6.65359853994772189E-07  6.82203508133970252E-07
  6.99473562645964220E-07  7.17180821023521451E-07  7.35336326625318823E-07
  7.53951443808533227E-07  7.73037810378441816E-07  7.92607351866173802E-07
  8.12672292055540837E-07  8.33245179474575311E-07  8.54338877213866305E-07
  8.75966559219132175E-07  8.98141746876979110E-07  9.20878300904290044E-07
  9.44190437637232769E-07  9.68092721690037778E-07  9.92600093109018700E-07
  1.01772787230379165E-06  1.04349176115067013E-06  1.06990786517903054E-06
  1.09699270040777779E-06  1.12476318254517293E-06  1.15323668742572132E-06
  1.18243099214367212E-06  1.21236435603802194E-06  1.24305548704000600E-06
  1.27452357020159637E-06  1.30678826399592950E-06  1.33986974496155838E-06
  1.37378868626367132E-06  1.40856628759676875E-06  1.44422428903433003E-06
  1.48078497393743856E-06  1.51827119619322034E-06  1.55670638448550841E-06
  1.59611456350563658E-06  1.63652035989863819E-06  1.67794903436319762E-06
  1.72042648543314249E-06  1.76397925270136709E-06  1.80863455373237604E-06
  1.85442031539013182E-06  1.90136514120160950E-06  1.94949838932461110E-06
  1.99885012295755058E-06  2.04945120522608278E-06  2.10133325863762972E-06
  2.15452869668691936E-06  2.20907079441083585E-06  2.26499362775921700E-06
  2.32233214336437368E-06  2.38112219398255853E-06  2.44140051685307674E-06
  2.50320478655080458E-06  2.56657363657009615E-06  2.63154667366321698E-06
  2.69816450565546940E-06  2.76646877220135319E-06  2.83650216157932985E-06
  2.90830845043201191E-06  2.98193252118206921E-06  3.05742038541447766E-06
  3.13481923189822680E-06  3.21417743634427820E-06  3.29554458660940611E-06
  3.37897155487024007E-06  3.46451047633921374E-06  3.55221482648478856E-06
  3.64213940686207354E-06  3.73434043466762365E-06  3.82887553061566913E-06
  3.92580379001793015E-06  4.02518578293364408E-06  4.12708363718484682E-06
  4.23156104028888692E-06  4.33868328369352950E-06  4.44851732715334400E-06
  4.56113182803212297E-06  4.67659716036934629E-06  4.79498549820809943E-06
  4.91637084169049242E-06  5.04082904328010499E-06  5.16843790666121722E-06
  5.29927719500390037E-06  5.43342867321864004E-06  5.57097619140124568E-06
  5.71200572316193175E-06  5.85660541549858797E-06  6.00486564233403547E-06
  6.15687907367420782E-06  6.31274072071279775E-06  6.47254800017080750E-06
  6.63640078642456403E-06  6.80440150966679439E-06  6.97665515378285485E-06
  7.15326938566961003E-06  7.33435460762134844E-06  7.52002397506980763E-06
  7.71039355985375579E-06  7.90558233167844430E-06  8.10571229666062544E-06
  8.31090852812355239E-06  8.52129928950815827E-06  8.73701606764215548E-06
  8.95819369615871794E-06  9.18497041268861827E-06  9.41748795273153785E-06
  9.65589165317246126E-06  9.90033050601667068E-06  1.01509572965066519E-05
  1.04079286733474885E-05  1.06714052400281778E-05  1.09415516771881602E-05
  1.12185368314302086E-05  1.15025338112981458E-05  1.17937201350992868E-05
  1.20922777843650874E-05  1.23983933589123210E-05  1.27122581980266151E-05
  1.30340684502641345E-05  1.33640252740005991E-05  1.37023348715733795E-05
  1.40492087033508749E-05  1.44048635673083450E-05  1.47695217366620374E-05
  1.51434111414867570E-05  1.55267654561467673E-05  1.59198242754704850E-05
  1.63228332711974856E-05  1.67360443184759321E-05  1.71597156740389958E-05
  1.75941121382978791E-05  1.80395052105076631E-05  1.84961732471006259E-05
  1.89644016777459050E-05  1.94444831432991198E-05  1.99367176898397884E-05
  2.04414129592052291E-05  2.09588843921286308E-05  2.14894553959825547E-05
  2.20334575767776231E-05  2.25912309358121952E-05  2.31631240751161566E-05
  2.37494944135762748E-05  2.43507084334761435E-05  2.49671418796807233E-05
  2.55991800324950188E-05  2.62472178880584306E-05  2.69116604598404236E-05
  2.75929230326069409E-05  2.82914313541009002E-05  2.90076220028184040E-05
  2.97419425689754381E-05  3.04948519922042785E-05  3.12668208283809886E-05
  3.20583315220344852E-05  3.28698787583853064E-05  3.37019697372619551E-05
  3.45551244776087663E-05  3.54298761770661987E-05  3.63267715296210992E-05
  3.72463710696787162E-05  3.81892495041854090E-05  3.91559961093464290E-05
  4.01472150361831351E-05  4.11635257864975505E-05  4.22055634971266929E-05
  4.32739793949734778E-05  4.43694411820539988E-05  4.54926334773807106E-05
  4.66442582233248936E-05  4.78250351143390593E-05  4.90357020640937305E-05
  5.02770156825833243E-05  5.15497517116792625E-05  5.28547055335961175E-05
  5.41926926534824817E-05  5.55645492260832178E-05  5.69711325722692369E-05
  5.84133216843648939E-05  5.98920178511792837E-05  6.14081451218669082E-05
  6.29626509574810725E-05  6.45565067952642120E-05  6.61907086639436230E-05
  6.78662777815425500E-05  6.95842612336171118E-05  7.13457325858778813E-05
  7.31517925906305155E-05  7.50035698409631395E-05  7.69022215115656039E-05
  7.88489340551084205E-05  8.08449239325516555E-05  8.28914384187189480E-05
  8.49897563342887188E-05  8.71411888601204794E-05  8.93470803702972334E-05
  9.16088092604778651E-05  9.39277887939647807E-05  9.63054680136311256E-05
  9.87433326173211369E-05  1.01242905912161710E-04  1.03805749738540754E-04
  1.06433465468666787E-04  1.09127695001084028E-04  1.11890121761157852E-04
  1.14722471802499850E-04  1.17626514819346918E-04  1.20604065314761167E-04
  1.23656983681489057E-04  1.26787177408761595E-04  1.29996602217737571E-04
  1.33287263354391788E-04  1.36661216772937028E-04  1.40120570444404475E-04
  1.43667485688310444E-04  1.47304178508917186E-04  1.51032920955592495E-04
  1.54856042583653925E-04  1.58775931874075677E-04  1.62795037732235877E-04
  1.66915871025808890E-04  1.71141006140393702E-04  1.75473082589900324E-04
  1.79914806654622858E-04  1.84468953085791329E-04  1.89138366822038826E-04
  1.93925964769122052E-04  1.98834737608075531E-04  2.03867751699231416E-04
  2.09028150929501880E-04  2.14319158732077022E-04  2.19744080064751529E-04
  2.25306303477286067E-04  2.31009303233345697E-04  2.36856641451020633E-04
  2.42851970363383107E-04  2.48999034544876365E-04  2.55301673290906847E-04
  2.61763822988772381E-04  2.68389519563591160E-04  2.75182901014286573E-04
  2.82148209968165870E-04  2.89289796345534628E-04  2.96612120055712251E-04
  3.04119753773756621E-04  3.11817385809791598E-04  3.19709822993505537E-04
  3.27801993701096195E-04  3.36098950903473536E-04  3.44605875323004452E-04
  3.53328078644068284E-04  3.62271006845652790E-04  3.71440243559958885E-04
  3.80841513575551317E-04  3.90480686376273650E-04  4.00363779810285615E-04
  4.10496963825069067E-04  4.20886564311002314E-04  4.31539067032445935E-04
  4.42461121653222494E-04  4.53659545896459087E-04  4.65141329759261426E-04
  4.76913639861461321E-04  4.88983823917007771E-04  5.01359415280086952E-04
  5.14048137639613271E-04  5.27057909809622110E-04  5.40396850658913597E-04
  5.54073284142789896E-04  5.68095744488681114E-04  5.82472981465490913E-04
  5.97213965849616082E-04  6.12327894975568015E-04  6.27824198451869871E-04
  6.43712543981611336E-04  6.60002843414992063E-04  6.76705258854907554E-04
  6.93830208966511510E-04  7.11388375459651623E-04  7.29390709675365790E-04
  7.47848439398348828E-04  7.66773075798495084E-04  7.86176420594029849E-04
  8.06070573292048801E-04  8.26467938769131442E-04  8.47381234888208192E-04
  8.68823500398484164E-04  8.90808102966389524E-04  9.13348747487896040E-04
  9.36459484565790650E-04  9.60154719139600906E-04  9.84449219463072586E-04
  1.00935812616962241E-03  1.03489696166472528E-03  1.06108163969542701E-03
  1.08792847516081103E-03  1.11545419421329832E-03  1.14367594454520185E-03
  1.17261130600467022E-03  1.20227830137588235E-03  1.23269540755184862E-03
  1.26388156685991590E-03  1.29585619877816381E-03  1.32863921185311681E-03
  1.36225101597206252E-03  1.39671253491310235E-03  1.43204521920396841E-03
  1.46827105931830498E-03  1.50541259917659899E-03  1.54349295000021243E-03
  1.58253580449371333E-03  1.62256545137551582E-03  1.66360679027414927E-03
  1.70568534701207768E-03  1.74882728920030097E-03  1.79305944230816541E-03
  1.83840930605493730E-03  1.88490507123095243E-03  1.93257563694951089E-03
  1.98145062827122936E-03  2.03156041433004983E-03  2.08293612683671525E-03
  2.13560967909438067E-03  2.18961378541828160E-03  2.24498198108202167E-03
  2.30174864273436372E-03  2.35994900928085827E-03  2.41961920334658352E-03
  2.48079625316314795E-03  2.54351811510145336E-03  2.60782369664776898E-03
  2.67375288000702444E-03  2.74134654622627859E-03  2.81064659996508193E-03
  2.88169599479919667E-03  2.95453875917010052E-03  3.02922002296107835E-03
  3.10578604468721023E-03  3.18428423938733884E-03  3.26476320714347160E-03
  3.34727276226543836E-03  3.43186396326209406E-03  3.51858914341337137E-03
  3.60750194219111283E-03  3.69865733730557469E-03  3.79211167763101502E-03
  3.88792271680405647E-03  3.98614964774556511E-03  4.08685313783478926E-03
  4.19009536507782606E-03  4.29594005504291884E-03  4.40445251864403017E-03
  4.51569969087448411E-03  4.62975017041849981E-03  4.74667426016115758E-03
  4.86654400870849182E-03  4.98943325280378196E-03  5.11541766076629642E-03
  5.24457477693070911E-03  5.37698406710889355E-03  5.51272696509793030E-03
  5.65188692025922305E-03  5.79454944617509640E-03  5.94080217042777196E-03
  6.09073488551665956E-03  6.24443960092125900E-03  6.40201059633609126E-03
  6.56354447611310048E-03  6.72914022491660421E-03  6.89889926466101533E-03
  7.07292551266261015E-03  7.25132544110018620E-03  7.43420813784049454E-03
  7.62168536850700573E-03  7.81387164002778599E-03  8.01088426545352485E-03
  8.21284343025373634E-03  8.41987226006326965E-03  8.63209688979648879E-03
  8.84964653436982364E-03  9.07265356079654112E-03  9.30125356189567300E-03
  9.53558543154649045E-03  9.77579144148000949E-03  1.00220173196833590E-02
  1.02744123304469616E-02  1.05331293559935077E-02  1.07983249798868711E-02
  1.10701595719620884E-02  1.13487973751011662E-02  1.16344065936979310E-02
  1.19271594837912394E-02  1.22272324450791760E-02  1.25348061146509180E-02
  1.28500654625195044E-02  1.31731998889766787E-02  1.35044033237866241E-02
  1.38438743272267344E-02  1.41918161929421617E-02  1.45484370527446862E-02
  1.49139499832044095E-02  1.52885731141789542E-02  1.56725297392262576E-02
  1.60660484278947850E-02  1.64693631398976394E-02  1.68827133412351692E-02
  1.73063441221266920E-02  1.77405063168980248E-02  1.81854566257086264E-02
  1.86414577381530978E-02  1.91087784587073393E-02  1.95876938339670618E-02
  2.00784852817840684E-02  2.05814407220563239E-02  2.10968547093733985E-02
  2.16250285673056618E-02  2.21662705243735499E-02  2.27208958516589392E-02
  2.32892270019431219E-02  2.38715937503952251E-02  2.44683333366808656E-02
  2.50797906084391613E-02  2.57063181660428658E-02  2.63482765086161842E-02
  2.70060341810408819E-02  2.76799679221004097E-02  2.83704628134152752E-02
  2.90779124291558749E-02  2.98027189863904821E-02  3.05452934959452582E-02
  3.13060559134874863E-02  3.20854352908468837E-02  3.28838699272644697E-02
  3.37018075203612266E-02  3.45397053167366755E-02  3.53980302617871931E-02
  3.62772591486624774E-02  3.71778787659643659E-02  3.81003860440119052E-02
  3.90452881992600712E-02  4.00131028766170169E-02  4.10043582893099626E-02
  4.20195933558796184E-02  4.30593578339320826E-02  4.41242124502414651E-02
  4.52147290266928514E-02  4.63314906016543959E-02  4.74750915461841644E-02
  4.86461376746226415E-02  4.98452463488680900E-02  5.10730465758091751E-02
  5.23301790972342667E-02  5.36172964714734870E-02  5.49350631460952046E-02
  5.62841555208210761E-02  5.76652619998522242E-02  5.90790830327002636E-02
  6.05263311425992961E-02  6.20077309414908684E-02  6.35240191305530694E-02
  6.50759444851202185E-02  6.66642678228470259E-02  6.82897619538586631E-02
  6.99532116115869768E-02  7.16554133628514722E-02  7.33971754957362249E-02
  7.51793178837994874E-02  7.70026718247749653E-02  7.88680798522258947E-02
  8.07763955182789345E-02  8.27284831453929392E-02  8.47252175453248185E-02
  8.67674837030298074E-02  8.88561764232390222E-02  9.09921999374744134E-02
  9.31764674688433381E-02  9.54099007520949338E-02  9.76934295061911290E-02
  1.00027990856435489E-01  1.02414528703142424E-01  1.04853993033720422E-01
  1.07347339174680437E-01  1.09895526980221772E-01  1.12499519953588381E-01
  1.15160284297420187E-01  1.17878787888967398E-01  1.20655999176056281E-01
  1.23492885989316389E-01  1.26390414266015383E-01  1.29349546680797456E-01
  1.32371241178135146E-01  1.35456449401387485E-01  1.38606115012871622E-01
  1.41821171899324694E-01  1.45102542256786982E-01  1.48451134548743285E-01
  1.51867841331140008E-01  1.55353536937593850E-01  1.58909075017966223E-01
  1.62535285923114253E-01  1.66232973928476080E-01  1.70002914288932078E-01
  1.73845850116986167E-01  1.77762489076317975E-01  1.81753499882318759E-01
  1.85819508601126004E-01  1.89961094738492070E-01  1.94178787109466983E-01
  1.98473059479961661E-01  2.02844325970819361E-01  2.07292936215159568E-01
  2.11819170259529399E-01  2.16423233199231402E-01  2.21105249538409016E-01
  2.25865257265267266E-01  2.30703201633011640E-01  2.35618928637076175E-01
  2.40612178179607866E-01  2.45682576912047895E-01  2.50829630747501420E-01
  2.56052717034458699E-01  2.61351076384364389E-01  2.66723804145955035E-01
  2.72169841520018663E-01  2.77687966309221712E-01  2.83276783298587520E-01
  2.88934714263352432E-01  2.94659987602473639E-01  3.00450627597298014E-01
  3.06304443297092333E-01  3.12219017034614355E-01  3.18191692577672880E-01
  3.24219562924704441E-01  3.30299457755451276E-01  3.36427930550869170E-01
  3.42601245399870191E-01  3.48815363514222820E-01  3.55065929477408060E-01
  3.61348257257577909E-01  3.67657316019937008E-01  3.73987715779547814E-01
  3.80333692941501988E-01  3.86689095781895031E-01  3.93047369930498713E-01
  3.99401543923350921E-01  4.05744214902188427E-01  4.12067534546414149E-01
  4.18363195332997373E-01  4.24622417229983729E-01  4.30835934940381582E-01
  4.36993985824857822E-01  4.43086298644013332E-01  4.49102083274304509E-01
  4.55030021565356435E-01  4.60858259521030711E-01  4.66574401001604411E-01
  4.72165503160492050E-01  4.77618073844726376E-01  4.82918071205881094E-01
  4.88050905784665479E-01  4.93001445350244039E-01  4.97754022792890216E-01
  5.02292447386493146E-01  5.06600019753148945E-01  5.10659550880735336E-01
  5.14453385560239562E-01  5.17963430624577281E-01  5.21171188384183748E-01
  5.24057795667452031E-01  5.26604068883607224E-01  5.28790555533258044E-01
  5.30597592596108947E-01  5.32005372225593187E-01  5.32994015176726288E-01
  5.33543652383917322E-01  5.33634515091216732E-01  5.33247033915574709E-01
  5.32361947194781915E-01  5.30960418934155687E-01  5.29024166618892400E-01
  5.26535599101871310E-01  5.23477964706756116E-01  5.19835509605466761E-01
  5.15593646432444652E-01  5.10739132988509814E-01  5.05260260760160618E-01
  4.99147052836784844E-01  4.92391470647206397E-01  4.84987628758500489E-01
  4.76932016770041378E-01  4.68223727127509648E-01  4.58864687438181040E-01
  4.48859895603455239E-01  4.38217655804676864E-01  4.26949813075694462E-01
  4.15071983874568951E-01  4.02603779728184952E-01  3.89569020669224164E-01
  3.75995934817040411E-01  3.61917340077125338E-01  3.47370803550186014E-01
  3.32398773857091934E-01  3.17048681205984784E-01  3.01372999657320451E-01
  2.85429265691514500E-01  2.69280046857059863E-01  2.52992853987558886E-01
  2.36639990230181702E-01  2.20298329940722210E-01  2.04049020380764307E-01
  1.87977099116184682E-01  1.72171020075858633E-01  1.56722081402363406E-01
  1.41723748524030774E-01  1.27270866324373316E-01  1.13458754931484357E-01
  1.00382184412816919E-01  8.81342246931227369E-02  7.68049682709844306E-02
  6.64801248298222264E-02  5.72394886633819031E-02  4.91552820003045773E-02
  4.22903798619547952E-02  3.66964250736142167E-02  3.24118455332249519E-02
  2.94597898930015895E-02  2.78460025096270575E-02  2.75566639599309077E-02
  2.85562297060533606E-02  3.07853067395467660E-02  3.41586163598844791E-02
  3.85631007716665392E-02  4.38562420316349413E-02  4.98646741368319255E-02
  5.63831827751709175E-02  6.31742024481407455E-02  6.99679372118189730E-02
  7.64632489076087773E-02  8.23294750001383746E-02  8.72093562728878252E-02
  9.07232715051208838E-02  9.24749901536953134E-02  9.20591629945029938E-02
  8.90707714251006144E-02  8.31167447454691649E-02  7.38299261149575059E-02
  6.08855155030996950E-02  4.40200336812051271E-02  2.30527251394333742E-02
 -2.09086237129801726E-03 -3.13536327317745639E-02 -6.45208764380423710E-02
 -1.01194672101450403E-01 -1.40770611646066496E-01 -1.82419434991302393E-01
 -2.25077079162161159E-01 -2.67447795151775858E-01 -3.08026409789160627E-01
 -3.45147565660339162E-01 -3.77071929295100472E-01 -4.02122003059389055E-01
 -4.18883417823865900E-01 -4.26491555242212050E-01 -4.25028202891978180E-01
 -4.15953913397092645E-01 -4.00193249249219674E-01 -3.77012016525914706E-01
 -3.45546270894380558E-01 -3.04883603424671190E-01 -2.54065393452456101E-01
 -1.92082146346322369E-01 -1.17742167877941187E-01 -2.75258740352011776E-02
 -1.10152054737452411E-03 -7.94429430837475322E-05  0.00000000000000000E+00
  0.00000000000000000E+00  0.00000000000000000E+00  0.00000000000000000E+00
  0.00000000000000000E+00  0.00000000000000000E+00  0.00000000000000000E+00
  0.00000000000000000E+00  0.00000000000000000E+00  0.00000000000000000E+00
  0.00000000000000000E+00  0.00000000000000000E+00  0.00000000000000000E+00
  0.00000000000000000E+00  0.00000000000000000E+00  0.00000000000000000E+00
  0.00000000000000000E+00  0.00000000000000000E+00  0.00000000000000000E+00
  0.00000000000000000E+00  0.00000000000000000E+00  0.00000000000000000E+00
  0.00000000000000000E+00  0.00000000000000000E+00  0.00000000000000000E+00
  0.00000000000000000E+00  0.00000000000000000E+00  0.00000000000000000E+00
  0.00000000000000000E+00  0.00000000000000000E+00  0.00000000000000000E+00
  0.00000000000000000E+00  0.00000000000000000E+00  0.00000000000000000E+00
  0.00000000000000000E+00  0.00000000000000000E+00  0.00000000000000000E+00
  0.00000000000000000E+00  0.00000000000000000E+00  0.00000000000000000E+00
  0.00000000000000000E+00  0.00000000000000000E+00  0.00000000000000000E+00
  0.00000000000000000E+00  0.00000000000000000E+00  0.00000000000000000E+00
  0.00000000000000000E+00  0.00000000000000000E+00  0.00000000000000000E+00
  0.00000000000000000E+00  0.00000000000000000E+00  0.00000000000000000E+00
  0.00000000000000000E+00  0.00000000000000000E+00  0.00000000000000000E+00
  0.00000000000000000E+00  0.00000000000000000E+00  0.00000000000000000E+00
  0.00000000000000000E+00  0.00000000000000000E+00  0.00000000000000000E+00
  0.00000000000000000E+00  0.00000000000000000E+00  0.00000000000000000E+00
  0.00000000000000000E+00  0.00000000000000000E+00  0.00000000000000000E+00
  0.00000000000000000E+00  0.00000000000000000E+00  0.00000000000000000E+00
  0.00000000000000000E+00  0.00000000000000000E+00  0.00000000000000000E+00
  0.00000000000000000E+00  0.00000000000000000E+00  0.00000000000000000E+00
  0.00000000000000000E+00  0.00000000000000000E+00  0.00000000000000000E+00
  0.00000000000000000E+00  0.00000000000000000E+00  0.00000000000000000E+00
  0.00000000000000000E+00  0.00000000000000000E+00  0.00000000000000000E+00
  0.00000000000000000E+00  0.00000000000000000E+00  0.00000000000000000E+00
  0.00000000000000000E+00  0.00000000000000000E+00  0.00000000000000000E+00
  0.00000000000000000E+00  0.00000000000000000E+00  0.00000000000000000E+00
  0.00000000000000000E+00  0.00000000000000000E+00  0.00000000000000000E+00
  0.00000000000000000E+00  0.00000000000000000E+00  0.00000000000000000E+00
  0.00000000000000000E+00  0.00000000000000000E+00  0.00000000000000000E+00
  0.00000000000000000E+00  0.00000000000000000E+00  0.00000000000000000E+00
  0.00000000000000000E+00  0.00000000000000000E+00  0.00000000000000000E+00
  0.00000000000000000E+00  0.00000000000000000E+00  0.00000000000000000E+00
  0.00000000000000000E+00  0.00000000000000000E+00  0.00000000000000000E+00
  0.00000000000000000E+00  0.00000000000000000E+00  0.00000000000000000E+00
  0.00000000000000000E+00  0.00000000000000000E+00  0.00000000000000000E+00
  0.00000000000000000E+00  0.00000000000000000E+00  0.00000000000000000E+00
  0.00000000000000000E+00  0.00000000000000000E+00  0.00000000000000000E+00
  0.00000000000000000E+00  0.00000000000000000E+00  0.00000000000000000E+00
  0.00000000000000000E+00  0.00000000000000000E+00  0.00000000000000000E+00
  0.00000000000000000E+00  0.00000000000000000E+00  0.00000000000000000E+00
  0.00000000000000000E+00  0.00000000000000000E+00  0.00000000000000000E+00
  0.00000000000000000E+00  0.00000000000000000E+00  0.00000000000000000E+00
  0.00000000000000000E+00  0.00000000000000000E+00  0.00000000000000000E+00
  0.00000000000000000E+00  0.00000000000000000E+00  0.00000000000000000E+00
  0.00000000000000000E+00  0.00000000000000000E+00  0.00000000000000000E+00
  0.00000000000000000E+00  0.00000000000000000E+00  0.00000000000000000E+00
  0.00000000000000000E+00  0.00000000000000000E+00  0.00000000000000000E+00
  0.00000000000000000E+00  0.00000000000000000E+00  0.00000000000000000E+00
  0.00000000000000000E+00  0.00000000000000000E+00  0.00000000000000000E+00
                              </PP_BETA.4>
   <PP_DIJ type="real" size="   16" columns="3">
  7.15495051600266496E-01 -3.09809074620213565E+00  0.00000000000000000E+00
  0.00000000000000000E+00 -3.09809074620213565E+00  1.24305397556705266E+01
  0.00000000000000000E+00  0.00000000000000000E+00  0.00000000000000000E+00
  0.00000000000000000E+00  3.20543845091513901E-01  1.32838364783937979E+00
  0.00000000000000000E+00  0.00000000000000000E+00  1.32838364783938068E+00
  4.66904103226017586E+00
                                       </PP_DIJ>
  <PP_AUGMENTATION q_with_l="T" nqf="0" cutoff_r="  1.9038026E+00" cutoff_r_index="   836" iraug="   836" nqlc="  3" lmax_aug="  2" shape="SINC**2" augmentation_epsilon="1.d-12">
    <PP_Q type="real" size="   16" columns="3">
 -3.13433506574054110E-01 -2.73863145195398894E-01  0.00000000000000000E+00
  0.00000000000000000E+00 -2.73863145195398894E-01 -2.56564518988850965E-01
  0.00000000000000000E+00  0.00000000000000000E+00  0.00000000000000000E+00
  0.00000000000000000E+00 -4.81856393746316544E-02  1.14542124777585949E-01
  0.00000000000000000E+00  0.00000000000000000E+00  1.14542124777585949E-01
 -4.09775908952446200E-01
                                       </PP_Q>
    <PP_MULTIPOLES type="real" size="    48" columns="3">
 -3.13433506574054110E-01 -2.73863145195398894E-01  0.00000000000000000E+00
  0.00000000000000000E+00 -2.73863145195398894E-01 -2.56564518988850965E-01
  0.00000000000000000E+00  0.00000000000000000E+00  0.00000000000000000E+00
  0.00000000000000000E+00 -4.81856393746316544E-02  1.14542124777585949E-01
  0.00000000000000000E+00  0.00000000000000000E+00  1.14542124777585949E-01
 -4.09775908952446200E-01  0.00000000000000000E+00  0.00000000000000000E+00
 -1.30845193474337290E-01  1.91939575861772932E-01  0.00000000000000000E+00
  0.00000000000000000E+00 -2.83114014670919623E-01  6.53076938415763752E-01
 -1.30845193474337290E-01 -2.83114014670919623E-01  0.00000000000000000E+00
  0.00000000000000000E+00  1.91939575861772932E-01  6.53076938415763752E-01
  0.00000000000000000E+00  0.00000000000000000E+00  0.00000000000000000E+00
  0.00000000000000000E+00  0.00000000000000000E+00  0.00000000000000000E+00
  0.00000000000000000E+00  0.00000000000000000E+00  0.00000000000000000E+00
  0.00000000000000000E+00  0.00000000000000000E+00  0.00000000000000000E+00
 -6.35560717517346663E-02  2.31551735398311281E-01  0.00000000000000000E+00
  0.00000000000000000E+00  2.31551735398311281E-01 -1.03342849102431500E+00
                                       </PP_MULTIPOLES>
 <PP_QIJL.1.1.0 type="real" size="   999" columns="3" first_index=" 1" second_index=" 1" composite_index=" 1" angular_momentum="0">
 -7.30353592090273468E-09 -7.48842581196322272E-09 -7.67799621284677478E-09
 -7.87236561122094492E-09 -8.07165549428275966E-09 -8.27599042469212649E-09
 -8.48549811842756689E-09 -8.70030952461279838E-09 -8.92055890736419804E-09
 -9.14638392971034527E-09 -9.37792573963572470E-09 -9.61532905830283887E-09
 -9.85874227050770050E-09 -1.01083175174250829E-08 -1.03642107917017278E-08
 -1.06265820349567426E-08 -1.08955952377504043E-08 -1.11714185420834744E-08
 -1.14542243464914265E-08 -1.17441894137992552E-08 -1.20414949816037636E-08
 -1.23463268755530395E-08 -1.26588756254935603E-08 -1.29793365845574178E-08
 -1.33079100512644558E-08 -1.36448013947152724E-08 -1.39902211829535770E-08
 -1.43443853145780207E-08 -1.47075151536858757E-08 -1.50798376682327469E-08
 -1.54615855718948182E-08 -1.58529974695225806E-08 -1.62543180062764115E-08
 -1.66657980205378559E-08 -1.70876947006917786E-08 -1.75202717458772165E-08
 -1.79637995308081022E-08 -1.84185552747660678E-08 -1.88848232148714599E-08
 -1.93628947837409699E-08 -1.98530687916420393E-08 -2.03556516132593034E-08
 -2.08709573791884849E-08 -2.13993081722781577E-08 -2.19410342289422113E-08
 -2.24964741455678238E-08 -2.30659750901495427E-08 -2.36498930192802655E-08
 -2.42485929006356935E-08 -2.48624489410910344E-08 -2.54918448206120548E-08
 -2.61371739320678057E-08 -2.67988396271135701E-08 -2.74772554682988644E-08
 -2.81728454875573232E-08 -2.88860444512402579E-08 -2.96172981318596493E-08
 -3.03670635867104669E-08 -3.11358094435460073E-08 -3.19240161934856321E-08
 -3.27321764913368546E-08 -3.35607954635206314E-08 -3.44103910237916838E-08
 -3.52814941969510640E-08 -3.61746494507541236E-08 -3.70904150362198831E-08
 -3.80293633365562290E-08 -3.89920812249176401E-08 -3.99791704312197732E-08
 -4.09912479182402499E-08 -4.20289462672397895E-08 -4.30929140733460849E-08
 -4.41838163509464574E-08 -4.53023349493431964E-08 -4.64491689789313778E-08
 -4.76250352481650753E-08 -4.88306687115855587E-08 -5.00668229291917389E-08
 -5.13342705374388862E-08 -5.26338037321616411E-08 -5.39662347637212120E-08
 -5.53323964446880978E-08 -5.67331426703766771E-08 -5.81693489525565911E-08
 -5.96419129666762823E-08 -6.11517551129380944E-08 -6.26998190915780697E-08
 -6.42870724927086975E-08 -6.59145074010933840E-08 -6.75831410162314135E-08
 -6.92940162881395818E-08 -7.10482025692291761E-08 -7.28467962826855249E-08
 -7.46909216077668869E-08 -7.65817311824528232E-08 -7.85204068238787802E-08
 -8.05081602670096997E-08 -8.25462339220125436E-08 -8.46359016508021371E-08
 -8.67784695632455881E-08 -8.89752768335211402E-08 -9.12276965371453450E-08
 -9.35371365091883268E-08 -9.59050402242146210E-08 -9.83328876985014168E-08
 -1.00822196415094211E-07 -1.03374522272281875E-07 -1.05991460556081974E-07
 -1.08674646937344684E-07 -1.11425758494098899E-07 -1.14246514759777451E-07
 -1.17138678797980142E-07 -1.20104058304443573E-07 -1.23144506736907378E-07
 -1.26261924473583544E-07 -1.29458260000951440E-07 -1.32735511131622863E-07
 -1.36095726253037132E-07 -1.39541005607767140E-07 -1.43073502606236007E-07
 -1.46695425172664977E-07 -1.50409037125095155E-07 -1.54216659590342939E-07
 -1.58120672454776825E-07 -1.62123515851819865E-07 -1.66227691687107160E-07
 -1.70435765202254712E-07 -1.74750366578214075E-07 -1.79174192579215921E-07
 -1.83710008238331167E-07 -1.88360648585699614E-07 -1.93129020420511255E-07
 -1.98018104127844536E-07 -2.03030955541497161E-07 -2.08170707853974979E-07
 -2.13440573574833693E-07 -2.18843846538592009E-07 -2.24383903963479779E-07
 -2.30064208562300229E-07 -2.35888310706729259E-07 -2.41859850646406161E-07
 -2.47982560784196122E-07 -2.54260268009055174E-07 -2.60696896087949299E-07
 -2.67296468118325490E-07 -2.74063109042668235E-07 -2.81001048226708294E-07
 -2.88114622102903480E-07 -2.95408276880835030E-07 -3.02886571326219582E-07
 -3.10554179610273054E-07 -3.18415894231201081E-07 -3.26476629009652096E-07
 -3.34741422159997339E-07 -3.43215439439359905E-07 -3.51903977376364844E-07
 -3.60812466581617885E-07 -3.69946475141995411E-07 -3.79311712100856997E-07
 -3.88914031026359418E-07 -3.98759433670105883E-07 -4.08854073718405611E-07
 -4.19204260638504066E-07 -4.29816463622176617E-07 -4.40697315629152062E-07
 -4.51853617532901783E-07 -4.63292342371367712E-07 -4.75020639705307040E-07
 -4.87045840086962551E-07 -4.99375459641858440E-07 -5.12017204766584905E-07
 -5.24978976945500234E-07 -5.38268877689373399E-07 -5.51895213599045799E-07
 -5.65866501557274607E-07 -5.80191474052016250E-07 -5.94879084634453886E-07
 -6.09938513515205064E-07 -6.25379173302189933E-07 -6.41210714883755430E-07
 -6.57443033460729682E-07 -6.74086274731170387E-07 -6.91150841231685241E-07
 -7.08647398839279704E-07 -7.26586883437790692E-07 -7.44980507753093583E-07
 -7.63839768361321645E-07 -7.83176452874510057E-07 -8.03002647308138460E-07
 -8.23330743635175340E-07 -8.44173447531362646E-07 -8.65543786316552653E-07
 -8.87455117097089778E-07 -9.09921135114307280E-07 -9.32955882304365780E-07
 -9.56573756074784712E-07 -9.80789518303129886E-07 -1.00561830456352220E-06
 -1.03107563358669629E-06 -1.05717741695953930E-06 -1.08393996907017493E-06
 -1.11138001730478712E-06 -1.13951471250258982E-06 -1.16836163967544205E-06
 -1.19793882899883568E-06 -1.22826476708111478E-06 -1.25935840851794780E-06
 -1.29123918773932358E-06 -1.32392703115642777E-06 -1.35744236961600977E-06
 -1.39180615117004285E-06 -1.42703985416860466E-06 -1.46316550068422774E-06
 -1.50020567027606569E-06 -1.53818351410247454E-06 -1.57712276939087989E-06
 -1.61704777427388939E-06 -1.65798348300100665E-06 -1.69995548153540466E-06
 -1.74299000354550714E-06 -1.78711394680141216E-06 -1.83235488998633383E-06
 -1.87874110993364445E-06 -1.92630159930024572E-06 -1.97506608468730980E-06
 -2.02506504521976443E-06 -2.07632973159604130E-06 -2.12889218562010772E-06
 -2.18278526022788361E-06 -2.23804264002063128E-06 -2.29469886231813216E-06
 -2.35278933874474887E-06 -2.41235037736197176E-06 -2.47341920536118205E-06
 -2.53603399233087268E-06 -2.60023387411284973E-06 -2.66605897726229173E-06
 -2.73355044412701236E-06 -2.80275045856155928E-06 -2.87370227229220508E-06
 -2.94645023194937831E-06 -3.02103980678431242E-06 -3.09751761708733444E-06
 -3.17593146332552138E-06 -3.25633035601790465E-06 -3.33876454636691990E-06
 -3.42328555766523927E-06 -3.50994621749761565E-06 -3.59880069075781277E-06
 -3.68990451350138018E-06 -3.78331462765523723E-06 -3.87908941660594745E-06
 -3.97728874168877812E-06 -4.07797397960041117E-06 -4.18120806075871610E-06
 -4.28705550863342476E-06 -4.39558248007247201E-06 -4.50685680664900957E-06
 -4.62094803705506197E-06 -4.73792748056829276E-06 -4.85786825161892679E-06
 -4.98084531548488822E-06 -5.10693553514346961E-06 -5.23621771930897004E-06
 -5.36877267168631165E-06 -5.50468324147124475E-06 -5.64403437512892641E-06
 -5.78691316948305637E-06 -5.93340892614876037E-06 -6.08361320734335817E-06
 -6.23761989310969273E-06 -6.39552523998791123E-06 -6.55742794117229891E-06
 -6.72342918819079531E-06 -6.89363273414563620E-06 -7.06814495855471083E-06
 -7.24707493383418521E-06 -7.43053449346370387E-06 -7.61863830187705700E-06
 -7.81150392612182593E-06 -8.00925190933260576E-06 -8.21200584606408114E-06
 -8.41989245953068511E-06 -8.63304168080123279E-06 -8.85158672999800187E-06
 -9.07566419955092339E-06 -9.30541413955899730E-06 -9.54098014531202500E-06
 -9.78250944702767003E-06 -1.00301530018596429E-05 -1.02840655882344185E-05
 -1.05444059025757357E-05 -1.08113366584769633E-05 -1.10850246883834937E-05
 -1.13656410478484682E-05 -1.16533611224271311E-05 -1.19483647372765784E-05
 -1.22508362695291057E-05 -1.25609647635095800E-05 -1.28789440488687917E-05
 -1.32049728617063462E-05 -1.35392549687590087E-05 -1.38819992947316997E-05
 -1.42334200528510659E-05 -1.45937368787229408E-05 -1.49631749675771366E-05
 -1.53419652149855449E-05 -1.57303443611411448E-05 -1.61285551387883070E-05
 -1.65368464248965171E-05 -1.69554733961721664E-05 -1.73846976885057082E-05
 -1.78247875604536240E-05 -1.82760180608572455E-05 -1.87386712007031944E-05
 -1.92130361293323111E-05 -1.96994093151077195E-05 -2.01980947306541398E-05
 -2.07094040427847112E-05 -2.12336568072333383E-05 -2.17711806683142583E-05
 -2.23223115636335936E-05 -2.28873939339804842E-05 -2.34667809385289336E-05
 -2.40608346754845687E-05 -2.46699264083138587E-05 -2.52944367976972165E-05
 -2.59347561393506154E-05 -2.65912846078640232E-05 -2.72644325067090989E-05
 -2.79546205245715121E-05 -2.86622799981685490E-05 -2.93878531817153386E-05
 -3.01317935232080088E-05 -3.08945659476965228E-05 -3.16766471477230435E-05
 -3.24785258811077063E-05 -3.33007032762672897E-05 -3.41436931452567490E-05
 -3.50080223047297465E-05 -3.58942309050172870E-05 -3.68028727675305802E-05
 -3.77345157306979291E-05 -3.86897420046512254E-05 -3.96691485348838919E-05
 -4.06733473751057668E-05 -4.17029660695286019E-05 -4.27586480448197782E-05
 -4.38410530119682783E-05 -4.49508573783143292E-05 -4.60887546699981815E-05
 -4.72554559650921881E-05 -4.84516903376861524E-05 -4.96782053132012016E-05
 -5.09357673352180026E-05 -5.22251622441078400E-05 -5.35471957677666834E-05
 -5.49026940247564985E-05 -5.62925040401675029E-05 -5.77174942745229457E-05
 -5.91785551660548866E-05 -6.06765996866896358E-05 -6.22125639120881067E-05
 -6.37874076060960019E-05 -6.54021148199680357E-05 -6.70576945067384469E-05
 -6.87551811511207033E-05 -7.04956354153280017E-05 -7.22801448012156745E-05
 -7.41098243291588520E-05 -7.59858172340859169E-05 -7.79092956791014311E-05
 -7.98814614871430043E-05 -8.19035468911245141E-05 -8.39768153030350694E-05
 -8.61025621024691677E-05 -8.82821154450792430E-05 -9.05168370914533901E-05
 -9.28081232569312150E-05 -9.51574054828884604E-05 -9.75661515300285632E-05
 -1.00035866294238181E-04 -1.02568092745574090E-04 -1.05164412890963957E-04
 -1.07826448761220168E-04 -1.10555863422976712E-04 -1.13354362016178874E-04
 -1.16223692817768814E-04 -1.19165648332225418E-04 -1.22182066409636881E-04
 -1.25274831391996243E-04 -1.28445875288433239E-04 -1.31697178980108793E-04
 -1.35030773455518260E-04 -1.38448741076970758E-04 -1.41953216879025780E-04
 -1.45546389899693239E-04 -1.49230504545220849E-04 -1.53007861989309555E-04
 -1.56880821607629237E-04 -1.60851802448515129E-04 -1.64923284740758024E-04
 -1.69097811439420130E-04 -1.73377989810629486E-04 -1.77766493056334251E-04
 -1.82266061980018983E-04 -1.86879506694411510E-04 -1.91609708372234651E-04
 -1.96459621041081636E-04 -2.01432273423524983E-04 -2.06530770823589382E-04
 -2.11758297060755051E-04 -2.17118116452680836E-04 -2.22613575847868228E-04
 -2.28248106709519490E-04 -2.34025227251870001E-04 -2.39948544630310198E-04
 -2.46021757186644569E-04 -2.52248656750864901E-04 -2.58633131000856784E-04
 -2.65179165881482368E-04 -2.71890848084530771E-04 -2.78772367591051233E-04
 -2.85828020277634513E-04 -2.93062210588234697E-04 -3.00479454273171903E-04
 -3.08084381196990504E-04 -3.15881738216893600E-04 -3.23876392133513500E-04
 -3.32073332715821098E-04 -3.40477675802023608E-04 -3.49094666478344561E-04
 -3.57929682337624602E-04 -3.66988236819730822E-04 -3.76275982635812317E-04
 -3.85798715278484956E-04 -3.95562376620084855E-04 -4.05573058601175671E-04
 -4.15837007011557957E-04 -4.26360625366069398E-04 -4.37150478877535473E-04
 -4.48213298529275992E-04 -4.59555985249635566E-04 -4.71185614191071424E-04
 -4.83109439116378850E-04 -4.95334896894714040E-04 -5.07869612110124183E-04
 -5.20721401785371497E-04 -5.33898280223893233E-04 -5.47408463972822064E-04
 -5.61260376910042188E-04 -5.75462655458356212E-04 -5.90024153929874788E-04
 -6.04953950003852799E-04 -6.20261350341245695E-04 -6.35955896339347694E-04
 -6.52047370029957196E-04 -6.68545800124588862E-04 -6.85461468210341648E-04
 -7.02804915100113973E-04 -7.20586947340939583E-04 -7.38818643884325767E-04
 -7.57511362922536091E-04 -7.76676748894887417E-04 -7.96326739668193101E-04
 -8.16473573895608188E-04 -8.37129798558213086E-04 -8.58308276693780744E-04
 -8.80022195317283016E-04 -9.02285073537775002E-04 -9.25110770876432713E-04
 -9.48513495790602370E-04 -9.72507814408851939E-04 -9.97108659482116941E-04
 -1.02233133955615773E-03 -1.04819154837065007E-03 -1.07470537449037840E-03
 -1.10188931117408996E-03 -1.12976026648672900E-03 -1.15833557366086786E-03
 -1.18763300171330550E-03 -1.21767076632292104E-03 -1.24846754097602294E-03
 -1.28004246838554553E-03 -1.31241517219062454E-03 -1.34560576894317556E-03
 -1.37963488038830438E-03 -1.41452364604546473E-03 -1.45029373609748750E-03
 -1.48696736459470865E-03 -1.52456730298161560E-03 -1.56311689395357374E-03
 -1.60264006565135481E-03 -1.64316134620135271E-03 -1.68470587860955370E-03
 -1.72729943601746504E-03 -1.77096843732841734E-03 -1.81573996321278061E-03
 -1.86164177250086344E-03 -1.90870231897239881E-03 -1.95695076855171343E-03
 -2.00641701691788455E-03 -2.05713170753932814E-03 -2.10912625014248465E-03
 -2.16243283962444998E-03 -2.21708447541957288E-03 -2.27311498133026197E-03
 -2.33055902583239943E-03 -2.38945214286601830E-03 -2.44983075312201187E-03
 -2.51173218583592480E-03 -2.57519470110003116E-03 -2.64025751270509802E-03
 -2.70696081152349294E-03 -2.77534578944541250E-03 -2.84545466388027484E-03
 -2.91733070283553466E-03 -2.99101825058529754E-03 -3.06656275394141418E-03
 -3.14401078913989452E-03 -3.22341008935563781E-03 -3.30480957285880870E-03
 -3.38825937182621112E-03 -3.47381086182136983E-03 -3.56151669195714634E-03
 -3.65143081575489310E-03 -3.74360852271442019E-03 -3.83810647060914235E-03
 -3.93498271852104307E-03 -4.03429676063019223E-03 -4.13610956077380739E-03
 -4.24048358778993627E-03 -4.34748285166108341E-03 -4.45717294047317820E-03
 -4.56962105820549538E-03 -4.68489606336724724E-03 -4.80306850849666640E-03
 -4.92421068053861075E-03 -5.04839664211672798E-03 -5.17570227371635244E-03
 -5.30620531679444531E-03 -5.43998541783282871E-03 -5.57712417335120506E-03
 -5.71770517589625504E-03 -5.86181406102338244E-03 -6.00953855528744887E-03
 -6.16096852525897624E-03 -6.31619602758219222E-03 -6.47531536009122999E-03
 -6.63842311400064666E-03 -6.80561822718647822E-03 -6.97700203857367588E-03
 -7.15267834364575941E-03 -7.33275345109223129E-03 -7.51733624060906946E-03
 -7.70653822186730727E-03 -7.90047359466445644E-03 -8.09925931027300969E-03
 -8.30301513400003369E-03 -8.51186370897124255E-03 -8.72593062115249035E-03
 -8.94534446562105824E-03 -9.17023691409848442E-03 -9.40074278375591967E-03
 -9.63700010730233342E-03 -9.87915020436501250E-03 -1.01273377541709134E-02
 -1.03817108695363983E-02 -1.06424211721719304E-02 -1.09096238693070190E-02
 -1.11834778316395808E-02 -1.14641456726124573E-02 -1.17517938290184008E-02
 -1.20465926429334288E-02 -1.23487164449764038E-02 -1.26583436388914335E-02
 -1.29756567874472709E-02 -1.33008426996461451E-02 -1.36340925192321247E-02
 -1.39756018144868380E-02 -1.43255706692977363E-02 -1.46842037754814844E-02
 -1.50517105263423927E-02 -1.54283051114423933E-02 -1.58142066125561663E-02
 -1.62096391007812875E-02 -1.66148317347697937E-02 -1.70300188600436969E-02
 -1.74554401093526476E-02 -1.78913405040278771E-02 -1.83379705562815160E-02
 -1.87955863723959227E-02 -1.92644497567418735E-02 -1.97448283165596004E-02
 -2.02369955674302493E-02 -2.07412310393593757E-02 -2.12578203833877488E-02
 -2.17870554786374834E-02 -2.23292345396943204E-02 -2.28846622242195180E-02
 -2.34536497406760587E-02 -2.40365149560459596E-02 -2.46335825034058424E-02
 -2.52451838892188869E-02 -2.58716576001909275E-02 -2.65133492095279491E-02
 -2.71706114824211246E-02 -2.78438044805739519E-02 -2.85332956655733085E-02
 -2.92394600008938112E-02 -2.99626800523107931E-02 -3.07033460864830944E-02
 -3.14618561674516808E-02 -3.22386162507840787E-02 -3.30340402750795570E-02
 -3.38485502505304139E-02 -3.46825763442172169E-02 -3.55365569617974719E-02
 -3.64109388252260233E-02 -3.73061770461255021E-02 -3.82227351944022312E-02
 -3.91610853616805865E-02 -4.01217082191042407E-02 -4.11050930690279315E-02
 -4.21117378900966455E-02 -4.31421493751814530E-02 -4.41968429616132336E-02
 -4.52763428531241865E-02 -4.63811820328767777E-02 -4.75119022669263230E-02
 -4.86690540974297550E-02 -4.98531968248766208E-02 -5.10648984785827056E-02
 -5.23047357746466574E-02 -5.35732940605305533E-02 -5.48711672453831636E-02
 -5.61989577151819630E-02 -5.75572762317233672E-02 -5.89467418144451888E-02
 -6.03679816040160466E-02 -6.18216307065756476E-02 -6.33083320174577524E-02
 -6.48287360231723231E-02 -6.63835005803736777E-02 -6.79732906704738904E-02
 -6.95987781285063584E-02 -7.12606413447812864E-02 -7.29595649378112360E-02
 -7.46962393969198696E-02 -7.64713606928781875E-02 -7.82856298548434693E-02
 -8.01397525118046489E-02 -8.20344383966641194E-02 -8.39704008110113420E-02
 -8.59483560485657799E-02 -8.79690227751890041E-02 -9.00331213632843963E-02
 -9.21413731783218698E-02 -9.42944998151414443E-02 -9.64932222816048540E-02
 -9.87382601270789251E-02 -1.01030330513148303E-01 -1.03370147223866130E-01
 -1.05758419612765941E-01 -1.08195851483767785E-01 -1.10683139903024905E-01
 -1.13220973938668965E-01 -1.15810033325324704E-01 -1.18450987050180492E-01
 -1.21144491857312131E-01 -1.23891190666880466E-01 -1.26691710905752708E-01
 -1.29546662745998381E-01 -1.32456637247651832E-01 -1.35422204402065344E-01
 -1.38443911072112125E-01 -1.41522278825442327E-01 -1.44657801656945889E-01
 -1.47850943596532336E-01 -1.51102136198310616E-01 -1.54411775907223103E-01
 -1.57780221299183204E-01 -1.61207790190765698E-01 -1.64694756614516685E-01
 -1.68241347655982282E-01 -1.71847740148608097E-01 -1.75514057222727921E-01
 -1.79240364704956356E-01 -1.83026667364411283E-01 -1.86872905002337081E-01
 -1.90778948381865848E-01 -1.94744594994856912E-01 -1.98769564662986897E-01
 -2.02853494970534620E-01 -2.06995936526614049E-01 -2.11196348054962568E-01
 -2.15454091309788681E-01 -2.19768425816638052E-01 -2.24138503437738029E-01
 -2.28563362761831812E-01 -2.33041923319146388E-01 -2.37572979622827751E-01
 -2.42155195038935178E-01 -2.46787095487925073E-01 -2.51467062981473810E-01
 -2.56193328999491987E-01 -2.60963967713282508E-01 -2.65776889061990707E-01
 -2.70629831690788747E-01 -2.75520355760654312E-01 -2.80445835641118524E-01
 -2.85403452499013777E-01 -2.90390186798021477E-01 -2.95402810725734322E-01
 -3.00437880566999382E-01 -3.05491729044507332E-01 -3.10560457649947885E-01
 -3.15639928991569618E-01 -3.20725759186659409E-01 -3.25813310330315686E-01
 -3.30897683074915461E-01 -3.35973709357898720E-01 -3.41035945318895972E-01
 -3.46078664450909235E-01 -3.51095851033695450E-01 -3.56081193901850168E-01
 -3.61028080604207491E-01 -3.65929592015431737E-01 -3.70778497465296120E-01
 -3.75567250455884238E-01 -3.80287985041899756E-01 -3.84932512954370198E-01
 -3.89492321553313814E-01 -3.93958572700366383E-01 -3.98322102647916232E-01
 -4.02573423046979628E-01 -4.06702723181810721E-01 -4.10699873545053662E-01
 -4.14554430873114887E-01 -4.18255644767253021E-01 -4.21792466031685631E-01
 -4.25153556865680848E-01 -4.28327303052117414E-01 -4.31301828290289846E-01
 -4.34065010825714748E-01 -4.36604502534301220E-01 -4.38907750622386128E-01
 -4.40962022107687313E-01 -4.42754431249218705E-01 -4.44271970096775826E-01
 -4.45501542329421796E-01 -4.46430000555133100E-01 -4.47044187242092328E-01
 -4.47330979448756882E-01 -4.47277337516003348E-01 -4.46870357878702662E-01
 -4.46097330146135729E-01 -4.44945798590495933E-01 -4.43403628170105146E-01
 -4.41459075198648632E-01 -4.39100862753443011E-01 -4.36318260894213550E-01
 -4.33101171738809521E-01 -4.29440219413394608E-01 -4.25326844861667719E-01
 -4.20753405460237817E-01 -4.15713279345142295E-01 -4.10200974307312505E-01
 -4.04212241062293254E-01 -3.97744190641408035E-01 -3.90795415587568418E-01
 -3.83366114568814753E-01 -3.75458219946231353E-01 -3.67075527749927077E-01
 -3.58223829427762930E-01 -3.48911044634955647E-01 -3.39147354225378062E-01
 -3.28945332504309296E-01 -3.18320077681453373E-01 -3.07289339341294043E-01
 -2.95873641620721994E-01 -2.84096400651277226E-01 -2.71984034686476583E-01
 -2.59566065194539064E-01 -2.46875207054548740E-01 -2.33947445851099722E-01
 -2.20822100120435155E-01 -2.07541866261984564E-01 -1.94152843695208660E-01
 -1.80704537715484254E-01 -1.67249837387171807E-01 -1.53844965710468851E-01
 -1.40549399214700138E-01 -1.27425754068499542E-01 -1.14539635761344988E-01
 -1.01959449405975580E-01 -8.97561677426920168E-02 -7.80030540000241079E-02
 -6.67753368877856690E-02 -5.61498351742734728E-02 -4.62045295301457687E-02
 -3.70180796420283773E-02 -2.86692849750339179E-02 -2.12364880047525850E-02
 -1.47969192923281083E-02 -9.42598418315440320E-03 -5.19648785683422126E-03
 -2.17773590259919252E-03 -4.33505924813732963E-04  8.13503836863829469E-06
  5.83375796927992221E-07  4.12270796735677378E-08  2.87170246877636243E-09
  1.97097517090002166E-10  1.33182032045724547E-11  8.84725415792333818E-13
  5.76507748360921899E-14  3.67272119387297023E-15  2.27595284952682892E-16
  1.36106441851060642E-17  7.75038485864526817E-19  4.09822549531461844E-20
  1.90172785190222098E-21  6.44473764873094133E-23 -2.24653231938520602E-25
 -3.32880143172739042E-25 -4.42707910758440820E-26 -4.47184465662816869E-27
 -4.01876833023771265E-28 -3.38010174938444179E-29 -2.72161244753937483E-30
 -2.12315441079946281E-31 -1.61595921488546836E-32 -1.20516868403827755E-33
 -8.83119666781853090E-35 -6.36916175476795594E-36  0.00000000000000000E+00
  0.00000000000000000E+00  0.00000000000000000E+00  0.00000000000000000E+00
  0.00000000000000000E+00  0.00000000000000000E+00  0.00000000000000000E+00
  0.00000000000000000E+00  0.00000000000000000E+00  0.00000000000000000E+00
  0.00000000000000000E+00  0.00000000000000000E+00  0.00000000000000000E+00
  0.00000000000000000E+00  0.00000000000000000E+00  0.00000000000000000E+00
  0.00000000000000000E+00  0.00000000000000000E+00  0.00000000000000000E+00
  0.00000000000000000E+00  0.00000000000000000E+00  0.00000000000000000E+00
  0.00000000000000000E+00  0.00000000000000000E+00  0.00000000000000000E+00
  0.00000000000000000E+00  0.00000000000000000E+00  0.00000000000000000E+00
  0.00000000000000000E+00  0.00000000000000000E+00  0.00000000000000000E+00
  0.00000000000000000E+00  0.00000000000000000E+00  0.00000000000000000E+00
  0.00000000000000000E+00  0.00000000000000000E+00  0.00000000000000000E+00
  0.00000000000000000E+00  0.00000000000000000E+00  0.00000000000000000E+00
  0.00000000000000000E+00  0.00000000000000000E+00  0.00000000000000000E+00
  0.00000000000000000E+00  0.00000000000000000E+00  0.00000000000000000E+00
  0.00000000000000000E+00  0.00000000000000000E+00  0.00000000000000000E+00
  0.00000000000000000E+00  0.00000000000000000E+00  0.00000000000000000E+00
  0.00000000000000000E+00  0.00000000000000000E+00  0.00000000000000000E+00
  0.00000000000000000E+00  0.00000000000000000E+00  0.00000000000000000E+00
  0.00000000000000000E+00  0.00000000000000000E+00  0.00000000000000000E+00
  0.00000000000000000E+00  0.00000000000000000E+00  0.00000000000000000E+00
  0.00000000000000000E+00  0.00000000000000000E+00  0.00000000000000000E+00
  0.00000000000000000E+00  0.00000000000000000E+00  0.00000000000000000E+00
  0.00000000000000000E+00  0.00000000000000000E+00  0.00000000000000000E+00
  0.00000000000000000E+00  0.00000000000000000E+00  0.00000000000000000E+00
  0.00000000000000000E+00  0.00000000000000000E+00  0.00000000000000000E+00
  0.00000000000000000E+00  0.00000000000000000E+00  0.00000000000000000E+00
  0.00000000000000000E+00  0.00000000000000000E+00  0.00000000000000000E+00
  0.00000000000000000E+00  0.00000000000000000E+00  0.00000000000000000E+00
  0.00000000000000000E+00  0.00000000000000000E+00  0.00000000000000000E+00
  0.00000000000000000E+00  0.00000000000000000E+00  0.00000000000000000E+00
  0.00000000000000000E+00  0.00000000000000000E+00  0.00000000000000000E+00
  0.00000000000000000E+00  0.00000000000000000E+00  0.00000000000000000E+00
  0.00000000000000000E+00  0.00000000000000000E+00  0.00000000000000000E+00
  0.00000000000000000E+00  0.00000000000000000E+00  0.00000000000000000E+00
  0.00000000000000000E+00  0.00000000000000000E+00  0.00000000000000000E+00
  0.00000000000000000E+00  0.00000000000000000E+00  0.00000000000000000E+00
  0.00000000000000000E+00  0.00000000000000000E+00  0.00000000000000000E+00
  0.00000000000000000E+00  0.00000000000000000E+00  0.00000000000000000E+00
  0.00000000000000000E+00  0.00000000000000000E+00  0.00000000000000000E+00
  0.00000000000000000E+00  0.00000000000000000E+00  0.00000000000000000E+00
  0.00000000000000000E+00  0.00000000000000000E+00  0.00000000000000000E+00
  0.00000000000000000E+00  0.00000000000000000E+00  0.00000000000000000E+00
  0.00000000000000000E+00  0.00000000000000000E+00  0.00000000000000000E+00
  0.00000000000000000E+00  0.00000000000000000E+00  0.00000000000000000E+00
  0.00000000000000000E+00  0.00000000000000000E+00  0.00000000000000000E+00
  0.00000000000000000E+00  0.00000000000000000E+00  0.00000000000000000E+00
  0.00000000000000000E+00  0.00000000000000000E+00  0.00000000000000000E+00
  0.00000000000000000E+00  0.00000000000000000E+00  0.00000000000000000E+00
  0.00000000000000000E+00  0.00000000000000000E+00  0.00000000000000000E+00
  0.00000000000000000E+00  0.00000000000000000E+00  0.00000000000000000E+00
  0.00000000000000000E+00  0.00000000000000000E+00  0.00000000000000000E+00
  0.00000000000000000E+00  0.00000000000000000E+00  0.00000000000000000E+00
  0.00000000000000000E+00  0.00000000000000000E+00  0.00000000000000000E+00
                       </PP_QIJL.1.1.0>
 <PP_QIJL.1.2.0 type="real" size="   999" columns="3" first_index=" 1" second_index=" 2" composite_index=" 2" angular_momentum="0">
 -6.38147893059870440E-09 -6.54302683794949938E-09 -6.70866434999914347E-09
 -6.87849499558109801E-09 -7.05262492437362525E-09 -7.23116297324674664E-09
 -7.41422073428885187E-09 -7.60191262455532577E-09 -7.79435595758294201E-09
 -7.99167101671471030E-09 -8.19398113028075062E-09 -8.40141274868253320E-09
 -8.61409552342853021E-09 -8.83216238817058743E-09 -9.05574964179177322E-09
 -9.28499703359756595E-09 -9.52004785066377910E-09 -9.76104900739555179E-09
 -1.00081511373536248E-08 -1.02615086874053299E-08 -1.05212800142586998E-08
 -1.07876274834406373E-08 -1.10607175707806703E-08 -1.13407209664636603E-08
 -1.16278126817167788E-08 -1.19221721581971467E-08 -1.22239833801486849E-08
 -1.25334349893982248E-08 -1.28507204032628079E-08 -1.31760379354417582E-08
 -1.35095909199690947E-08 -1.38515878383040275E-08 -1.42022424496384484E-08
 -1.45617739245034744E-08 -1.49304069817581655E-08 -1.53083720290458781E-08
 -1.56959053068067319E-08 -1.60932490359353700E-08 -1.65006515691768927E-08
 -1.69183675463555119E-08 -1.73466580535323664E-08 -1.77857907861930460E-08
 -1.82360402165657558E-08 -1.86976877651753516E-08 -1.91710219767404625E-08
 -1.96563387005228985E-08 -2.01539412752433205E-08 -2.06641407186775587E-08
 -2.11872559220528273E-08 -2.17236138493651521E-08 -2.22735497417421395E-08
 -2.28374073269798163E-08 -2.34155390343833450E-08 -2.40083062150468792E-08
 -2.46160793677096175E-08 -2.52392383703293972E-08 -2.58781727175186719E-08
 -2.65332817639913065E-08 -2.72049749741719832E-08 -2.78936721781249006E-08
 -2.85998038339607951E-08 -2.93238112968872659E-08 -3.00661470950700415E-08
 -3.08272752124774674E-08 -3.16076713788857636E-08 -3.24078233672249681E-08
 -3.32282312984530539E-08 -3.40694079541474496E-08 -3.49318790970099779E-08
 -3.58161837994856759E-08 -3.67228747807000338E-08 -3.76525187519264253E-08
 -3.86056967707987486E-08 -3.95830046044910772E-08 -4.05850531020914082E-08
 -4.16124685764016913E-08 -4.26658931954034421E-08 -4.37459853836334892E-08
 -4.48534202337200802E-08 -4.59888899283377838E-08 -4.71531041728433848E-08
 -4.83467906388646167E-08 -4.95706954191182945E-08 -5.08255834937417161E-08
 -5.21122392084302746E-08 -5.34314667646779655E-08 -5.47840907224291977E-08
 -5.61709565154551500E-08 -5.75929309797765320E-08 -5.90509028954641859E-08
 -6.05457835421543950E-08 -6.20785072686278250E-08 -6.36500320768073341E-08
 -6.52613402205394079E-08 -6.69134388195343261E-08 -6.86073604888475780E-08
 -7.03441639842970916E-08 -7.21249348642192369E-08 -7.39507861679771183E-08
 -7.58228591116458459E-08 -7.77423238013076629E-08 -7.97103799644060799E-08
 -8.17282576996131575E-08 -8.37972182456795795E-08 -8.59185547697496215E-08
 -8.80935931756303234E-08 -9.03236929325234431E-08 -9.26102479247364968E-08
 -9.49546873229041880E-08 -9.73584764772654094E-08 -9.98231178335520548E-08
 -1.02350151872065344E-07 -1.04941158070524152E-07 -1.07597755891287844E-07
 -1.10321605793571189E-07 -1.13114410271282479E-07 -1.15977914917135631E-07
 -1.18913909513700008E-07 -1.21924229152070271E-07 -1.25010755378855224E-07
 -1.28175417372202369E-07 -1.31420193147594677E-07 -1.34747110794170691E-07
 -1.38158249742343581E-07 -1.41655742063509417E-07 -1.45241773802656542E-07
 -1.48918586344711591E-07 -1.52688477815473804E-07 -1.56553804518014133E-07
 -1.60516982405437477E-07 -1.64580488590925738E-07 -1.68746862896010243E-07
 -1.73018709438037555E-07 -1.77398698257821744E-07 -1.81889566988500774E-07
 -1.86494122566641558E-07 -1.91215242986658004E-07 -1.96055879099646177E-07
 -2.01019056457754524E-07 -2.06107877205244592E-07 -2.11325522017425700E-07
 -2.16675252088670493E-07 -2.22160411170759838E-07 -2.27784427662827141E-07
 -2.33550816754209669E-07 -2.39463182621547380E-07 -2.45525220681497749E-07
 -2.51740719900482331E-07 -2.58113565162901153E-07 -2.64647739699299742E-07
 -2.71347327576006329E-07 -2.78216516247790198E-07 -2.85259599175144631E-07
 -2.92480978507823446E-07 -2.99885167836312116E-07 -3.07476795012953852E-07
 -3.15260605044487444E-07 -3.23241463057814328E-07 -3.31424357340841679E-07
 -3.39814402460303330E-07 -3.48416842458512141E-07 -3.57237054131030381E-07
 -3.66280550387320802E-07 -3.75552983696469631E-07 -3.85060149620135525E-07
 -3.94807990434941506E-07 -4.04802598846556464E-07 -4.15050221797807689E-07
 -4.25557264373190363E-07 -4.36330293802220769E-07 -4.47376043564134709E-07
 -4.58701417596490292E-07 -4.70313494610317364E-07 -4.82219532514500977E-07
 -4.94426972952165712E-07 -5.06943445951904323E-07 -5.19776774696740408E-07
 -5.32934980413826160E-07 -5.46426287387915501E-07 -5.60259128101755685E-07
 -5.74442148506606763E-07 -5.88984213426177964E-07 -6.03894412097368561E-07
 -6.19182063851269894E-07 -6.34856723937975996E-07 -6.50928189498858004E-07
 -6.67406505690010767E-07 -6.84301971960722883E-07 -7.01625148490881578E-07
 -7.19386862791334109E-07 -7.37598216471345275E-07 -7.56270592177356852E-07
 -7.75415660707408537E-07 -7.95045388305654289E-07 -8.15172044141538427E-07
 -8.35808207978306139E-07 -8.56966778035626195E-07 -8.78660979051269064E-07
 -9.00904370546853679E-07 -9.23710855302837501E-07 -9.47094688048054195E-07
 -9.71070484369207244E-07 -9.95653229845921970E-07 -1.02085828941702887E-06
 -1.04670141698396146E-06 -1.07319876525726002E-06 -1.10036689585231225E-06
 -1.12822278964069152E-06 -1.15678385736351253E-06 -1.18606795051346053E-06
 -1.21609337249230570E-06 -1.24687889005083421E-06 -1.27844374501840061E-06
 -1.31080766632939468E-06 -1.34399088235413932E-06 -1.37801413354196228E-06
 -1.41289868538428217E-06 -1.44866634170587022E-06 -1.48533945829256558E-06
 -1.52294095686394669E-06 -1.56149433939974249E-06 -1.60102370282886198E-06
 -1.64155375409029121E-06 -1.68310982557524103E-06 -1.72571789096017489E-06
 -1.76940458144067540E-06 -1.81419720237619692E-06 -1.86012375035621733E-06
 -1.90721293069836006E-06 -1.95549417538948301E-06 -2.00499766148093361E-06
 -2.05575432994941393E-06 -2.10779590503533507E-06 -2.16115491407066614E-06
 -2.21586470780871298E-06 -2.27195948126852246E-06 -2.32947429510690353E-06
 -2.38844509753148848E-06 -2.44890874676847375E-06 -2.51090303409908481E-06
 -2.57446670747921325E-06 -2.63963949575689627E-06 -2.70646213350285213E-06
 -2.77497638646956394E-06 -2.84522507769479879E-06 -2.91725211426589904E-06
 -2.99110251476156103E-06 -3.06682243738826252E-06 -3.14445920882887041E-06
 -3.22406135382156782E-06 -3.30567862548742451E-06 -3.38936203642571880E-06
 -3.47516389059632673E-06 -3.56313781600915408E-06 -3.65333879824106108E-06
 -3.74582321480111648E-06 -3.84064887036582141E-06 -3.93787503290613814E-06
 -4.03756247072903757E-06 -4.13977349045666672E-06 -4.24457197596679035E-06
 -4.35202342831899840E-06 -4.46219500669145599E-06 -4.57515557035387959E-06
 -4.69097572170297634E-06 -4.80972785038710750E-06 -4.93148617854791742E-06
 -5.05632680720707216E-06 -5.18432776382710447E-06 -5.31556905107616779E-06
 -5.45013269682704863E-06 -5.58810280542174769E-06 -5.72956561023362411E-06
 -5.87460952756000227E-06 -6.02332521187880396E-06 -6.17580561250381757E-06
 -6.33214603167401261E-06 -6.49244418411302729E-06 -6.65680025809627401E-06
 -6.82531697806369526E-06 -6.99809966881713441E-06 -7.17525632134276797E-06
 -7.35689766029940434E-06 -7.54313721321494566E-06 -7.73409138143425533E-06
 -7.92987951286266694E-06 -8.13062397655069283E-06 -8.33645023916629898E-06
 -8.54748694340285445E-06 -8.76386598837145352E-06 -8.98572261202781960E-06
 -9.21319547568551048E-06 -9.44642675066798854E-06 -9.68556220715379819E-06
 -9.93075130527022271E-06 -1.01821472884924259E-05 -1.04399072794064594E-05
 -1.07041923778956888E-05 -1.09751677618122078E-05 -1.12530027901960803E-05
 -1.15378711091067094E-05 -1.18299507601326525E-05 -1.21294242916473216E-05
 -1.24364788728804322E-05 -1.27513064108762136E-05 -1.30741036704113335E-05
 -1.34050723969475961E-05 -1.37444194426960240E-05 -1.40923568958712547E-05
 -1.44491022132167368E-05 -1.48148783558834941E-05 -1.51899139287473699E-05
 -1.55744433232517188E-05 -1.59687068638647030E-05 -1.63729509582426647E-05
 -1.67874282511930529E-05 -1.72123977825334685E-05 -1.76481251489449193E-05
 -1.80948826699207086E-05 -1.85529495579142602E-05 -1.90226120927920182E-05
 -1.95041638007005983E-05 -1.99979056374595446E-05 -2.05041461765944008E-05
 -2.10232018021272533E-05 -2.15553969062449271E-05 -2.21010640919684783E-05
 -2.26605443809503318E-05 -2.32341874265285462E-05 -2.38223517321715731E-05
 -2.44254048754490926E-05 -2.50437237376694420E-05 -2.56776947393262639E-05
 -2.63277140815014292E-05 -2.69941879933752676E-05 -2.76775329859976517E-05
 -2.83781761124788974E-05 -2.90965552347625730E-05 -2.98331192971461402E-05
 -3.05883286067208399E-05 -3.13626551209048534E-05 -3.21565827422496460E-05
 -3.29706076207030585E-05 -3.38052384635173167E-05 -3.46609968529958777E-05
 -3.55384175722761182E-05 -3.64380489393520545E-05 -3.73604531495446365E-05
 -3.83062066266330015E-05 -3.92759003828661236E-05 -4.02701403880783247E-05
 -4.12895479481392317E-05 -4.23347600929742501E-05 -4.34064299743959630E-05
 -4.45052272739962146E-05 -4.56318386213509216E-05 -4.67869680227999757E-05
 -4.79713373010679547E-05 -4.91856865459997357E-05 -5.04307745766921573E-05
 -5.17073794153085159E-05 -5.30162987728719504E-05 -5.43583505473393220E-05
 -5.57343733342657155E-05 -5.71452269503778049E-05 -5.85917929703812682E-05
 -6.00749752773369386E-05 -6.15957006269476893E-05 -6.31549192261067439E-05
 -6.47536053260683179E-05 -6.63927578306081870E-05 -6.80734009195532768E-05
 -6.97965846880680563E-05 -7.15633858020939723E-05 -7.33749081703508852E-05
 -7.52322836333169884E-05 -7.71366726696158652E-05 -7.90892651202499330E-05
 -8.10912809311288102E-05 -8.31439709143558849E-05 -8.52486175287436702E-05
 -8.74065356800443047E-05 -8.96190735413912625E-05 -9.18876133944610207E-05
 -9.42135724918783670E-05 -9.65984039413981789E-05 -9.90435976124142195E-05
 -1.01550681065356416E-04 -1.04121220504552160E-04 -1.06756821755144663E-04
 -1.09459131264670584E-04 -1.12229837129921561E-04 -1.15070670149722845E-04
 -1.17983404904282153E-04 -1.20969860861778401E-04 -1.24031903512873194E-04
 -1.27171445533849647E-04 -1.30390447979097940E-04 -1.33690921503682526E-04
 -1.37074927616753290E-04 -1.40544579966569115E-04 -1.44102045657932822E-04
 -1.47749546602850653E-04 -1.51489360905249627E-04 -1.55323824280609795E-04
 -1.59255331511387100E-04 -1.63286337939125585E-04 -1.67419360994180245E-04
 -1.71656981763993003E-04 -1.76001846600891236E-04 -1.80456668770397576E-04
 -1.85024230141068741E-04 -1.89707382916904082E-04 -1.94509051413389622E-04
 -1.99432233878273177E-04 -2.04480004358189178E-04 -2.09655514612281686E-04
 -2.14961996074004288E-04 -2.20402761862298585E-04 -2.25981208843392819E-04
 -2.31700819744479918E-04 -2.37565165320579132E-04 -2.43577906575904735E-04
 -2.49742797041109445E-04 -2.56063685107794068E-04 -2.62544516421716397E-04
 -2.69189336336163050E-04 -2.76002292426987211E-04 -2.82987637070850127E-04
 -2.90149730088241670E-04 -2.97493041452895715E-04 -3.05022154069255788E-04
 -3.12741766619683594E-04 -3.20656696483148445E-04 -3.28771882727177270E-04
 -3.37092389174885505E-04 -3.45623407548958212E-04 -3.54370260694490311E-04
 -3.63338405882651541E-04 -3.72533438197174055E-04 -3.81961094005726107E-04
 -3.91627254518272638E-04 -4.01537949434579663E-04 -4.11699360683075383E-04
 -4.22117826253323746E-04 -4.32799844124432775E-04 -4.43752076291767557E-04
 -4.54981352894399547E-04 -4.66494676445780706E-04 -4.78299226170190062E-04
 -4.90402362447560814E-04 -5.02811631369367846E-04 -5.15534769408299335E-04
 -5.28579708204526973E-04 -5.41954579471435010E-04 -5.55667720023747037E-04
 -5.69727676931060592E-04 -5.84143212799861249E-04 -5.98923311187176408E-04
 -6.14077182149087028E-04 -6.29614267927400013E-04 -6.45544248777868380E-04
 -6.61877048943407330E-04 -6.78622842775860420E-04 -6.95792061009924958E-04
 -7.13395397192958776E-04 -7.31443814274452902E-04 -7.49948551359057433E-04
 -7.68921130627139848E-04 -7.88373364426928503E-04 -8.08317362542414295E-04
 -8.28765539641255914E-04 -8.49730622907048463E-04 -8.71225659860404050E-04
 -8.93264026373405038E-04 -9.15859434882078252E-04 -9.39025942801668240E-04
 -9.62777961149569169E-04 -9.87130263380907921E-04 -1.01209799444186739E-03
 -1.03769668004595646E-03 -1.06394223617856066E-03 -1.09085097883521013E-03
 -1.11843963399912527E-03 -1.14672534786374423E-03 -1.17572569730602160E-03
 -1.20545870061645696E-03 -1.23594282849191013E-03 -1.26719701529741380E-03
 -1.29924067060330781E-03 -1.33209369100417111E-03 -1.36577647222616634E-03
 -1.40030992152953473E-03 -1.43571547041314025E-03 -1.47201508762810434E-03
 -1.50923129250770424E-03 -1.54738716862088473E-03 -1.58650637775684849E-03
 -1.62661317424838336E-03 -1.66773241964170843E-03 -1.70988959772078761E-03
 -1.75311082989424035E-03 -1.79742289095309376E-03 -1.84285322520784021E-03
 -1.88942996301338147E-03 -1.93718193769063093E-03 -1.98613870285372371E-03
 -2.03633055015190996E-03 -2.08778852743544832E-03 -2.14054445735491509E-03
 -2.19463095640356869E-03 -2.25008145441257020E-03 -2.30693021450902643E-03
 -2.36521235354701783E-03 -2.42496386302193086E-03 -2.48622163047859668E-03
 -2.54902346142395425E-03 -2.61340810175505513E-03 -2.67941526071348128E-03
 -2.74708563437740371E-03 -2.81646092970263325E-03 -2.88758388912430672E-03
 -2.96049831573088566E-03 -3.03524909902243289E-03 -3.11188224126525848E-03
 -3.19044488445516770E-03 -3.27098533790177960E-03 -3.35355310644647707E-03
 -3.43819891932677308E-03 -3.52497475969996456E-03 -3.61393389483918555E-03
 -3.70513090701501393E-03 -3.79862172507604116E-03 -3.89446365674184225E-03
 -3.99271542162199251E-03 -4.09343718497486627E-03 -4.19669059222003808E-03
 -4.30253880421830031E-03 -4.41104653333328819E-03 -4.52228008028887803E-03
 -4.63630737183657552E-03 -4.75319799924712495E-03 -4.87302325764071669E-03
 -4.99585618617005237E-03 -5.12177160907073981E-03 -5.25084617759329336E-03
 -5.38315841283113286E-03 -5.51878874945890569E-03 -5.65781958039535994E-03
 -5.80033530240492163E-03 -5.94642236265211389E-03 -6.09616930622269067E-03
 -6.24966682462530648E-03 -6.40700780528730401E-03 -6.56828738205800840E-03
 -6.73360298673264697E-03 -6.90305440160976416E-03 -7.07674381309460285E-03
 -7.25477586636066787E-03 -7.43725772108119569E-03 -7.62429910824180199E-03
 -7.81601238804515049E-03 -8.01251260891789989E-03 -8.21391756762952091E-03
 -8.42034787053199882E-03 -8.63192699592869005E-03 -8.84878135757979391E-03
 -9.07104036935103310E-03 -9.29883651101128146E-03 -9.53230539518374990E-03
 -9.77158583545441328E-03 -1.00168199156400097E-02 -1.02681530602168076E-02
 -1.05257341059100448E-02 -1.07897153744421388E-02 -1.10602527464367349E-02
 -1.13375057364734754E-02 -1.16216375692868804E-02 -1.19128152571007159E-02
 -1.22112096780871721E-02 -1.25169956559379476E-02 -1.28303520405319855E-02
 -1.31514617896823383E-02 -1.34805120519416299E-02 -1.38176942504430345E-02
 -1.41632041677504494E-02 -1.45172420316885299E-02 -1.48800126021198138E-02
 -1.52517252586324269E-02 -1.56325940890982874E-02 -1.60228379790573507E-02
 -1.64226807018794524E-02 -1.68323510096504668E-02 -1.72520827247248931E-02
 -1.76821148318817706E-02 -1.81226915710153390E-02 -1.85740625302864490E-02
 -1.90364827396543139E-02 -1.95102127647020125E-02 -1.99955188006625539E-02
 -2.04926727665449178E-02 -2.10019523992522189E-02 -2.15236413475760890E-02
 -2.20580292659432360E-02 -2.26054119077811790E-02 -2.31660912183609298E-02
 -2.37403754269647493E-02 -2.43285791382169651E-02 -2.49310234224046010E-02
 -2.55480359046039059E-02 -2.61799508524164087E-02 -2.68271092621057902E-02
 -2.74898589429137460E-02 -2.81685545993189124E-02 -2.88635579109896533E-02
 -2.95752376101646904E-02 -3.03039695561799563E-02 -3.10501368068442744E-02
 -3.18141296863476697E-02 -3.25963458493689559E-02 -3.33971903410290386E-02
 -3.42170756523167904E-02 -3.50564217705929965E-02 -3.59156562247561692E-02
 -3.67952141246305486E-02 -3.76955381941126225E-02 -3.86170787975878838E-02
 -3.95602939591023148E-02 -4.05256493737464127E-02 -4.15136184106806444E-02
 -4.25246821072015821E-02 -4.35593291532162183E-02 -4.46180558654607345E-02
 -4.57013661507649216E-02 -4.68097714576294829E-02 -4.79437907153457132E-02
 -4.91039502598507663E-02 -5.02907837454701009E-02 -5.15048320416596830E-02
 -5.27466431138169031E-02 -5.40167718871852401E-02 -5.53157800928318760E-02
 -5.66442360946291870E-02 -5.80027146961276940E-02 -5.93917969261491124E-02
 -6.08120698018803155E-02 -6.22641260681942033E-02 -6.37485639118678116E-02
 -6.52659866493109780E-02 -6.68170023863589174E-02 -6.84022236486219043E-02
 -7.00222669808221454E-02 -7.16777525134843913E-02 -7.33693034952807160E-02
 -7.50975457892627402E-02 -7.68631073311458607E-02 -7.86666175477398755E-02
 -8.05087067335482770E-02 -8.23900053834872304E-02 -8.43111434795994347E-02
 -8.62727497295648210E-02 -8.82754507547338918E-02 -9.03198702253323049E-02
 -9.24066279404105462E-02 -9.45363388500332635E-02 -9.67096120171281604E-02
 -9.89270495163356856E-02 -1.01189245267126235E-01 -1.03496783798376485E-01
 -1.05850238941519306E-01 -1.08250172449314577E-01 -1.10697132537226295E-01
 -1.13191652344304866E-01 -1.15734248310422297E-01 -1.18325418466647972E-01
 -1.20965640635497043E-01 -1.23655370537733664E-01 -1.26395039802368159E-01
 -1.29185053876450157E-01 -1.32025789831234364E-01 -1.34917594061271934E-01
 -1.37860779872975153E-01 -1.40855624959203701E-01 -1.43902368756435750E-01
 -1.47001209681115630E-01 -1.50152302241815472E-01 -1.53355754023907664E-01
 -1.56611622543526535E-01 -1.59919911967698392E-01 -1.63280569697641542E-01
 -1.66693482812387522E-01 -1.70158474370048607E-01 -1.73675299564261615E-01
 -1.77243641733574597E-01 -1.80863108221813590E-01 -1.84533226087775559E-01
 -1.88253437662939976E-01 -1.92023095956290496E-01 -1.95841459905773646E-01
 -1.99707689476405714E-01 -2.03620840605589298E-01 -2.07579859996805671E-01
 -2.11583579763510110E-01 -2.15630711925791058E-01 -2.19719842763156314E-01
 -2.23849427027686010E-01 -2.28017782022753912E-01 -2.32223081553561667E-01
 -2.36463349756863866E-01 -2.40736454818497564E-01 -2.45040102588656661E-01
 -2.49371830106295739E-01 -2.53728999045594594E-01 -2.58108789099089797E-01
 -2.62508191313867212E-01 -2.66924001399137412E-01 -2.71352813025567241E-01
 -2.75791011138945219E-01 -2.80234765313095546E-01 -2.84680023169453567E-01
 -2.89122503893360749E-01 -2.93557691879951677E-01 -2.97980830545480357E-01
 -3.02386916343151346E-01 -3.06770693025525176E-01 -3.11126646199369139E-01
 -3.15448998222421895E-01 -3.19731703495260533E-01 -3.23968444205498640E-01
 -3.28152626585682228E-01 -3.32277377750578751E-01 -3.36335543184006769E-01
 -3.40319684949975554E-01 -3.44222080707639599E-01 -3.48034723614431052E-01
 -3.51749323206691833E-01 -3.55357307352169416E-01 -3.58849825373812381E-01
 -3.62217752449437325E-01 -3.65451695396918852E-01 -3.68541999959627165E-01
 -3.71478759711788176E-01 -3.74251826708261515E-01 -3.76850824007857910E-01
 -3.79265160203664964E-01 -3.81484046097878726E-01 -3.83496513662252514E-01
 -3.85291437428377959E-01 -3.86857558454627548E-01 -3.88183511018828031E-01
 -3.89257852184703934E-01 -3.90069094392517413E-01 -3.90605741222865233E-01
 -3.90856326479665561E-01 -3.90809456735014438E-01 -3.90453857473404220E-01
 -3.89778422965849247E-01 -3.88772269995586783E-01 -3.87424795545991796E-01
 -3.85725738547960439E-01 -3.83665245768033736E-01 -3.81233941899711992E-01
 -3.78423003898529287E-01 -3.75224239576209928E-01 -3.71630170440412244E-01
 -3.67634118733859205E-01 -3.63230298589839573E-01 -3.58413911179836120E-01
 -3.53181243683166557E-01 -3.47529771857746028E-01 -3.41458265935164540E-01
 -3.34966899502014692E-01 -3.28057360962609068E-01 -3.20732967105749944E-01
 -3.12998778220440144E-01 -3.04861714121061611E-01 -2.96330670348786074E-01
 -2.87416633727677229E-01 -2.78132796348273148E-01 -2.68494666945060245E-01
 -2.58520178523168609E-01 -2.48229790973762771E-01 -2.37646587298011913E-01
 -2.26796361937057989E-01 -2.15707699581091233E-01 -2.04412042705698682E-01
 -1.92943745959551299E-01 -1.81340115405948021E-01 -1.69641430503658902E-01
 -1.57890946602260052E-01 -1.46134875626157734E-01 -1.34422342532778211E-01
 -1.22805315057046296E-01 -1.11338504199931812E-01 -1.00079232887394079E-01
 -8.90872702217442580E-02 -7.84246287749448823E-02 -6.81553224375708588E-02
 -5.83450824433495302E-02 -4.90610293427470590E-02 -4.03712989007119633E-02
 -3.23446201737350170E-02 -2.50498443500358145E-02 -1.85554233223364680E-02
 -1.29288374459161984E-02 -8.23597229018921233E-03 -4.54044152457605630E-03
 -1.90280104450110980E-03 -3.78776657696866471E-04  7.10800583598152447E-06
  5.09725754351744621E-07  3.60222422613166466E-08  2.50915570182881147E-09
  1.72214344696165226E-10  1.16368063447418983E-11  7.73030578803003375E-13
  5.03724783356360747E-14  3.20904739437042197E-15  1.98861829579340693E-16
  1.18923272288629393E-17  6.77191407218586812E-19  3.58083261784794447E-20
  1.66163846526911762E-21  5.63110224472347460E-23 -1.96291204949584808E-25
 -2.90854682317897062E-25 -3.86816911083962836E-26 -3.90728309769931488E-27
 -3.51140676298603465E-28 -2.95337057701641689E-29 -2.37801424944329904E-30
 -1.85511035827832347E-31 -1.41194755446945533E-32 -1.05301851709891198E-33
 -7.71627552434789522E-35 -5.56506765816015918E-36  0.00000000000000000E+00
  0.00000000000000000E+00  0.00000000000000000E+00  0.00000000000000000E+00
  0.00000000000000000E+00  0.00000000000000000E+00  0.00000000000000000E+00
  0.00000000000000000E+00  0.00000000000000000E+00  0.00000000000000000E+00
  0.00000000000000000E+00  0.00000000000000000E+00  0.00000000000000000E+00
  0.00000000000000000E+00  0.00000000000000000E+00  0.00000000000000000E+00
  0.00000000000000000E+00  0.00000000000000000E+00  0.00000000000000000E+00
  0.00000000000000000E+00  0.00000000000000000E+00  0.00000000000000000E+00
  0.00000000000000000E+00  0.00000000000000000E+00  0.00000000000000000E+00
  0.00000000000000000E+00  0.00000000000000000E+00  0.00000000000000000E+00
  0.00000000000000000E+00  0.00000000000000000E+00  0.00000000000000000E+00
  0.00000000000000000E+00  0.00000000000000000E+00  0.00000000000000000E+00
  0.00000000000000000E+00  0.00000000000000000E+00  0.00000000000000000E+00
  0.00000000000000000E+00  0.00000000000000000E+00  0.00000000000000000E+00
  0.00000000000000000E+00  0.00000000000000000E+00  0.00000000000000000E+00
  0.00000000000000000E+00  0.00000000000000000E+00  0.00000000000000000E+00
  0.00000000000000000E+00  0.00000000000000000E+00  0.00000000000000000E+00
  0.00000000000000000E+00  0.00000000000000000E+00  0.00000000000000000E+00
  0.00000000000000000E+00  0.00000000000000000E+00  0.00000000000000000E+00
  0.00000000000000000E+00  0.00000000000000000E+00  0.00000000000000000E+00
  0.00000000000000000E+00  0.00000000000000000E+00  0.00000000000000000E+00
  0.00000000000000000E+00  0.00000000000000000E+00  0.00000000000000000E+00
  0.00000000000000000E+00  0.00000000000000000E+00  0.00000000000000000E+00
  0.00000000000000000E+00  0.00000000000000000E+00  0.00000000000000000E+00
  0.00000000000000000E+00  0.00000000000000000E+00  0.00000000000000000E+00
  0.00000000000000000E+00  0.00000000000000000E+00  0.00000000000000000E+00
  0.00000000000000000E+00  0.00000000000000000E+00  0.00000000000000000E+00
  0.00000000000000000E+00  0.00000000000000000E+00  0.00000000000000000E+00
  0.00000000000000000E+00  0.00000000000000000E+00  0.00000000000000000E+00
  0.00000000000000000E+00  0.00000000000000000E+00  0.00000000000000000E+00
  0.00000000000000000E+00  0.00000000000000000E+00  0.00000000000000000E+00
  0.00000000000000000E+00  0.00000000000000000E+00  0.00000000000000000E+00
  0.00000000000000000E+00  0.00000000000000000E+00  0.00000000000000000E+00
  0.00000000000000000E+00  0.00000000000000000E+00  0.00000000000000000E+00
  0.00000000000000000E+00  0.00000000000000000E+00  0.00000000000000000E+00
  0.00000000000000000E+00  0.00000000000000000E+00  0.00000000000000000E+00
  0.00000000000000000E+00  0.00000000000000000E+00  0.00000000000000000E+00
  0.00000000000000000E+00  0.00000000000000000E+00  0.00000000000000000E+00
  0.00000000000000000E+00  0.00000000000000000E+00  0.00000000000000000E+00
  0.00000000000000000E+00  0.00000000000000000E+00  0.00000000000000000E+00
  0.00000000000000000E+00  0.00000000000000000E+00  0.00000000000000000E+00
  0.00000000000000000E+00  0.00000000000000000E+00  0.00000000000000000E+00
  0.00000000000000000E+00  0.00000000000000000E+00  0.00000000000000000E+00
  0.00000000000000000E+00  0.00000000000000000E+00  0.00000000000000000E+00
  0.00000000000000000E+00  0.00000000000000000E+00  0.00000000000000000E+00
  0.00000000000000000E+00  0.00000000000000000E+00  0.00000000000000000E+00
  0.00000000000000000E+00  0.00000000000000000E+00  0.00000000000000000E+00
  0.00000000000000000E+00  0.00000000000000000E+00  0.00000000000000000E+00
  0.00000000000000000E+00  0.00000000000000000E+00  0.00000000000000000E+00
  0.00000000000000000E+00  0.00000000000000000E+00  0.00000000000000000E+00
  0.00000000000000000E+00  0.00000000000000000E+00  0.00000000000000000E+00
  0.00000000000000000E+00  0.00000000000000000E+00  0.00000000000000000E+00
  0.00000000000000000E+00  0.00000000000000000E+00  0.00000000000000000E+00
  0.00000000000000000E+00  0.00000000000000000E+00  0.00000000000000000E+00
  0.00000000000000000E+00  0.00000000000000000E+00  0.00000000000000000E+00
                       </PP_QIJL.1.2.0>
 <PP_QIJL.1.3.1 type="real" size="   999" columns="3" first_index=" 1" second_index=" 3" composite_index=" 4" angular_momentum="1">
 -3.13059853875914951E-13 -3.25022496053878889E-13 -3.37442254676953006E-13
 -3.50336597077215170E-13 -3.63723658048373783E-13 -3.77622265350812301E-13
 -3.92051966191228711E-13 -4.07033054714102641E-13 -4.22586600543688819E-13
 -4.38734478416657553E-13 -4.55499398947027237E-13 -4.72904940566708565E-13
 -4.90975582686572575E-13 -5.09736740124647357E-13 -5.29214798849883076E-13
 -5.49437153091776159E-13 -5.70432243868025210E-13 -5.92229598984374036E-13
 -6.14859874562963986E-13 -6.38354898157573328E-13 -6.62747713516323225E-13
 -6.88072627054904874E-13 -7.14365256105644162E-13 -7.41662579010214084E-13
 -7.70002987126529628E-13 -7.99426338822929344E-13 -8.29974015535548113E-13
 -8.61688979967782662E-13 -8.94615836513690314E-13 -9.28800893990232911E-13
 -9.64292230766687011E-13 -1.00113976238279135E-12 -1.03939531175064577E-12
 -1.07911268203925851E-12 -1.12034773234410839E-12 -1.16315845624815316E-12
 -1.20760506338491535E-12 -1.25375006411814604E-12 -1.30165835745732563E-12
 -1.35139732233262500E-12 -1.40303691235753539E-12 -1.45664975421273828E-12
 -1.51231124978928135E-12 -1.57009968223490166E-12 -1.63009632605264851E-12
 -1.69238556140642975E-12 -1.75705499279461318E-12 -1.82419557225819365E-12
 -1.89390172729711330E-12 -1.96627149367448717E-12 -2.04140665329546854E-12
 -2.11941287735489858E-12 -2.20039987495470956E-12 -2.28448154740051107E-12
 -2.37177614839396181E-12 -2.46240645034656018E-12 -2.55649991704849232E-12
 -2.65418888293562201E-12 -2.75561073920651625E-12 -2.86090812705147204E-12
 -2.97022913826512093E-12 -3.08372752352488535E-12 -3.20156290862819940E-12
 -3.32390101899248467E-12 -3.45091391273387696E-12 -3.58278022265214228E-12
 -3.71968540746252909E-12 -3.86182201262753177E-12 -4.00938994115564526E-12
 -4.16259673474786690E-12 -4.32165786568728883E-12 -4.48679703988249679E-12
 -4.65824651149072038E-12 -4.83624740956351714E-12 -5.02105007717406444E-12
 -5.21291442350336247E-12 -5.41211028938010420E-12 -5.61891782678888754E-12
 -5.83362789287982119E-12 -6.05654245903434928E-12 -6.28797503556204709E-12
 -6.52825111262600167E-12 -6.77770861801699157E-12 -7.03669839241974068E-12
 -7.30558468284054446E-12 -7.58474565488927626E-12 -7.87457392463693302E-12
 -8.17547711079662405E-12 -8.48787840800411734E-12 -8.81221718200504139E-12
 -9.14894958758500439E-12 -9.49854921011210254E-12 -9.86150773159429106E-12
 -1.02383356221878037E-11 -1.06295628581296775E-11 -1.10357396671038439E-11
 -1.14574373020891034E-11 -1.18952488447773250E-11 -1.23497900396920642E-11
 -1.28217001601803282E-11 -1.33116429074953603E-11 -1.38203073442357307E-11
 -1.43484088634525352E-11 -1.48966901947880583E-11 -1.54659224490614661E-11
 -1.60569062027696122E-11 -1.66704726240290350E-11 -1.73074846415423561E-11
 -1.79688381582333198E-11 -1.86554633112572383E-11 -1.93683257801584054E-11
 -2.01084281450154431E-11 -2.08768112964838112E-11 -2.16745558997187466E-11
 -2.25027839142376502E-11 -2.33626601718592330E-11 -2.42553940149391331E-11
 -2.51822409972055756E-11 -2.61445046495872633E-11 -2.71435383135170552E-11
 -2.81807470442896747E-11 -2.92575895871507724E-11 -3.03755804288958203E-11
 -3.15362919278649588E-11 -3.27413565253290129E-11 -3.39924690413765572E-11
 -3.52913890585319098E-11 -3.66399433964554748E-11 -3.80400286812072633E-11
 -3.94936140126873573E-11 -4.10027437340035382E-11 -4.25695403066629117E-11
 -4.41962072956296862E-11 -4.58850324684479398E-11 -4.76383910127877776E-11
 -4.94587488769408489E-11 -5.13486662379612778E-11 -5.33108011023325993E-11
 -5.53479130442221922E-11 -5.74628670865818560E-11 -5.96586377305534566E-11
 -6.19383131388445375E-11 -6.43050994789602609E-11 -6.67623254323979267E-11
 -6.93134468761465284E-11 -7.19620517430762653E-11 -7.47118650680512995E-11
 -7.75667542268659511E-11 -8.05307343753696789E-11 -8.36079740964317363E-11
 -8.68028012626882203E-11 -9.01197091233136314E-11 -9.35633626233821409E-11
 -9.71386049647024093E-11 -1.00850464417354459E-10 -1.04704161391510157E-10
 -1.08705115779478227E-10 -1.12858954578306008E-10 -1.17171519803653682E-10
 -1.21648876706072878E-10 -1.26297322301246601E-10 -1.31123394226182318E-10
 -1.36133879933820759E-10 -1.41335826238985799E-10 -1.46736549229103898E-10
 -1.52343644553632602E-10 -1.58164998106663237E-10 -1.64208797117730333E-10
 -1.70483541666419726E-10 -1.76998056636971851E-10 -1.83761504129693994E-10
 -1.90783396346632810E-10 -1.98073608969635651E-10 -2.05642395049611650E-10
 -2.13500399426526032E-10 -2.21658673700413752E-10 -2.30128691774456312E-10
 -2.38922365991994413E-10 -2.48052063890162604E-10 -2.57530625593712123E-10
 -2.67371381873486253E-10 -2.77588172894937793E-10 -2.88195367683067053E-10
 -2.99207884331148614E-10 -3.10641210981667849E-10 -3.22511427608986015E-10
 -3.34835228634348800E-10 -3.47629946405065409E-10 -3.60913575570863035E-10
 -3.74704798391708018E-10 -3.89023011012689756E-10 -4.03888350742905828E-10
 -4.19321724376726271E-10 -4.35344837597265231E-10 -4.51980225503412292E-10
 -4.69251284303357529E-10 -4.87182304219168796E-10 -5.05798503648729239E-10
 -5.25126064633055517E-10 -5.45192169678877842E-10 -5.66025039988286905E-10
 -5.87653975149190459E-10 -6.10109394342423020E-10 -6.33422879123433787E-10
 -6.57627217838757649E-10 -6.82756451739705309E-10 -7.08845922858120061E-10
 -7.35932323711581904E-10 -7.64053748907907061E-10 -7.93249748721540198E-10
 -8.23561384717222377E-10 -8.55031287499082750E-10 -8.87703716666456933E-10
 -9.21624623060714235E-10 -9.56841713390601692E-10 -9.93404517327089489E-10
 -1.03136445716195744E-09 -1.07077492012817992E-09 -1.11169133348380272E-09
 -1.15417124246484633E-09 -1.19827439121697991E-09 -1.24406280681965210E-09
 -1.29160088652096106E-09 -1.34095548830590542E-09 -1.39219602492533721E-09
 -1.44539456151800046E-09 -1.50062591696272539E-09 -1.55796776910358162E-09
 -1.61750076399571820E-09 -1.67930862932574333E-09 -1.74347829216602009E-09
 -1.81010000122850712E-09 -1.87926745379014144E-09 -1.95107792746817874E-09
 -2.02563241703089040E-09 -2.10303577643596539E-09 -2.18339686629639853E-09
 -2.26682870698124940E-09 -2.35344863756661756E-09 -2.44337848086028246E-09
 -2.53674471473224917E-09 -2.63367864999194939E-09 -2.73431661506241950E-09
 -2.83880014771113149E-09 -2.94727619410702119E-09 -3.05989731548384015E-09
 -3.17682190270021032E-09 -3.29821439899848289E-09 -3.42424553127519919E-09
 -3.55509255018898757E-09 -3.69093947944292595E-09 -3.83197737459250997E-09
 -3.97840459174283420E-09 -4.13042706651292144E-09 -4.28825860365980996E-09
 -4.45212117776908315E-09 -4.62224524543549700E-09 -4.79887006937201368E-09
 -4.98224405490343361E-09 -5.17262509931795220E-09 -5.37028095456731051E-09
 -5.57548960382651355E-09 -5.78853965244188043E-09 -6.00973073381753307E-09
 -6.23937393081144688E-09 -6.47779221323284925E-09 -6.72532089205707383E-09
 -6.98230809099624974E-09 -7.24911523608863819E-09 -7.52611756399595977E-09
 -7.81370464972280583E-09 -8.11228095450029383E-09 -8.42226639460501038E-09
 -8.74409693191262294E-09 -9.07822518701649795E-09 -9.42512107577428422E-09
 -9.78527247017701758E-09 -1.01591858844697087E-08 -1.05473871874895213E-08
 -1.09504223422223022E-08 -1.13688581736170746E-08 -1.18032831657396506E-08
 -1.22543082893852337E-08 -1.27225678613137310E-08 -1.32087204363167969E-08
 -1.37134497333707518E-08 -1.42374655971774892E-08 -1.47815049964452002E-08
 -1.53463330603141167E-08 -1.59327441543833176E-08 -1.65415629978515239E-08
 -1.71736458233441040E-08 -1.78298815810564425E-08 -1.85111931889067551E-08
 -1.92185388304560822E-08 -1.99529133024214428E-08 -2.07153494136767327E-08
 -2.15069194377074611E-08 -2.23287366205625351E-08 -2.31819567464241849E-08
 -2.40677797629962045E-08 -2.49874514689965699E-08 -2.59422652661262212E-08
 -2.69335639779796198E-08 -2.79627417384531210E-08 -2.90312459523061748E-08
 -3.01405793306325014E-08 -3.12923020041033818E-08 -3.24880337169551035E-08
 -3.37294561048040717E-08 -3.50183150594925841E-08 -3.63564231842904247E-08
 -3.77456623429054043E-08 -3.91879863058856222E-08 -4.06854234981347584E-08
 -4.22400798514021302E-08 -4.38541417657599561E-08 -4.55298791842308001E-08
 -4.72696487848883495E-08 -4.90758972949187594E-08 -5.09511649313014726E-08
 -5.28980889729479648E-08 -5.49194074693206779E-08 -5.70179630907456832E-08
 -5.91967071258320845E-08 -6.14587036316171983E-08 -6.38071337422729211E-08
 -6.62453001424309971E-08 -6.87766317114156726E-08 -7.14046883449130234E-08
 -7.41331659608533660E-08 -7.69659016965467187E-08 -7.99068793043743015E-08
 -8.29602347536228403E-08 -8.61302620463385670E-08 -8.94214192553716738E-08
 -9.28383347931021026E-08 -9.63858139196583697E-08 -1.00068845499774666E-07
 -1.03892609017788447E-07 -1.07862481860635795E-07 -1.11984046879084092E-07
 -1.16263100237828567E-07 -1.20705659565484466E-07 -1.25317972415935412E-07
 -1.30106525052922975E-07 -1.35078051570231328E-07 -1.40239543360281494E-07
 -1.45598258944443629E-07 -1.51161734178884705E-07 -1.56937792850290939E-07
 -1.62934557676359306E-07 -1.69160461726518521E-07 -1.75624260278922948E-07
 -1.82335043130391453E-07 -1.89302247376579710E-07 -1.96535670680356293E-07
 -2.04045485047019074E-07 -2.11842251125709969E-07 -2.19936933057127357E-07
 -2.28340913888392476E-07 -2.37066011576736396E-07 -2.46124495604488328E-07
 -2.55529104228709158E-07 -2.65293062389710229E-07 -2.75430100303611830E-07
 -2.85954472765069869E-07 -2.96880979187282108E-07 -3.08224984407425088E-07
 -3.20002440286758204E-07 -3.32229908135726113E-07 -3.44924581995567893E-07
 -3.58104312809136781E-07 -3.71787633514869466E-07 -3.85993785099168655E-07
 -4.00742743643772911E-07 -4.16055248406112913E-07 -4.31952830972090952E-07
 -4.48457845522212592E-07 -4.65593500253591572E-07 -4.83383890001936430E-07
 -5.01854030109337784E-07 -5.21029891585411975E-07 -5.40938437611159120E-07
 -5.61607661436808217E-07 -5.83066625726837098E-07 -6.05345503407418133E-07
 -6.28475620073632012E-07 -6.52489498015970509E-07 -6.77420901927945743E-07
 -7.03304886358945822E-07 -7.30177844978961087E-07 -7.58077561724310489E-07
 -7.87043263896147269E-07 -8.17115677286276902E-07 -8.48337083407620357E-07
 -8.80751378909653475E-07 -9.14404137262183016E-07 -9.49342672793980687E-07
 -9.85616107176169109E-07 -1.02327543844357661E-06 -1.06237361265091070E-06
 -1.10296559826426645E-06 -1.14510846339228653E-06 -1.18886145596531517E-06
 -1.23428608697497655E-06 -1.28144621689090911E-06 -1.33040814537582535E-06
 -1.38124070442468798E-06 -1.43401535505859272E-06 -1.48880628770888746E-06
 -1.54569052643226444E-06 -1.60474803710288480E-06 -1.66606183973316756E-06
 -1.72971812508066203E-06 -1.79580637570438155E-06 -1.86441949164023067E-06
 -1.93565392087159444E-06 -2.00960979477784428E-06 -2.08639106875052439E-06
 -2.16610566817411368E-06 -2.24886563997585073E-06 -2.33478730995677421E-06
 -2.42399144612433945E-06 -2.51660342825518637E-06 -2.61275342392548506E-06
 -2.71257657125517959E-06 -2.81621316862191800E-06 -2.92380887161011990E-06
 -3.03551489747070693E-06 -3.15148823737755204E-06 -3.27189187677753700E-06
 -3.39689502414234959E-06 -3.52667334844194064E-06 -3.66140922567161635E-06
 -3.80129199477742495E-06 -3.94651822333752396E-06 -4.09729198337079795E-06
 -4.25382513765818172E-06 -4.41633763697656727E-06 -4.58505782866055977E-06
 -4.76022277692297644E-06 -4.94207859538130463E-06 -5.13088079225443776E-06
 -5.32689462871138674E-06 -5.53039549087213050E-06 -5.74166927597957587E-06
 -5.96101279328136011E-06 -6.18873418018054553E-06 -6.42515333423549828E-06
 -6.67060236161110094E-06 -6.92542604260649934E-06 -7.18998231490777430E-06
 -7.46464277523904659E-06 -7.74979320011045882E-06 -8.04583408638822430E-06
 -8.35318121243920686E-06 -8.67226622063096144E-06 -9.00353722199768844E-06
 -9.34745942391310464E-06 -9.70451578164299073E-06 -1.00752076746832864E-05
 -1.04600556088233913E-05 -1.08595999449103715E-05 -1.12744016553258110E-05
 -1.17050431092259708E-05 -1.21521288876348160E-05 -1.26162866295209815E-05
 -1.30981679100321992E-05 -1.35984491521046769E-05 -1.41178325727111017E-05
 -1.46570471650580687E-05 -1.52168497180933590E-05 -1.57980258747343655E-05
 -1.64013912302821297E-05 -1.70277924725402110E-05 -1.76781085652150310E-05
 -1.83532519762329311E-05 -1.90541699526710236E-05 -1.97818458440620883E-05
 -2.05373004758998683E-05 -2.13215935752395835E-05 -2.21358252503591858E-05
 -2.29811375265203425E-05 -2.38587159399447605E-05 -2.47697911921996599E-05
 -2.57156408672691414E-05 -2.66975912136719811E-05 -2.77170189940756121E-05
 -2.87753534049460424E-05 -2.98740780688690258E-05 -3.10147331022754641E-05
 -3.21989172614054611E-05 -3.34282901694508850E-05 -3.47045746279258139E-05
 -3.60295590154265021E-05 -3.74050997770607237E-05 -3.88331240079467461E-05
 -4.03156321343090795E-05 -4.18547006958277720E-05 -4.34524852330331397E-05
 -4.51112232836787394E-05 -4.68332374921686621E-05 -4.86209388362673529E-05
 -5.04768299754741200E-05 -5.24035087256064603E-05 -5.44036716643034134E-05
 -5.64801178723317696E-05 -5.86357528157587364E-05 -6.08735923742384049E-05
 -6.31967670208516684E-05 -6.56085261591388407E-05 -6.81122426231681259E-05
 -7.07114173466980614E-05 -7.34096842077100757E-05 -7.62108150548171127E-05
 -7.91187249222906770E-05 -8.21374774406900680E-05 -8.52712904503335881E-05
 -8.85245418251115462E-05 -9.19017755144098646E-05 -9.54077078111967964E-05
 -9.90472338546097649E-05 -1.02825434375682280E-04 -1.06747582695159525E-04
 -1.10819151982669055E-04 -1.15045822786847437E-04 -1.19433490846362097E-04
 -1.23988275192123815E-04 -1.28716526551348305E-04 -1.33624836064504459E-04
 -1.38720044326575559E-04 -1.44009250764463241E-04 -1.49499823362779120E-04
 -1.55199408750700051E-04 -1.61115942663004816E-04 -1.67257660788868259E-04
 -1.73633110022463846E-04 -1.80251160129909664E-04 -1.87121015847598136E-04
 -1.94252229427470277E-04 -2.01654713645326648E-04 -2.09338755288825183E-04
 -2.17315029142377600E-04 -2.25594612486752473E-04 -2.34189000131786472E-04
 -2.43110120001239761E-04 -2.52370349289466895E-04 -2.61982531210233692E-04
 -2.71959992358693269E-04 -2.82316560708237719E-04 -2.93066584264654482E-04
 -3.04224950400765811E-04 -3.15807105895484744E-04 -3.27829077702008207E-04
 -3.40307494470671094E-04 -3.53259608852811565E-04 -3.66703320612847268E-04
 -3.80657200576632192E-04 -3.95140515445061675E-04 -4.10173253502800950E-04
 -4.25776151252963873E-04 -4.41970721009524029E-04 -4.58779279480226484E-04
 -4.76224977373781923E-04 -4.94331830066154138E-04 -5.13124749361813163E-04
 -5.32629576386894009E-04 -5.52873115652320027E-04 -5.73883170326058346E-04
 -5.95688578754833046E-04 -6.18319252276782892E-04 -6.41806214367747485E-04
 -6.66181641165076825E-04 -6.91478903414074596E-04 -7.17732609883465567E-04
 -7.44978652297516764E-04 -7.73254251833741923E-04 -8.02598007236422035E-04
 -8.33049944597480407E-04 -8.64651568857587255E-04 -8.97445917081684651E-04
 -9.31477613564523407E-04 -9.66792926823134688E-04 -1.00343982853447720E-03
 -1.04146805447790074E-03 -1.08092916754341708E-03 -1.12187662286813614E-03
 -1.16436583516453486E-03 -1.20845424830561248E-03 -1.25420140723323469E-03
 -1.30166903225733903E-03 -1.35092109581486227E-03 -1.40202390175855744E-03
 -1.45504616724701744E-03 -1.51005910730838463E-03 -1.56713652215134777E-03
 -1.62635488729803777E-03 -1.68779344661441357E-03 -1.75153430831465041E-03
 -1.81766254401680865E-03 -1.88626629092781065E-03 -1.95743685723632479E-03
 -2.03126883079266874E-03 -2.10786019115517418E-03 -2.18731242508265339E-03
 -2.26973064555266273E-03 -2.35522371438512271E-03 -2.44390436855048765E-03
 -2.53588935024116760E-03 -2.63129954078405916E-03 -2.73026009847106592E-03
 -2.83290060038307199E-03 -2.93935518828119342E-03 -3.04976271863785422E-03
 -3.16426691687693830E-03 -3.28301653589002998E-03 -3.40616551889280552E-03
 -3.53387316668191467E-03 -3.66630430934881046E-03 -3.80362948250231956E-03
 -3.94602510804677956E-03 -4.09367367955675802E-03 -4.24676395228312450E-03
 -4.40549113781818057E-03 -4.57005710343972443E-03 -4.74067057614550782E-03
 -4.91754735137991516E-03 -5.10091050644455486E-03 -5.29099061857302589E-03
 -5.48802598763783143E-03 -5.69226286344386503E-03 -5.90395567754842081E-03
 -6.12336727953154743E-03 -6.35076917762348366E-03 -6.58644178357708880E-03
 -6.83067466165312130E-03 -7.08376678156415803E-03 -7.34602677519957063E-03
 -7.61777319692851819E-03 -7.89933478725051395E-03 -8.19105073953350915E-03
 -8.49327096954704749E-03 -8.80635638746907201E-03 -9.13067917200201425E-03
 -9.46662304619755660E-03 -9.81458355454832218E-03 -1.01749683408598694E-02
 -1.05481974263688313E-02 -1.09347034875221238E-02 -1.13349321327781728E-02
 -1.17493421777332217E-02 -1.21784059178145342E-02 -1.26226093977168316E-02
 -1.30824526766888747E-02 -1.35584500887032909E-02 -1.40511304964644479E-02
 -1.45610375381259923E-02 -1.50887298655019240E-02 -1.56347813724614371E-02
 -1.61997814120997292E-02 -1.67843350011722264E-02 -1.73890630101698473E-02
 -1.80146023372968409E-02 -1.86616060644899419E-02 -1.93307435934888631E-02
 -2.00227007598322015E-02 -2.07381799225097377E-02 -2.14779000268526740E-02
 -2.22425966380817575E-02 -2.30330219427711085E-02 -2.38499447153315593E-02
 -2.46941502463997077E-02 -2.55664402298512554E-02 -2.64676326049587407E-02
 -2.73985613500061093E-02 -2.83600762234584025E-02 -2.93530424485622526E-02
 -3.03783403370210675E-02 -3.14368648471501574E-02 -3.25295250716675435E-02
 -3.36572436500207212E-02 -3.48209560998853501E-02 -3.60216100621989083E-02
 -3.72601644538135962E-02 -3.85375885215663294E-02 -3.98548607912701663E-02
 -4.12129679048343980E-02 -4.26129033384157127E-02 -4.40556659941972531E-02
 -4.55422586580809946E-02 -4.70736863152679680E-02 -4.86509543153890167E-02
 -5.02750663785382218E-02 -5.19470224332546221E-02 -5.36678162771960302E-02
 -5.54384330509386583E-02 -5.72598465150740907E-02 -5.91330161205694468E-02
 -6.10588838619555638E-02 -6.30383709027711736E-02 -6.50723739624717024E-02
 -6.71617614538253666E-02 -6.93073693596727297E-02 -7.15099968378193340E-02
 -7.37704015427670667E-02 -7.60892946529802133E-02 -7.84673355924278837E-02
 -8.09051264352567967E-02 -8.34032059826361333E-02 -8.59620435010843842E-02
 -8.85820321119505788E-02 -9.12634818221867150E-02 -9.40066121871282051E-02
 -9.68115445967029642E-02 -9.96782941773349113E-02 -1.02606761302803884E-01
 -1.05596722708489202E-01 -1.08647822204770622E-01 -1.11759560986909243E-01
 -1.14931287540492699E-01 -1.18162187143533368E-01 -1.21451270968547437E-01
 -1.24797364790438847E-01 -1.28199097309072862E-01 -1.31654888098266504E-01
 -1.35162935196498718E-01 -1.38721202358572326E-01 -1.42327405991675593E-01
 -1.45979001803945990E-01 -1.49673171198748650E-01 -1.53406807453448674E-01
 -1.57176501727521845E-01 -1.60978528951429750E-01 -1.64808833654804310E-01
 -1.68663015800179644E-01 -1.72536316696787956E-01 -1.76423605077815265E-01
 -1.80319363434040592E-01 -1.84217674706925960E-01 -1.88112209455051360E-01
 -1.91996213619257172E-01 -1.95862497024000770E-01 -1.99703422765244831E-01
 -2.03510897648642219E-01 -2.07276363855882689E-01 -2.10990792031757080E-01
 -2.14644675999756063E-01 -2.18228029329839729E-01 -2.21730383998450770E-01
 -2.25140791396626155E-01 -2.28447825959692236E-01 -2.31639591709040582E-01
 -2.34703732013235356E-01 -2.37627442892674151E-01 -2.40397490208581449E-01
 -2.43000231093096458E-01 -2.45421639992394164E-01 -2.47647339708872372E-01
 -2.49662637841103485E-01 -2.51452569031161366E-01 -2.53001943437649479E-01
 -2.54295401858870895E-01 -2.55317477933565351E-01 -2.56052667845967363E-01
 -2.56485507957019465E-01 -2.56600660773747935E-01 -2.56383009653378513E-01
 -2.55817762616988575E-01 -2.54890565618532350E-01 -2.53587625578092724E-01
 -2.51895843442280110E-01 -2.49802957478862969E-01 -2.47297696945969037E-01
 -2.44369946198393390E-01 -2.41010919201848556E-01 -2.37213344312879243E-01
 -2.32971659073554133E-01 -2.28282214626314511E-01 -2.23143489199889272E-01
 -2.17556309945170306E-01 -2.11524082208171621E-01 -2.05053025115543214E-01
 -1.98152412115990023E-01 -1.90834814867941294E-01 -1.83116348589763639E-01
 -1.75016916693844699E-01 -1.66560452210509552E-01 -1.57775153172819732E-01
 -1.48693708780351791E-01 -1.39353512790906658E-01 -1.29796860206513154E-01
 -1.20071122927311716E-01 -1.10228899648201095E-01 -1.00328134873583538E-01
 -9.04322015312734873E-02 -8.06099412849306668E-02 -7.09356562836550852E-02
 -6.14890457574151436E-02 -5.23550805788575851E-02 -4.36238086756533319E-02
 -3.53900840163976493E-02 -2.77532118169849032E-02 -2.08165026243138269E-02
 -1.46867280646329184E-02 -9.47347107816865971E-03 -5.28835990113099477E-03
 -2.24411202116550981E-03 -4.52321719624219421E-04  8.57356044731801571E-06
  6.14822872593490242E-07  4.34494397728199423E-08  3.02650259127022765E-09
  2.07722127445882870E-10  1.40361255902938726E-11  9.32416847696296722E-13
  6.07584599474596021E-14  3.87070050993338175E-15  2.39863888115012830E-16
  1.43443307038117148E-17  8.16817205580015219E-19  4.31914176905121071E-20
  2.00424115459474077E-21  6.79214347796022854E-23 -2.36763242707687837E-25
 -3.50824163313820216E-25 -4.66572234991031394E-26 -4.71290100147803867E-27
 -4.23540143779649932E-28 -3.56230731229897015E-29 -2.86832191512549442E-30
 -2.23760378932619838E-31 -1.70306805959665156E-32 -1.27013372200559536E-33
 -9.30724540225731630E-35 -6.71249363909141839E-36  0.00000000000000000E+00
  0.00000000000000000E+00  0.00000000000000000E+00  0.00000000000000000E+00
  0.00000000000000000E+00  0.00000000000000000E+00  0.00000000000000000E+00
  0.00000000000000000E+00  0.00000000000000000E+00  0.00000000000000000E+00
  0.00000000000000000E+00  0.00000000000000000E+00  0.00000000000000000E+00
  0.00000000000000000E+00  0.00000000000000000E+00  0.00000000000000000E+00
  0.00000000000000000E+00  0.00000000000000000E+00  0.00000000000000000E+00
  0.00000000000000000E+00  0.00000000000000000E+00  0.00000000000000000E+00
  0.00000000000000000E+00  0.00000000000000000E+00  0.00000000000000000E+00
  0.00000000000000000E+00  0.00000000000000000E+00  0.00000000000000000E+00
  0.00000000000000000E+00  0.00000000000000000E+00  0.00000000000000000E+00
  0.00000000000000000E+00  0.00000000000000000E+00  0.00000000000000000E+00
  0.00000000000000000E+00  0.00000000000000000E+00  0.00000000000000000E+00
  0.00000000000000000E+00  0.00000000000000000E+00  0.00000000000000000E+00
  0.00000000000000000E+00  0.00000000000000000E+00  0.00000000000000000E+00
  0.00000000000000000E+00  0.00000000000000000E+00  0.00000000000000000E+00
  0.00000000000000000E+00  0.00000000000000000E+00  0.00000000000000000E+00
  0.00000000000000000E+00  0.00000000000000000E+00  0.00000000000000000E+00
  0.00000000000000000E+00  0.00000000000000000E+00  0.00000000000000000E+00
  0.00000000000000000E+00  0.00000000000000000E+00  0.00000000000000000E+00
  0.00000000000000000E+00  0.00000000000000000E+00  0.00000000000000000E+00
  0.00000000000000000E+00  0.00000000000000000E+00  0.00000000000000000E+00
  0.00000000000000000E+00  0.00000000000000000E+00  0.00000000000000000E+00
  0.00000000000000000E+00  0.00000000000000000E+00  0.00000000000000000E+00
  0.00000000000000000E+00  0.00000000000000000E+00  0.00000000000000000E+00
  0.00000000000000000E+00  0.00000000000000000E+00  0.00000000000000000E+00
  0.00000000000000000E+00  0.00000000000000000E+00  0.00000000000000000E+00
  0.00000000000000000E+00  0.00000000000000000E+00  0.00000000000000000E+00
  0.00000000000000000E+00  0.00000000000000000E+00  0.00000000000000000E+00
  0.00000000000000000E+00  0.00000000000000000E+00  0.00000000000000000E+00
  0.00000000000000000E+00  0.00000000000000000E+00  0.00000000000000000E+00
  0.00000000000000000E+00  0.00000000000000000E+00  0.00000000000000000E+00
  0.00000000000000000E+00  0.00000000000000000E+00  0.00000000000000000E+00
  0.00000000000000000E+00  0.00000000000000000E+00  0.00000000000000000E+00
  0.00000000000000000E+00  0.00000000000000000E+00  0.00000000000000000E+00
  0.00000000000000000E+00  0.00000000000000000E+00  0.00000000000000000E+00
  0.00000000000000000E+00  0.00000000000000000E+00  0.00000000000000000E+00
  0.00000000000000000E+00  0.00000000000000000E+00  0.00000000000000000E+00
  0.00000000000000000E+00  0.00000000000000000E+00  0.00000000000000000E+00
  0.00000000000000000E+00  0.00000000000000000E+00  0.00000000000000000E+00
  0.00000000000000000E+00  0.00000000000000000E+00  0.00000000000000000E+00
  0.00000000000000000E+00  0.00000000000000000E+00  0.00000000000000000E+00
  0.00000000000000000E+00  0.00000000000000000E+00  0.00000000000000000E+00
  0.00000000000000000E+00  0.00000000000000000E+00  0.00000000000000000E+00
  0.00000000000000000E+00  0.00000000000000000E+00  0.00000000000000000E+00
  0.00000000000000000E+00  0.00000000000000000E+00  0.00000000000000000E+00
  0.00000000000000000E+00  0.00000000000000000E+00  0.00000000000000000E+00
  0.00000000000000000E+00  0.00000000000000000E+00  0.00000000000000000E+00
  0.00000000000000000E+00  0.00000000000000000E+00  0.00000000000000000E+00
  0.00000000000000000E+00  0.00000000000000000E+00  0.00000000000000000E+00
  0.00000000000000000E+00  0.00000000000000000E+00  0.00000000000000000E+00
  0.00000000000000000E+00  0.00000000000000000E+00  0.00000000000000000E+00
  0.00000000000000000E+00  0.00000000000000000E+00  0.00000000000000000E+00
  0.00000000000000000E+00  0.00000000000000000E+00  0.00000000000000000E+00
  0.00000000000000000E+00  0.00000000000000000E+00  0.00000000000000000E+00
                       </PP_QIJL.1.3.1>
 <PP_QIJL.1.4.1 type="real" size="   999" columns="3" first_index=" 1" second_index=" 4" composite_index=" 7" angular_momentum="1">
  4.59234106937806032E-13  4.76782359226300616E-13  4.95001165275802026E-13
  5.13916148284392265E-13  5.33553910563706219E-13  5.53942070952819880E-13
  5.75109303661792115E-13  5.97085378599478343E-13  6.19901203242383110E-13
  6.43588866103405278E-13  6.68181681861567734E-13  6.93714238216274799E-13
  7.20222444531983686E-13  7.47743582341652681E-13  7.76316357780023706E-13
  8.05980956020514240E-13  8.36779097792248665E-13  8.68754098056671884E-13
  9.01950926926365956E-13  9.36416272911705029E-13  9.72198608584213055E-13
  1.00934825874912179E-12  1.04791747122294206E-12  1.08796049031552047E-12
  1.12953363312005181E-12  1.17269536871828279E-12  1.21750640041225631E-12
  1.26402975109833437E-12  1.31233085190355788E-12  1.36247763420889948E-12
  1.41454062518896948E-12  1.46859304700250350E-12  1.52471091977300956E-12
  1.58297316850464894E-12  1.64346173408351419E-12  1.70626168852042988E-12
  1.77146135459756555E-12  1.83915243008681996E-12  1.90943011671492702E-12
  1.98239325405662121E-12  2.05814445854393855E-12  2.13679026778759452E-12
  2.21844129041296128E-12  2.30321236162166060E-12  2.39122270469755459E-12
  2.48259609868396667E-12  2.57746105246848951E-12  2.67595098551964751E-12
  2.77820441553004593E-12  2.88436515322969336E-12  2.99458250464341773E-12
  3.10901148107717594E-12  3.22781301712805804E-12  3.35115419702520882E-12
  3.47920848961939466E-12  3.61215599235221637E-12  3.75018368454768717E-12
  3.89348569038276173E-12  4.04226355190632841E-12  4.19672651249094710E-12
  4.35709181111571668E-12  4.52358498789433377E-12  4.69644020127803913E-12
  4.87590055737936687E-12  5.06221845188025113E-12  5.25565592500480265E-12
  5.45648503005662280E-12  5.66498821603841194E-12  5.88145872489238527E-12
  6.10620100392001109E-12  6.33953113396100913E-12  6.58177727393410820E-12
  6.83328012236439316E-12  7.09439339654674346E-12  7.36548433001882093E-12
  7.64693418904375046E-12  7.93913880882826861E-12  8.24250915023133239E-12
  8.55747187774512423E-12  8.88446995956234155E-12  9.22396329057289892E-12
  9.57642933916666214E-12  9.94236381875206112E-12  1.03222813849341911E-11
  1.07167163593342008E-11  1.11262234810665925E-11  1.15513786869322759E-11
  1.19927799214245038E-11  1.24510479776862282E-11  1.29268273706027473E-11
  1.34207872432564499E-11  1.39336223080190534E-11  1.44660538236052268E-11
  1.50188306094608820E-11  1.55927300989135439E-11  1.61885594325656095E-11
  1.68071565934682633E-11  1.74493915856725980E-11  1.81161676578158202E-11
  1.88084225734628422E-11  1.95271299299897984E-11  2.02733005278655471E-11
  2.10479837922554766E-11  2.18522692489475360E-11  2.26872880566770484E-11
  2.35542145980038277E-11  2.44542681309802391E-11  2.53887145039327108E-11
  2.63588679357685716E-11  2.73660928643119660E-11  2.84118058652675754E-11
  2.94974776445126885E-11  3.06246351065183289E-11  3.17948635018086955E-11
  3.30098086564793981E-11  3.42711792869096671E-11  3.55807494029247760E-11
  3.69403608027877461E-11  3.83519256635295798E-11  3.98174292302611040E-11
  4.13389326082485422E-11  4.29185756616803030E-11  4.45585800232006909E-11
  4.62612522184442498E-11  4.80289869099646841E-11  4.98642702651199481E-11
  5.17696834526518465E-11  5.37479062728761839E-11  5.58017209265896549E-11
  5.79340159279945275E-11  6.01477901671425292E-11  6.24461571276140512E-11
  6.48323492653624255E-11  6.73097225548825834E-11  6.98817612090973493E-11
  7.25520825796008127E-11  7.53244422441475245E-11  7.82027392885467410E-11
  8.11910217903868120E-11  8.42934925123035074E-11  8.75145148128001535E-11
  9.08586187829297461E-11  9.43305076174733450E-11  9.79350642295728965E-11
  1.01677358118121564E-10  1.05562652497571797E-10  1.09596411700184572E-10
  1.13784308861135549E-10  1.18132233897282179E-10  1.22646301790815441E-10
  1.27332861189447139E-10  1.32198503335223695E-10  1.37250071334530413E-10
  1.42494669782318696E-10  1.47939674754093041E-10  1.53592744179714052E-10
  1.59461828613598966E-10  1.65555182416477107E-10  1.71881375364419153E-10
  1.78449304701469426E-10  1.85268207652835111E-10  1.92347674416222577E-10
  1.99697661649603165E-10  2.07328506474368746E-10  2.15250941013574835E-10
  2.23476107485720813E-10  2.32015573875284979E-10  2.40881350202067212E-10
  2.50085905412210486E-10  2.59642184914660716E-10  2.69563628787729472E-10
  2.79864190681358860E-10  2.90558357441681959E-10  3.01661169485473353E-10
  3.13188241953142686E-10  3.25155786670030903E-10  3.37580634946877554E-10
  3.50480261251545084E-10  3.63872807785279343E-10  3.77777109998075214E-10
  3.92212723079035437E-10  4.07199949458966685E-10  4.22759867363906998E-10
  4.38914360459735271E-10  4.55686148629548221E-10  4.73098819927112222E-10
  4.91176863751297192E-10  5.09945705288178639E-10  5.29431741269227790E-10
  5.49662377095887772E-10  5.70666065382755807E-10  5.92472345973555211E-10
  6.15111887486195845E-10  6.38616530445347490E-10  6.63019332063185901E-10
  6.88354612731293894E-10  7.14658004289080342E-10  7.41966500136647129E-10
  7.70318507262546848E-10  7.99753900259602629E-10  8.30314077404784084E-10
  8.62042018881976021E-10  8.94982347229556513E-10  9.29181390097759079E-10
  9.64687245404129982E-10  1.00154984897867542E-09  1.03982104479381741E-09
  1.07955465787800828E-09  1.12080657001546001E-09  1.16363479833848379E-09
  1.20809957692302376E-09  1.25426344150201709E-09  1.30219131741585108E-09
  1.35195061092354560E-09  1.40361130400303684E-09  1.45724605277401873E-09
  1.51293028968159742E-09  1.57074232958458735E-09  1.63076347989763728E-09
  1.69307815494198534E-09  1.75777399466584543E-09  1.82494198790117383E-09
  1.89467660033034168E-09  1.96707590734261525E-09  2.04224173196721109E-09
  2.12027978807712492E-09  2.20129982906480212E-09  2.28541580219913830E-09
  2.37274600888050897E-09  2.46341327101951434E-09  2.55754510377324373E-09
  2.65527389488201484E-09  2.75673709085889409E-09  2.86207739029372756E-09
  2.97144294454363951E-09  3.08498756609215957E-09  3.20287094487004754E-09
  3.32525887284203034E-09  3.45232347717533756E-09  3.58424346231783548E-09
  3.72120436132641174E-09  3.86339879679880456E-09  4.01102675177604585E-09
  4.16429585099646819E-09  4.32342165289665545E-09  4.48862795277028102E-09
  4.66014709751077592E-09  4.83822031238100445E-09  5.02309804026878046E-09
  5.21504029390621038E-09  5.41431702154725409E-09  5.62120848661859232E-09
  5.83600566187719551E-09  6.05901063862898133E-09  6.29053705158451199E-09
  6.53091051994825901E-09  6.78046910536297916E-09  7.03956378735207716E-09
  7.30855895692922201E-09  7.58783292906952177E-09  7.87777847476202137E-09
  8.17880337339312035E-09  8.49133098623649152E-09  8.81580085185655680E-09
  9.15266930426324232E-09  9.50241011468614644E-09  9.86551515787189302E-09
  1.02424951038411346E-08  1.06338801360774734E-08  1.10402206971595503E-08
  1.14620882628837760E-08  1.19000761459664417E-08  1.23548003304562108E-08
  1.28269003380297024E-08  1.33170401273881128E-08  1.38259090280208408E-08
  1.43542227096483146E-08  1.49027241887067902E-08  1.54721848732922328E-08
  1.60634056480314002E-08  1.66772180004051442E-08  1.73144851901098625E-08
  1.79761034630998930E-08  1.86630033120179111E-08  1.93761507847869303E-08
  2.01165488432035566E-08  2.08852387734426267E-08  2.16833016504562801E-08
  2.25118598583287683E-08  2.33720786687228711E-08  2.42651678796373129E-08
  2.51923835167814595E-08  2.61550295999586685E-08  2.71544599769418347E-08
  2.81920802274195825E-08  2.92693496396918096E-08  3.03877832628935770E-08
  3.15489540376316675E-08  3.27544950080308375E-08  3.40061016183014169E-08
  3.53055340970556050E-08  3.66546199327260205E-08  3.80552564435656719E-08
  3.95094134458462367E-08  4.10191360240041943E-08  4.25865474066293901E-08
  4.42138519523406793E-08  4.59033382497471345E-08  4.76573823358544569E-08
  4.94784510374401496E-08  5.13691054400956070E-08  5.33320044898131985E-08
  5.53699087321835739E-08  5.74856841944590790E-08  5.96823064159418712E-08
  6.19628646323617575E-08  6.43305661201297689E-08  6.67887407065740263E-08
  6.93408454524996702E-08  7.19904695136555150E-08  7.47413391879412780E-08
  7.75973231554533069E-08  8.05624379187359678E-08  8.36408534508866199E-08
  8.68368990594543571E-08  9.01550694743756946E-08  9.36000311685068926E-08
  9.71766289196390608E-08  1.00889892623221145E-07  1.04745044365368499E-07
  1.08747505766097354E-07  1.12902905603112434E-07  1.17217087726860923E-07
  1.21696119277981220E-07  1.26346299218702092E-07  1.31174167190177271E-07
  1.36186512708212007E-07  1.41390384710306226E-07  1.46793101467431008E-07
  1.52402260874476637E-07  1.58225751133832159E-07  1.64271761847117131E-07
  1.70548795530653964E-07  1.77065679570863499E-07  1.83831578636395341E-07
  1.90856007564428052E-07  1.98148844739259942E-07  2.05720345981990441E-07
  2.13581158970812071E-07  2.21742338212184357E-07  2.30215360583922209E-07
  2.39012141472049455E-07  2.48145051524095233E-07  2.57626934042368859E-07
  2.67471123041668670E-07  2.77691461996786625E-07  2.88302323306169340E-07
  2.99318628499073568E-07  3.10755869214613487E-07  3.22630128982183313E-07
  3.34958105833850135E-07  3.47757135780500225E-07  3.61045217184715950E-07
  3.74841036064627383E-07  3.89163992364296166E-07  4.04034227227532405E-07
  4.19472651313471612E-07  4.35500974193682542E-07  4.52141734872102331E-07
  4.69418333470684475E-07  4.87355064125255135E-07  5.05977149137796712E-07
  5.25310774433133989E-07  5.45383126369806738E-07  5.66222429956860107E-07
  5.87857988530201628E-07  6.10320224944268618E-07  6.33640724336856619E-07
  6.57852278527145432E-07  6.82988932109302025E-07  7.09086030306360862E-07
  7.36180268651596332E-07  7.64309744567145856E-07  7.93514010912290170E-07
  8.23834131576602210E-07  8.55312739195986202E-07  8.87994095072659946E-07
  9.21924151383189826E-07  9.57150615761897267E-07  9.93723018350316491E-07
  1.03169278140678903E-06  1.07111329157393030E-06  1.11203997490537621E-06
  1.15453037475710027E-06  1.19864423265264057E-06  1.24444357223567356E-06
  1.29199278642777637E-06  1.34135872791366001E-06  1.39261080308079247E-06
  1.44582106954528156E-06  1.50106433740075588E-06  1.55841827433232002E-06
  1.61796351474302535E-06  1.67978377304589193E-06  1.74396596128039907E-06
  1.81060031121838123E-06  1.87978050113055836E-06  1.95160378739145115E-06
  2.02617114110720600E-06  2.10358738995788749E-06  2.18396136545306829E-06
  2.26740605580714080E-06  2.35403876464863310E-06  2.44398127578594257E-06
  2.53736002426041677E-06  2.63430627392644791E-06  2.73495630180740732E-06
  2.83945158948570534E-06  2.94793902179506553E-06  3.06057109309337610E-06
  3.17750612140494881E-06  3.29890847073215781E-06  3.42494878184766086E-06
  3.55580421189046502E-06  3.69165868310112716E-06  3.83270314104438370E-06
  3.97913582268053875E-06  4.13116253466083496E-06  4.28899694223619096E-06
  4.45286086918349910E-06  4.62298460916909404E-06  4.79960724898489751E-06
  4.98297700410925835E-06  5.17335156706178052E-06  5.37099846903911616E-06
  5.57619545533731838E-06  5.78923087508544515E-06  6.01040408583504190E-06
  6.24002587357093379E-06  6.47841888872991413E-06  6.72591809883650481E-06
  6.98287125838784814E-06  7.24963939664378674E-06  7.52659732400324763E-06
  7.81413415767352459E-06  8.11265386736617732E-06  8.42257584178083433E-06
  8.74433547666716361E-06  9.07838478528511505E-06  9.42519303211465281E-06
  9.78524739069831693E-06  1.01590536265336866E-05  1.05471368059669277E-05
  1.09500420320753929E-05  1.13683352085638197E-05  1.18026038327379425E-05
  1.22534578186593353E-05  1.27215303516269871E-05  1.32074787751745836E-05
  1.37119855118170639E-05  1.42357590188268214E-05  1.47795347803683163E-05
  1.53440763373695624E-05  1.59301763565617037E-05  1.65386577401708950E-05
  1.71703747778036567E-05  1.78262143421240313E-05  1.85070971299817454E-05
  1.92139789507128352E-05  1.99478520633986691E-05  2.07097465649371336E-05
  2.15007318308487536E-05  2.23219180108134358E-05  2.31744575810081103E-05
  2.40595469553934129E-05  2.49784281581781762E-05  2.59323905597743154E-05
  2.69227726786410821E-05  2.79509640515080282E-05  2.90184071745588696E-05
  3.01265995182554294E-05  3.12770956185810789E-05  3.24715092475871006E-05
  3.37115156662328415E-05  3.49988539626232707E-05  3.63353294788619353E-05
  3.77228163298591745E-05  3.91632600175583176E-05  4.06586801441735011E-05
  4.22111732281646275E-05  4.38229156268153496E-05  4.54961665694231032E-05
  4.72332713052590338E-05  4.90366643706105306E-05  5.09088729793791481E-05
  5.28525205418723981E-05  5.48703303166000829E-05  5.69651292000635041E-05
  5.91398516597114199E-05  6.13975438154269163E-05  6.37413676751076840E-05
  6.61746055301087687E-05  6.87006645165271754E-05  7.13230813485304184E-05
  7.40455272301579557E-05  7.68718129522607152E-05  7.98058941814900274E-05
  8.28518769484987188E-05  8.60140233427821277E-05  8.92967574218564696E-05
  9.27046713427543632E-05  9.62425317241094358E-05  9.99152862474016580E-05
  1.03728070506250435E-04  1.07686215112961581E-04  1.11795253071872184E-04
  1.16060927429383897E-04  1.20489199210929156E-04  1.25086255655490567E-04
  1.29858518758674989E-04  1.34812654135739088E-04  1.39955580216377694E-04
  1.45294477783505923E-04  1.50836799868708245E-04  1.56590282017481840E-04
  1.62562952937867416E-04  1.68763145546550855E-04  1.75199508427015889E-04
  1.81881017714850883E-04  1.88816989425843735E-04  1.96017092243057882E-04
  2.03491360779648297E-04  2.11250209334774109E-04  2.19304446160567177E-04
  2.27665288258752937E-04  2.36344376726166171E-04  2.45353792669075852E-04
  2.54706073706931452E-04  2.64414231086852758E-04  2.74491767430924281E-04
  2.84952695139123447E-04  2.95811555471486235E-04  3.07083438333935975E-04
  3.18784002793023099E-04  3.30929498345698409E-04  3.43536786971115307E-04
  3.56623365992382482E-04  3.70207391777125445E-04  3.84307704306679945E-04
  3.98943852644740638E-04  4.14136121337322738E-04  4.29905557776937822E-04
  4.46274000564984396E-04  4.63264108907462165E-04  4.80899393080272668E-04
  4.99204246001548287E-04  5.18203975949662840E-04  5.37924840466824238E-04
  5.58394081489424509E-04  5.79639961747640360E-04  6.01691802478110231E-04
  6.24580022494906450E-04  6.48336178665424802E-04  6.72993007839262211E-04
  6.98584470279633735E-04  7.25145794648397496E-04  7.52713524597306907E-04
  7.81325567019679288E-04  8.11021242018311085E-04  8.41841334647093205E-04
  8.73828148485483128E-04  9.07025561106690622E-04  9.41479081502191121E-04
  9.77235909526957131E-04  1.01434499743158061E-03  1.05285711354934021E-03
  1.09282490820807585E-03  1.13430298193865475E-03  1.17734795605370824E-03
  1.22201854567224985E-03  1.26837563526773184E-03  1.31648235681903645E-03
  1.36640417064595255E-03  1.41820894901263325E-03  1.47196706258447604E-03
  1.52775146982590793E-03  1.58563780942854848E-03  1.64570449586122144E-03
  1.70803281813521578E-03  1.77270704188021489E-03  1.83981451482816941E-03
  1.90944577580436418E-03  1.98169466732671254E-03  2.05665845191619441E-03
  2.13443793222306121E-03  2.21513757507512277E-03  2.29886563955609708E-03
  2.38573430922345113E-03  2.47585982857664302E-03  2.56936264388798238E-03
  2.66636754850948111E-03  2.76700383277015370E-03  2.87140543857906374E-03
  2.97971111885016789E-03  3.09206460186549001E-03  3.20861476069346247E-03
  3.32951578777932388E-03  3.45492737482430050E-03  3.58501489806972414E-03
  3.71994960910154195E-03  3.85990883128944223E-03  4.00507616197334684E-03
  4.15564168050799529E-03  4.31180216227389744E-03  4.47376129876108936E-03
  4.64172992382726451E-03  4.81592624622859469E-03  4.99657608851720222E-03
  5.18391313239381906E-03  5.37817917059841936E-03  5.57962436541483125E-03
  5.78850751385800392E-03  6.00509631960408595E-03  6.22966767171435724E-03
  6.46250793019360371E-03  6.70391321841213705E-03  6.95418972240825078E-03
  7.21365399707378334E-03  7.48263327921062579E-03  7.76146580742919333E-03
  8.05050114884189871E-03  8.35010053248477074E-03  8.66063718937910842E-03
  8.98249669912145991E-03  9.31607734286508254E-03  9.66179046252847902E-03
  1.00200608260371561E-02  1.03913269983723962E-02  1.07760417181665576E-02
  1.11746722795470071E-02  1.15877009188907181E-02  1.20156252061079868E-02
  1.24589584400263027E-02  1.29182300474028917E-02  1.33939859850313626E-02
  1.38867891443549014E-02  1.43972197579379044E-02  1.49258758070822777E-02
  1.54733734298047945E-02  1.60403473283172969E-02  1.66274511750722359E-02
  1.72353580163512876E-02  1.78647606722847282E-02  1.85163721320934747E-02
  1.91909259432435295E-02  1.98891765930946304E-02  2.06118998815097189E-02
  2.13598932827701454E-02  2.21339762950124967E-02  2.29349907752658157E-02
  2.37638012580240372E-02  2.46212952551348903E-02  2.55083835346252841E-02
  2.64260003759130939E-02  2.73751037986749400E-02  2.83566757624508850E-02
  2.93717223338673845E-02  3.04212738181501921E-02  3.15063848513793751E-02
  3.26281344497017026E-02  3.37876260114780488E-02  3.49859872681170178E-02
  3.62243701790274028E-02  3.75039507658756419E-02  3.88259288810436226E-02
  4.01915279048776150E-02  4.16019943660045563E-02  4.30585974786659303E-02
  4.45626285906788738E-02  4.61154005352846716E-02  4.77182468797782491E-02
  4.93725210634379172E-02  5.10795954168866764E-02  5.28408600546161483E-02
  5.46577216319952541E-02  5.65316019576655171E-02  5.84639364517944085E-02
  6.04561724402222292E-02  6.25097672740910354E-02  6.46261862640956503E-02
  6.68069004180399384E-02  6.90533839699260937E-02  7.13671116883459189E-02
  7.37495559514895066E-02  7.62021835756347549E-02  7.87264523835405072E-02
  8.13238074987099047E-02  8.39956773511064680E-02  8.67434693796035744E-02
  8.95685654158597244E-02  9.24723167341115759E-02  9.54560387510539621E-02
  9.85210053597049273E-02  1.01668442880937085E-01  1.04899523616202014E-01
  1.08215358984879259E-01  1.11616992229667839E-01  1.15105390673505517E-01
  1.18681437511665183E-01  1.22345923122953601E-01  1.26099535884330871E-01
  1.29942852473800885E-01  1.33876327647104387E-01  1.37900283474596680E-01
  1.42014898025725089E-01  1.46220193489760092E-01  1.50516023722896658E-01
  1.54902061213550574E-01  1.59377783459650424E-01  1.63942458753997045E-01
  1.68595131376348545E-01  1.73334606193826041E-01  1.78159432674523915E-01
  1.83067888322866079E-01  1.88057961549742941E-01  1.93127333994630973E-01
  1.98273362322143654E-01  2.03493059521225178E-01  2.08783075741383745E-01
  2.14139678707187531E-01  2.19558733759744967E-01  2.25035683582054030E-01
  2.30565527674004289E-01  2.36142801652470563E-01  2.41761556462376931E-01
  2.47415337595899815E-01  2.53097164429117283E-01  2.58799509798441962E-01
  2.64514279953147746E-01  2.70232795035182771E-01  2.75945770253341882E-01
  2.81643297935696091E-01  2.87314830661989540E-01  2.92949165696509028E-01
  2.98534430961655994E-01  3.04058072813133906E-01  3.09506845899217342E-01
  3.14866805408952122E-01  3.20123302037343904E-01  3.25260980019703660E-01
  3.30263778610467518E-01  3.35114937407673341E-01  3.39797005949229736E-01
  3.44291858031690545E-01  3.48580711227142404E-01  3.52644152098102404E-01
  3.56462167633765870E-01  3.60014183453210346E-01  3.63279109341835271E-01
  3.66235392705895724E-01  3.68861080545998588E-01  3.71133890563209723E-01
  3.73031292020396421E-01  3.74530596985800379E-01  3.75609062584859432E-01
  3.76244004879072225E-01  3.76412924976289920E-01  3.76093647954182431E-01
  3.75264475146676324E-01  3.73904350300677257E-01  3.71993040056145030E-01
  3.69511329135200239E-01  3.66441230544042318E-01  3.62766210993544280E-01
  3.58471431630258908E-01  3.53544004035056425E-01  3.47973261280680402E-01
  3.41751043680192934E-01  3.34871998647430225E-01  3.27333893863996861E-01
  3.19137942694993570E-01  3.10289140514359907E-01  3.00796610290236577E-01
  2.90673955440249598E-01  2.79939617595480306E-01  2.68617236509870239E-01
  2.56736008919122793E-01  2.44331042690540262E-01  2.31443702113954625E-01
  2.18121939666146791E-01  2.04420609039649259E-01  1.90401753665595586E-01
  1.76134864384109829E-01  1.61697099330861072E-01  1.47173458522305178E-01
  1.32656905043770978E-01  1.18248424184619269E-01  1.04057011335549357E-01
  9.01995789790946967E-02  7.68007726816941627E-02  6.39926856489555079E-02
  5.19144611693523189E-02  4.07117721599670468E-02  3.05361670424670190E-02
  2.15442713688655599E-02  1.38968346669845044E-02  7.75760675249084937E-03
  3.29193528697172867E-03  6.63520276996404563E-04 -1.25767367695187663E-05
 -9.01896647956401215E-07 -6.37369002252450443E-08 -4.43964052700872079E-09
 -3.04711972831372455E-10 -2.05898888679619545E-11 -1.36778195301686741E-12
 -8.91278672350864633E-14 -5.67801227112157377E-15 -3.51861399925104270E-16
 -2.10420014538067531E-17 -1.19820639820733361E-18 -6.33584021870205227E-20
 -2.94006365020254360E-21 -9.96353861945762083E-23  3.47312997736402478E-25
  5.14631369487201722E-25  6.84424658752346941E-26  6.91345394723756752E-27
  6.21299975940229469E-28  5.22562378071656819E-29  4.20760195468849623E-30
  3.28238822432710665E-31  2.49826648073875564E-32  1.86318596362734237E-33
  1.36529947147128498E-34  9.84669858977089023E-36  0.00000000000000000E+00
  0.00000000000000000E+00  0.00000000000000000E+00  0.00000000000000000E+00
  0.00000000000000000E+00  0.00000000000000000E+00  0.00000000000000000E+00
  0.00000000000000000E+00  0.00000000000000000E+00  0.00000000000000000E+00
  0.00000000000000000E+00  0.00000000000000000E+00  0.00000000000000000E+00
  0.00000000000000000E+00  0.00000000000000000E+00  0.00000000000000000E+00
  0.00000000000000000E+00  0.00000000000000000E+00  0.00000000000000000E+00
  0.00000000000000000E+00  0.00000000000000000E+00  0.00000000000000000E+00
  0.00000000000000000E+00  0.00000000000000000E+00  0.00000000000000000E+00
  0.00000000000000000E+00  0.00000000000000000E+00  0.00000000000000000E+00
  0.00000000000000000E+00  0.00000000000000000E+00  0.00000000000000000E+00
  0.00000000000000000E+00  0.00000000000000000E+00  0.00000000000000000E+00
  0.00000000000000000E+00  0.00000000000000000E+00  0.00000000000000000E+00
  0.00000000000000000E+00  0.00000000000000000E+00  0.00000000000000000E+00
  0.00000000000000000E+00  0.00000000000000000E+00  0.00000000000000000E+00
  0.00000000000000000E+00  0.00000000000000000E+00  0.00000000000000000E+00
  0.00000000000000000E+00  0.00000000000000000E+00  0.00000000000000000E+00
  0.00000000000000000E+00  0.00000000000000000E+00  0.00000000000000000E+00
  0.00000000000000000E+00  0.00000000000000000E+00  0.00000000000000000E+00
  0.00000000000000000E+00  0.00000000000000000E+00  0.00000000000000000E+00
  0.00000000000000000E+00  0.00000000000000000E+00  0.00000000000000000E+00
  0.00000000000000000E+00  0.00000000000000000E+00  0.00000000000000000E+00
  0.00000000000000000E+00  0.00000000000000000E+00  0.00000000000000000E+00
  0.00000000000000000E+00  0.00000000000000000E+00  0.00000000000000000E+00
  0.00000000000000000E+00  0.00000000000000000E+00  0.00000000000000000E+00
  0.00000000000000000E+00  0.00000000000000000E+00  0.00000000000000000E+00
  0.00000000000000000E+00  0.00000000000000000E+00  0.00000000000000000E+00
  0.00000000000000000E+00  0.00000000000000000E+00  0.00000000000000000E+00
  0.00000000000000000E+00  0.00000000000000000E+00  0.00000000000000000E+00
  0.00000000000000000E+00  0.00000000000000000E+00  0.00000000000000000E+00
  0.00000000000000000E+00  0.00000000000000000E+00  0.00000000000000000E+00
  0.00000000000000000E+00  0.00000000000000000E+00  0.00000000000000000E+00
  0.00000000000000000E+00  0.00000000000000000E+00  0.00000000000000000E+00
  0.00000000000000000E+00  0.00000000000000000E+00  0.00000000000000000E+00
  0.00000000000000000E+00  0.00000000000000000E+00  0.00000000000000000E+00
  0.00000000000000000E+00  0.00000000000000000E+00  0.00000000000000000E+00
  0.00000000000000000E+00  0.00000000000000000E+00  0.00000000000000000E+00
  0.00000000000000000E+00  0.00000000000000000E+00  0.00000000000000000E+00
  0.00000000000000000E+00  0.00000000000000000E+00  0.00000000000000000E+00
  0.00000000000000000E+00  0.00000000000000000E+00  0.00000000000000000E+00
  0.00000000000000000E+00  0.00000000000000000E+00  0.00000000000000000E+00
  0.00000000000000000E+00  0.00000000000000000E+00  0.00000000000000000E+00
  0.00000000000000000E+00  0.00000000000000000E+00  0.00000000000000000E+00
  0.00000000000000000E+00  0.00000000000000000E+00  0.00000000000000000E+00
  0.00000000000000000E+00  0.00000000000000000E+00  0.00000000000000000E+00
  0.00000000000000000E+00  0.00000000000000000E+00  0.00000000000000000E+00
  0.00000000000000000E+00  0.00000000000000000E+00  0.00000000000000000E+00
  0.00000000000000000E+00  0.00000000000000000E+00  0.00000000000000000E+00
  0.00000000000000000E+00  0.00000000000000000E+00  0.00000000000000000E+00
  0.00000000000000000E+00  0.00000000000000000E+00  0.00000000000000000E+00
  0.00000000000000000E+00  0.00000000000000000E+00  0.00000000000000000E+00
  0.00000000000000000E+00  0.00000000000000000E+00  0.00000000000000000E+00
  0.00000000000000000E+00  0.00000000000000000E+00  0.00000000000000000E+00
  0.00000000000000000E+00  0.00000000000000000E+00  0.00000000000000000E+00
  0.00000000000000000E+00  0.00000000000000000E+00  0.00000000000000000E+00
                       </PP_QIJL.1.4.1>
 <PP_QIJL.2.2.0 type="real" size="   999" columns="3" first_index=" 2" second_index=" 2" composite_index=" 3" angular_momentum="0">
 -5.97839140092535175E-09 -6.12973509893750807E-09 -6.28491008086216984E-09
 -6.44401333611110708E-09 -6.60714430939464975E-09 -6.77440496287782573E-09
 -6.94589983991005185E-09 -7.12173613036807612E-09 -7.30202373765314311E-09
 -7.48687534738426989E-09 -7.67640649783029624E-09 -7.87073565212508233E-09
 -8.06998427231086395E-09 -8.27427689525592804E-09 -8.48374121049421407E-09
 -8.69850814003537724E-09 -8.91871192019536267E-09 -9.14449018549837221E-09
 -9.37598405470293348E-09 -9.61333821900580474E-09 -9.85670103247848988E-09
 -1.01062246047934307E-08 -1.03620648962975243E-08 -1.06243818154923110E-08
 -1.08933393189820424E-08 -1.11691055139518349E-08 -1.14518527632401068E-08
 -1.17417577930709255E-08 -1.20390018035136763E-08 -1.23437705817389499E-08
 -1.26562546181414864E-08 -1.29766492254029582E-08 -1.33051546605685719E-08
 -1.36419762502143148E-08 -1.39873245187827577E-08 -1.43414153201674484E-08
 -1.47044699726287918E-08 -1.50767153971249967E-08 -1.54583842591450105E-08
 -1.58497151141321788E-08 -1.62509525565887732E-08 -1.66623473729557555E-08
 -1.70841566983622763E-08 -1.75166441773434102E-08 -1.79600801286267530E-08
 -1.84147417140899780E-08 -1.88809131119962952E-08 -1.93588856946148489E-08
 -1.98489582103378795E-08 -2.03514369704082076E-08 -2.08666360403733761E-08
 -2.13948774363870742E-08 -2.19364913264793631E-08 -2.24918162369225250E-08
 -2.30611992638208533E-08 -2.36449962900568703E-08 -2.42435722077295838E-08
 -2.48573011462239351E-08 -2.54865667060535536E-08 -2.61317621986236697E-08
 -2.67932908920631413E-08 -2.74715662632801541E-08 -2.81670122563986472E-08
 -2.88800635477368743E-08 -2.96111658174943897E-08 -3.03607760283161041E-08
 -3.11293627109089391E-08 -3.19174062568884410E-08 -3.27253992190389697E-08
 -3.35538466191751894E-08 -3.44032662637966514E-08 -3.52741890677336574E-08
 -3.61671593859859955E-08 -3.70827353539622905E-08 -3.80214892363326153E-08
 -3.89840077847121201E-08 -3.99708926043995651E-08 -4.09827605304001268E-08
 -4.20202440129666915E-08 -4.30839915129019325E-08 -4.41746679068666332E-08
 -4.52929549029490192E-08 -4.64395514667542664E-08 -4.76151742582798959E-08
 -4.88205580798517834E-08 -5.00564563353984795E-08 -5.13236415013529301E-08
 -5.26229056094749673E-08 -5.39550607418960961E-08 -5.53209395386971982E-08
 -5.67213957183345485E-08 -5.81573046112411765E-08 -5.96295637069363860E-08
 -6.11390932149849251E-08 -6.26868366401576153E-08 -6.42737613721512478E-08
 -6.59008592902381360E-08 -6.75691473832219301E-08 -6.92796683850879345E-08
 -7.10334914267451573E-08 -7.28317127042660874E-08 -7.46754561640445914E-08
 -7.65658742052977362E-08 -7.85041484003512941E-08 -8.04914902331604895E-08
 -8.25291418565247779E-08 -8.46183768684728181E-08 -8.67605011083011776E-08
 -8.89568534727649576E-08 -9.12088067529307672E-08 -9.35177684922131580E-08
 -9.58851818661340128E-08 -9.83125265843523629E-08 -1.00801319815529062E-07
 -1.03353117135604879E-07 -1.05969513500083430E-07 -1.08652144240928350E-07
 -1.11402686088696705E-07 -1.14222858220547836E-07 -1.17114423334782319E-07
 -1.20079188752582891E-07 -1.23119007547646457E-07 -1.26235779704412119E-07
 -1.29431453305610564E-07 -1.32708025749876056E-07 -1.36067545000181121E-07
 -1.39512110863877217E-07 -1.43043876305138716E-07 -1.46665048790631206E-07
 -1.50377891669246873E-07 -1.54184725586764931E-07 -1.58087929936327306E-07
 -1.62089944345631767E-07 -1.66193270201773106E-07 -1.70400472214685988E-07
 -1.74714180020167540E-07 -1.79137089823477255E-07 -1.83671966084548328E-07
 -1.88321643245857810E-07 -1.93089027504038028E-07 -1.97977098626338206E-07
 -2.02988911813066198E-07 -2.08127599607181325E-07 -2.13396373852226600E-07
 -2.18798527699826460E-07 -2.24337437668005284E-07 -2.30016565751609125E-07
 -2.35839461586156596E-07 -2.41809764666464380E-07 -2.47931206621438538E-07
 -2.54207613546453480E-07 -2.60642908394770714E-07 -2.67241113429500672E-07
 -2.74006352737633406E-07 -2.80942854807711828E-07 -2.88054955172761280E-07
 -2.95347099120119032E-07 -3.02823844469868792E-07 -3.10489864423607324E-07
 -3.18349950485328351E-07 -3.26409015456250852E-07 -3.34672096505454786E-07
 -3.43144358318256080E-07 -3.51831096324279470E-07 -3.60737740007248108E-07
 -3.69869856298566484E-07 -3.79233153056800750E-07 -3.88833482635251258E-07
 -3.98676845539832901E-07 -4.08769394179555314E-07 -4.19117436711947365E-07
 -4.29727440985822791E-07 -4.40606038583861664E-07 -4.51760028967527261E-07
 -4.63196383726908456E-07 -4.74922250938152387E-07 -4.86944959631194851E-07
 -4.99272024370598706E-07 -5.11911149952350398E-07 -5.24870236219557369E-07
 -5.38157383000053978E-07 -5.51780895168996625E-07 -5.65749287839623316E-07
 -5.80071291685413770E-07 -5.94755858396973819E-07 -6.09812166277070672E-07
 -6.25249625977289972E-07 -6.41077886379925857E-07 -6.57306840628764176E-07
 -6.73946632312532269E-07 -6.91007661804887847E-07 -7.08500592764889176E-07
 -7.26436358802033907E-07 -7.44826170310014598E-07 -7.63681521473470432E-07
 -7.83014197452116223E-07 -8.02836281746718799E-07 -8.23160163751559552E-07
 -8.43998546498071791E-07 -8.65364454594506933E-07 -8.87271242366595366E-07
 -9.09732602204270409E-07 -9.32762573119702020E-07 -9.56375549521957153E-07
 -9.80586290213797478E-07 -1.00540992761622478E-06 -1.03086197722652412E-06
 -1.05695834731575546E-06 -1.08371534887171621E-06 -1.11114970579360320E-06
 -1.13927856534476094E-06 -1.16811950887000651E-06 -1.19769056278428311E-06
 -1.22801020983947150E-06 -1.25909740067640328E-06 -1.29097156566933230E-06
 -1.32365262707020307E-06 -1.35716101146036751E-06 -1.39151766251750118E-06
 -1.42674405410569083E-06 -1.46286220369691182E-06 -1.49989468613222208E-06
 -1.53786464773133704E-06 -1.57679582075936648E-06 -1.61671253825974929E-06
 -1.65763974926270229E-06 -1.69960303437860360E-06 -1.74262862178615797E-06
 -1.78674340362524434E-06 -1.83197495280475433E-06 -1.87835154023590488E-06
 -1.92590215250175376E-06 -1.97465650997404132E-06 -2.02464508538861112E-06
 -2.07589912289105186E-06 -2.12845065756445945E-06 -2.18233253545149335E-06
 -2.23757843408329117E-06 -2.29422288352802900E-06 -2.35230128797228627E-06
 -2.41184994784874179E-06 -2.47290608252394823E-06 -2.53550785356044583E-06
 -2.59969438856771350E-06 -2.66550580565685534E-06 -2.73298323851432042E-06
 -2.80216886211031329E-06 -2.87310591905797818E-06 -2.94583874663978005E-06
 -3.02041280451806969E-06 -3.09687470314700869E-06 -3.17527223290374517E-06
 -3.25565439395694951E-06 -3.33807142689140621E-06 -3.42257484410783817E-06
 -3.50921746201747072E-06 -3.59805343405161329E-06 -3.68913828450672130E-06
 -3.78252894324619717E-06 -3.87828378128060606E-06 -3.97646264724842681E-06
 -4.07712690482031803E-06 -4.18033947105008353E-06 -4.28616485569642184E-06
 -4.39466920154001994E-06 -4.50592032572106926E-06 -4.61998776212320443E-06
 -4.73694280483020681E-06 -4.85685855268266073E-06 -4.97980995496247047E-06
 -5.10587385823367642E-06 -5.23512905436889281E-06 -5.36765632979135552E-06
 -5.50353851596339322E-06 -5.64286054115275531E-06 -5.78570948350924227E-06
 -5.93217462548479877E-06 -6.08234750963090704E-06 -6.23632199580837793E-06
 -6.39419431984515926E-06 -6.55606315367866679E-06 -6.72202966702051886E-06
 -6.89219759058193852E-06 -7.06667328089938561E-06 -7.24556578680100339E-06
 -7.42898691755525659E-06 -7.61705131274448593E-06 -7.80987651390679726E-06
 -8.00758303799134659E-06 -8.21029445267266928E-06 -8.41813745357106892E-06
 -8.63124194342753125E-06 -8.84974111328239116E-06 -9.07377152570859155E-06
 -9.30347320015137594E-06 -9.53898970042786935E-06 -9.78046822444118614E-06
 -1.00280596961648878E-05 -1.02819188599554630E-05 -1.05422043772517100E-05
 -1.08090789257212436E-05 -1.10827093009162534E-05 -1.13632665205017279E-05
 -1.16509259311215355E-05 -1.19458673179689720E-05 -1.22482750171300158E-05
 -1.25583380307697037E-05 -1.28762501452333472E-05 -1.32022100521365426E-05
 -1.35364214725193935E-05 -1.38790932841424434E-05 -1.42304396520039383E-05
 -1.45906801621598103E-05 -1.49600399589299797E-05 -1.53387498855766124E-05
 -1.57270466285419534E-05 -1.61251728653361632E-05 -1.65333774161670876E-05
 -1.69519153994069416E-05 -1.73810483909926986E-05 -1.78210445878596472E-05
 -1.82721789755103566E-05 -1.87347334998233974E-05 -1.92089972432092447E-05
 -1.96952666052231686E-05 -2.01938454877476896E-05 -2.07050454848603875E-05
 -2.12291860775055052E-05 -2.17665948330905812E-05 -2.23176076101330992E-05
 -2.28825687680841564E-05 -2.34618313824608047E-05 -2.40557574654206301E-05
 -2.46647181919164532E-05 -2.52890941315724721E-05 -2.59292754864258656E-05
 -2.65856623346826783E-05 -2.72586648806398555E-05 -2.79487037109289087E-05
 -2.86562100572417302E-05 -2.93816260657016872E-05 -3.01254050730484212E-05
 -3.08880118898084734E-05 -3.16699230906278186E-05 -3.24716273119482582E-05
 -3.32936255572118466E-05 -3.41364315097851043E-05 -3.50005718537970735E-05
 -3.58865866030912308E-05 -3.67950294384969851E-05 -3.77264680536298753E-05
 -3.86814845094367126E-05 -3.96606755977066270E-05 -4.06646532137733030E-05
 -4.16940447386425706E-05 -4.27494934307811589E-05 -4.38316588278125915E-05
 -4.49412171583692241E-05 -4.60788617643570193E-05 -4.72453035338965300E-05
 -4.84412713452088338E-05 -4.96675125217236669E-05 -5.09247932986923435E-05
 -5.22138993015960104E-05 -5.35356360366474239E-05 -5.48908293936907891E-05
 -5.62803261618132321E-05 -5.77049945579884775E-05 -5.91657247690809056E-05
 -6.06634295075485509E-05 -6.21990445811890198E-05 -6.37735294772836733E-05
 -6.53878679615034269E-05 -6.70430686919470839E-05 -6.87401658486958293E-05
 -7.04802197792734101E-05 -7.22643176604141927E-05 -7.40935741765502286E-05
 -7.59691322154376039E-05 -7.78921635813562707E-05 -7.98638697263238419E-05
 -8.18854824997794896E-05 -8.39582649172021869E-05 -8.60835119481402481E-05
 -8.82625513241426057E-05 -9.04967443670910324E-05 -9.27874868384491566E-05
 -9.51362098099540565E-05 -9.75443805562900665E-05 -1.00013503470299596E-04
 -1.02545121001296115E-04 -1.05140814617063610E-04 -1.07802205790136324E-04
 -1.10530957008970172E-04 -1.13328772814633695E-04 -1.16197400863657805E-04
 -1.19138633017704657E-04 -1.22154306460729647E-04 -1.25246304844324913E-04
 -1.28416559461958353E-04 -1.31667050452828572E-04 -1.34999808036083695E-04
 -1.38416913776166127E-04 -1.41920501880063872E-04 -1.45512760527271516E-04
 -1.49195933233280852E-04 -1.52972320247443688E-04 -1.56844279986069138E-04
 -1.60814230501639432E-04 -1.64884650989051201E-04 -1.69058083329809476E-04
 -1.73337133675127686E-04 -1.77724474068907998E-04 -1.82222844111601233E-04
 -1.86835052665972355E-04 -1.91563979605819431E-04 -1.96412577608722302E-04
 -2.01383873993924914E-04 -2.06480972606477414E-04 -2.11707055748800485E-04
 -2.17065386160852762E-04 -2.22559309050122131E-04 -2.28192254172680895E-04
 -2.33967737966587081E-04 -2.39889365738933815E-04 -2.45960833907891020E-04
 -2.52185932301109183E-04 -2.58568546511894314E-04 -2.65112660314594255E-04
 -2.71822358140672298E-04 -2.78701827616981634E-04 -2.85755362167791909E-04
 -2.92987363682153002E-04 -3.00402345248224935E-04 -3.08004933956240539E-04
 -3.15799873771807095E-04 -3.23792028481296578E-04 -3.31986384711114950E-04
 -3.40388055022690025E-04 -3.49002281085051234E-04 -3.57834436926932802E-04
 -3.66890032270370003E-04 -3.76174715947808045E-04 -3.85694279404797107E-04
 -3.95454660290386927E-04 -4.05461946137396321E-04 -4.15722378134778035E-04
 -4.26242354994356681E-04 -4.37028436914271585E-04 -4.48087349641510468E-04
 -4.59425988635978164E-04 -4.71051423338610857E-04 -4.82970901546086312E-04
 -4.95191853894768230E-04 -5.07721898456564612E-04 -5.20568845449451015E-04
 -5.33740702065481267E-04 -5.47245677419162129E-04 -5.61092187619152000E-04
 -5.75288860966300286E-04 -5.89844543281119269E-04 -6.04768303363864080E-04
 -6.20069438590448467E-04 -6.35757480647529080E-04 -6.51842201410136424E-04
 -6.68333618965341559E-04 -6.85242003785503564E-04 -7.02577885054738610E-04
 -7.20352057152339994E-04 -7.38575586296944691E-04 -7.57259817355356284E-04
 -7.76416380820002094E-04 -7.96057199959106861E-04 -8.16194498143754774E-04
 -8.36840806356105955E-04 -8.58008970883129590E-04 -8.79712161200323322E-04
 -9.01963878049976786E-04 -9.24777961718652739E-04 -9.48168600518654327E-04
 -9.72150339478359778E-04 -9.96738089246413262E-04 -1.02194713521487385E-03
 -1.04779314686652869E-03 -1.07429218735171131E-03 -1.10146072330005057E-03
 -1.12931563487273737E-03 -1.15787422606097477E-03 -1.18715423523643531E-03
 -1.21717384595965042E-03 -1.24795169805239710E-03 -1.27950689894027868E-03
 -1.31185903527181397E-03 -1.34502818482049578E-03 -1.37903492867641583E-03
 -1.41390036373417976E-03 -1.44964611548398779E-03 -1.48629435111288831E-03
 -1.52386779292336839E-03 -1.56238973207657511E-03 -1.60188404266761578E-03
 -1.64237519614054950E-03 -1.68388827605080106E-03 -1.72644899318291243E-03
 -1.77008370103168972E-03 -1.81481941165494631E-03 -1.86068381190623703E-03
 -1.90770528005607858E-03 -1.95591290281039521E-03 -2.00533649273499119E-03
 -2.05600660609510637E-03 -2.10795456111921662E-03 -2.16121245669641509E-03
 -2.21581319151692088E-03 -2.27179048366534355E-03 -2.32917889067657839E-03
 -2.38801383006434628E-03 -2.44833160033253259E-03 -2.51016940247968242E-03
 -2.57356536200717802E-03 -2.63855855144173044E-03 -2.70518901338309822E-03
 -2.77349778408796013E-03 -2.84352691760116809E-03 -2.91531951044569481E-03
 -2.98891972688274197E-03 -3.06437282475368906E-03 -3.14172518191565284E-03
 -3.22102432328262448E-03 -3.30231894848426015E-03 -3.38565896015459184E-03
 -3.47109549286299130E-03 -3.55868094269994398E-03 -3.64846899753022832E-03
 -3.74051466792627886E-03 -3.83487431879460253E-03 -3.93160570170819797E-03
 -4.03076798795809748E-03 -4.13242180233716009E-03 -4.23662925766935677E-03
 -4.34345399009789575E-03 -4.45296119514549445E-03 -4.56521766456028776E-03
 -4.68029182396072652E-03 -4.79825377129300921E-03 -4.91917531611443543E-03
 -5.04313001971617644E-03 -5.17019323609884188E-03 -5.30044215381422594E-03
 -5.43395583868644047E-03 -5.57081527742572021E-03 -5.71110342214787084E-03
 -5.85490523581232245E-03 -6.00230773859150146E-03 -6.15340005518407590E-03
 -6.30827346308435264E-03 -6.46702144181989392E-03 -6.62973972316902981E-03
 -6.79652634236971049E-03 -6.96748169033068257E-03 -7.14270856685555750E-03
 -7.32231223488992097E-03 -7.50640047580108678E-03 -7.69508364569949661E-03
 -7.88847473281020957E-03 -8.08668941590220611E-03 -8.28984612378253632E-03
 -8.49806609586143541E-03 -8.71147344379384278E-03 -8.93019521420159411E-03
 -9.15436145247977388E-03 -9.38410526768937089E-03 -9.61956289853741105E-03
 -9.86087378044442527E-03 -1.01081806136975091E-02 -1.03616294326861966E-02
 -1.06213696762163870E-02 -1.08875542588961031E-02 -1.11603396435850169E-02
 -1.14398859148977343E-02 -1.17263568537487577E-02 -1.20199200129248208E-02
 -1.23207467936682098E-02 -1.26290125232517789E-02 -1.29448965335241094E-02
 -1.32685822404000984E-02 -1.36002572242695241E-02 -1.39401133112928653E-02
 -1.42883466555502013E-02 -1.46451578220056222E-02 -1.50107518702454722E-02
 -1.53853384389451477E-02 -1.57691318310143602E-02 -1.61623510993668118E-02
 -1.65652201332550514E-02 -1.69779677451063309E-02 -1.74008277577900466E-02
 -1.78340390922415680E-02 -1.82778458553612237E-02 -1.87324974281011976E-02
 -1.91982485536460433E-02 -1.96753594255858963E-02 -2.01640957759736533E-02
 -2.06647289631500392E-02 -2.11775360592118198E-02 -2.17027999369901088E-02
 -2.22408093563963086E-02 -2.27918590499839799E-02 -2.33562498075643860E-02
 -2.39342885597032852E-02 -2.45262884599151340E-02 -2.51325689653591165E-02
 -2.57534559158291709E-02 -2.63892816108169878E-02 -2.70403848844145978E-02
 -2.77071111778072129E-02 -2.83898126090926031E-02 -2.90888480401482637E-02
 -2.98045831402503278E-02 -3.05373904461317819E-02 -3.12876494181487733E-02
 -3.20557464922055224E-02 -3.28420751270681946E-02 -3.36470358466777475E-02
 -3.44710362770500184E-02 -3.53144911773285580E-02 -3.61778224645327301E-02
 -3.70614592315182262E-02 -3.79658377576420347E-02 -3.88914015115967918E-02
 -3.98386011458517139E-02 -4.08078944821076081E-02 -4.17997464871441154E-02
 -4.28146292384045599E-02 -4.38530218786318260E-02 -4.49154105588336489E-02
 -4.60022883688211426E-02 -4.71141552545261549E-02 -4.82515179212656894E-02
 -4.94148897220814745E-02 -5.06047905302411116E-02 -5.18217465949445538E-02
 -5.30662903792343127E-02 -5.43389603790673872E-02 -5.56403009224512857E-02
 -5.69708619475023173E-02 -5.83311987582322208E-02 -5.97218717568178195E-02
 -6.11434461510543120E-02 -6.25964916356371998E-02 -6.40815820458609381E-02
 -6.55992949822638977E-02 -6.71502114046888254E-02 -6.87349151941674813E-02
 -7.03539926809732402E-02 -7.20080321371230070E-02 -7.36976232315427054E-02
 -7.54233564460440181E-02 -7.71858224501921070E-02 -7.89856114330744485E-02
 -8.08233123899111533E-02 -8.26995123613763622E-02 -8.46147956234278575E-02
 -8.65697428253718315E-02 -8.85649300738159534E-02 -9.06009279600932249E-02
 -9.26783005286661160E-02 -9.47976041839501959E-02 -9.69593865329261839E-02
 -9.91641851608374425E-02 -1.01412526337206363E-01 -1.03704923649345804E-01
 -1.06041876560459991E-01 -1.08423868889382061E-01 -1.10851367208938623E-01
 -1.13324819159879867E-01 -1.15844651677266958E-01 -1.18411269126168214E-01
 -1.21025051343480572E-01 -1.23686351582669496E-01 -1.26395494358197580E-01
 -1.29152773186408221E-01 -1.31958448219630126E-01 -1.34812743770283266E-01
 -1.37715845721793378E-01 -1.40667898823164439E-01 -1.43669003864114853E-01
 -1.46719214727759756E-01 -1.49818535317914170E-01 -1.52966916358210192E-01
 -1.56164252060357278E-01 -1.59410376659041259E-01 -1.62705060811147079E-01
 -1.66048007857213492E-01 -1.69438849943280762E-01 -1.72877144001581606E-01
 -1.76362367588851099E-01 -1.79893914581403663E-01 -1.83471090726534641E-01
 -1.87093109050255973E-01 -1.90759085121893296E-01 -1.94468032176635636E-01
 -1.98218856097750584E-01 -2.02010350260862864E-01 -2.05841190243448130E-01
 -2.09709928403513601E-01 -2.13614988332338024E-01 -2.17554659187121802E-01
 -2.21527089910458969E-01 -2.25530283344700183E-01 -2.29562090250519879E-01
 -2.33620203240352403E-01 -2.37702150638812226E-01 -2.41805290283781227E-01
 -2.45926803283522483E-01 -2.50063687746983676E-01 -2.54212752506378259E-01
 -2.58370610853194571E-01 -2.62533674310974241E-01 -2.66698146470541964E-01
 -2.70860016915845103E-01 -2.75015055271199349E-01 -2.79158805403524335E-01
 -2.83286579816165729E-01 -2.87393454273717486E-01 -2.91474262700816500E-01
 -2.95523592401254198E-01 -2.99535779647233991E-01 -3.03504905692387472E-01
 -3.07424793266042218E-01 -3.11289003610282944E-01 -3.15090834125527186E-01
 -3.18823316694658077E-01 -3.22479216760199361E-01 -3.26051033233566989E-01
 -3.29530999320075568E-01 -3.32911084348104458E-01 -3.36182996695577829E-01
 -3.39338187911726041E-01 -3.42367858136852499E-01 -3.45262962927585182E-01
 -3.48014221599727447E-01 -3.50612127205340796E-01 -3.53046958265024025E-01
 -3.55308792380427285E-01 -3.57387521855815127E-01 -3.59272871460873666E-01
 -3.60954418469869920E-01 -3.62421615114717377E-01 -3.63663813591600382E-01
 -3.64670293759847275E-01 -3.65430293673974449E-01 -3.65933043088456145E-01
 -3.66167800072024652E-01 -3.66123890865172608E-01 -3.65790753109660693E-01
 -3.65157982572333895E-01 -3.64215383477225985E-01 -3.62953022549604820E-01
 -3.61361286863068620E-01 -3.59430945565831605E-01 -3.57153215544705083E-01
 -3.54519831064780411E-01 -3.51523117399168306E-01 -3.48156068436151822E-01
 -3.44412428220470856E-01 -3.40286776350966214E-01 -3.35774617118186625E-01
 -3.30872472222590142E-01 -3.25577976866402163E-01 -3.19889978959806753E-01
 -3.13808641124760757E-01 -3.07335545117144671E-01 -3.00473798220061483E-01
 -2.93228141088238914E-01 -2.85605056444450889E-01 -2.77612877941041669E-01
 -2.69261898416900125E-01 -2.60564476681244273E-01 -2.51535141855912858E-01
 -2.42190694203795964E-01 -2.32550301262502451E-01 -2.22635587990321432E-01
 -2.12470719516808598E-01 -2.02082474973868970E-01 -1.91500310766156950E-01
 -1.80756411523353117E-01 -1.69885726863007763E-01 -1.58925991982958759E-01
 -1.47917729999048397E-01 -1.36904233849245327E-01 -1.25931525502162467E-01
 -1.15048290139241144E-01 -1.04305782928960505E-01 -9.37577059819688641E-02
 -8.34600530719955130E-02 -7.34709197331638031E-02 -6.38502764044761723E-02
 -5.46597023917270025E-02 -4.59620785609500815E-02 -3.78212368664139278E-02
 -3.03015650785377413E-02 -2.34675653849917912E-02 -1.73833658995374216E-02
 -1.21121845658707615E-02 -7.71574527682522809E-03 -4.25364353030672961E-03
 -1.78261019519654752E-03 -3.54851146242637623E-04  6.65902707345809782E-06
  4.77528814211843047E-07  3.37468893526380325E-08  2.35066432633177150E-09
  1.61336387480786786E-10  1.09017648952907511E-11  7.24201931124238243E-13
  4.71906895878150408E-14  3.00634720514012669E-15  1.86300678080883611E-16
  1.11411457461874187E-17  6.34416462034186827E-19  3.35464853265398937E-20
  1.55668070368129687E-21  5.27541242456589945E-23 -1.83892427525068506E-25
 -2.72482781906647173E-25 -3.62383535244221155E-26 -3.66047869566107229E-27
 -3.28960797728706724E-28 -2.76682027056765469E-29 -2.22780645282424813E-30
 -1.73793190172895708E-31 -1.32276157455021635E-32 -9.86504369301220342E-34
 -7.22887527227238812E-35 -5.21354892728465106E-36  0.00000000000000000E+00
  0.00000000000000000E+00  0.00000000000000000E+00  0.00000000000000000E+00
  0.00000000000000000E+00  0.00000000000000000E+00  0.00000000000000000E+00
  0.00000000000000000E+00  0.00000000000000000E+00  0.00000000000000000E+00
  0.00000000000000000E+00  0.00000000000000000E+00  0.00000000000000000E+00
  0.00000000000000000E+00  0.00000000000000000E+00  0.00000000000000000E+00
  0.00000000000000000E+00  0.00000000000000000E+00  0.00000000000000000E+00
  0.00000000000000000E+00  0.00000000000000000E+00  0.00000000000000000E+00
  0.00000000000000000E+00  0.00000000000000000E+00  0.00000000000000000E+00
  0.00000000000000000E+00  0.00000000000000000E+00  0.00000000000000000E+00
  0.00000000000000000E+00  0.00000000000000000E+00  0.00000000000000000E+00
  0.00000000000000000E+00  0.00000000000000000E+00  0.00000000000000000E+00
  0.00000000000000000E+00  0.00000000000000000E+00  0.00000000000000000E+00
  0.00000000000000000E+00  0.00000000000000000E+00  0.00000000000000000E+00
  0.00000000000000000E+00  0.00000000000000000E+00  0.00000000000000000E+00
  0.00000000000000000E+00  0.00000000000000000E+00  0.00000000000000000E+00
  0.00000000000000000E+00  0.00000000000000000E+00  0.00000000000000000E+00
  0.00000000000000000E+00  0.00000000000000000E+00  0.00000000000000000E+00
  0.00000000000000000E+00  0.00000000000000000E+00  0.00000000000000000E+00
  0.00000000000000000E+00  0.00000000000000000E+00  0.00000000000000000E+00
  0.00000000000000000E+00  0.00000000000000000E+00  0.00000000000000000E+00
  0.00000000000000000E+00  0.00000000000000000E+00  0.00000000000000000E+00
  0.00000000000000000E+00  0.00000000000000000E+00  0.00000000000000000E+00
  0.00000000000000000E+00  0.00000000000000000E+00  0.00000000000000000E+00
  0.00000000000000000E+00  0.00000000000000000E+00  0.00000000000000000E+00
  0.00000000000000000E+00  0.00000000000000000E+00  0.00000000000000000E+00
  0.00000000000000000E+00  0.00000000000000000E+00  0.00000000000000000E+00
  0.00000000000000000E+00  0.00000000000000000E+00  0.00000000000000000E+00
  0.00000000000000000E+00  0.00000000000000000E+00  0.00000000000000000E+00
  0.00000000000000000E+00  0.00000000000000000E+00  0.00000000000000000E+00
  0.00000000000000000E+00  0.00000000000000000E+00  0.00000000000000000E+00
  0.00000000000000000E+00  0.00000000000000000E+00  0.00000000000000000E+00
  0.00000000000000000E+00  0.00000000000000000E+00  0.00000000000000000E+00
  0.00000000000000000E+00  0.00000000000000000E+00  0.00000000000000000E+00
  0.00000000000000000E+00  0.00000000000000000E+00  0.00000000000000000E+00
  0.00000000000000000E+00  0.00000000000000000E+00  0.00000000000000000E+00
  0.00000000000000000E+00  0.00000000000000000E+00  0.00000000000000000E+00
  0.00000000000000000E+00  0.00000000000000000E+00  0.00000000000000000E+00
  0.00000000000000000E+00  0.00000000000000000E+00  0.00000000000000000E+00
  0.00000000000000000E+00  0.00000000000000000E+00  0.00000000000000000E+00
  0.00000000000000000E+00  0.00000000000000000E+00  0.00000000000000000E+00
  0.00000000000000000E+00  0.00000000000000000E+00  0.00000000000000000E+00
  0.00000000000000000E+00  0.00000000000000000E+00  0.00000000000000000E+00
  0.00000000000000000E+00  0.00000000000000000E+00  0.00000000000000000E+00
  0.00000000000000000E+00  0.00000000000000000E+00  0.00000000000000000E+00
  0.00000000000000000E+00  0.00000000000000000E+00  0.00000000000000000E+00
  0.00000000000000000E+00  0.00000000000000000E+00  0.00000000000000000E+00
  0.00000000000000000E+00  0.00000000000000000E+00  0.00000000000000000E+00
  0.00000000000000000E+00  0.00000000000000000E+00  0.00000000000000000E+00
  0.00000000000000000E+00  0.00000000000000000E+00  0.00000000000000000E+00
  0.00000000000000000E+00  0.00000000000000000E+00  0.00000000000000000E+00
  0.00000000000000000E+00  0.00000000000000000E+00  0.00000000000000000E+00
  0.00000000000000000E+00  0.00000000000000000E+00  0.00000000000000000E+00
  0.00000000000000000E+00  0.00000000000000000E+00  0.00000000000000000E+00
  0.00000000000000000E+00  0.00000000000000000E+00  0.00000000000000000E+00
                       </PP_QIJL.2.2.0>
 <PP_QIJL.2.3.1 type="real" size="   999" columns="3" first_index=" 2" second_index=" 3" composite_index=" 5" angular_momentum="1">
 -6.77377821146216563E-13 -7.03261780374258769E-13 -7.30134817370546470E-13
 -7.58034726771465093E-13 -7.87000747421909875E-13 -8.17073617561382597E-13
 -8.48295632118851787E-13 -8.80710702196937070E-13 -9.14364416829151999E-13
 -9.49304107097014521E-13 -9.85578912697136068E-13 -1.02323985105201915E-12
 -1.06233988906174187E-12 -1.10293401759737140E-12 -1.14507932884091343E-12
 -1.18883509658061812E-12 -1.23426285957452639E-12 -1.28142650809943441E-12
 -1.33039237380714528E-12 -1.38122932301432000E-12 -1.43400885355700367E-12
 -1.48880519534626476E-12 -1.54569541476626984E-12 -1.60475952306152005E-12
 -1.66608058886586749E-12 -1.72974485503148666E-12 -1.79584185992204155E-12
 -1.86446456334076823E-12 -1.93570947727055397E-12 -2.00967680160974168E-12
 -2.08647056509475897E-12 -2.16619877160770959E-12 -2.24897355207451434E-12
 -2.33491132216758268E-12 -2.42413294603451571E-12 -2.51676390628312106E-12
 -2.61293448046212523E-12 -2.71277992428532326E-12 -2.81644066185721891E-12
 -2.92406248316763446E-12 -3.03579674913270536E-12 -3.15180060447127098E-12
 -3.27223719871539517E-12 -3.39727591566625988E-12 -3.52709261161814425E-12
 -3.66186986268506707E-12 -3.80179722157872871E-12 -3.94707148419804576E-12
 -4.09789696640586244E-12 -4.25448579138179299E-12 -4.41705818795521785E-12
 -4.58584280033852263E-12 -4.76107700969542640E-12 -4.94300726799754009E-12
 -5.13188944463782384E-12 -5.32798918628916807E-12 -5.53158229051361390E-12
 -5.74295509364818347E-12 -5.96240487351236828E-12 -6.19024026750407136E-12
 -6.42678170667165590E-12 -6.67236186637282885E-12 -6.92732613415417511E-12
 -7.19203309550908355E-12 -7.46685503819778694E-12 -7.75217847583802173E-12
 -8.04840469150359718E-12 -8.35595030209457229E-12 -8.67524784427337145E-12
 -9.00674638279064519E-12 -9.35091214205630045E-12 -9.70822916184438469E-12
 -1.00791999780534824E-11 -1.04643463294806155E-11 -1.08642098916020559E-11
 -1.12793530383937126E-11 -1.17103596332616788E-11 -1.21578358501965453E-11
 -1.26224110263048297E-11 -1.31047385469180532E-11 -1.36054967645230591E-11
 -1.41253899528066418E-11 -1.46651492971564769E-11 -1.52255339230102282E-11
 -1.58073319635009941E-11 -1.64113616678986090E-11 -1.70384725524071720E-11
 -1.76895465949370496E-11 -1.83654994755307375E-11 -1.90672818641887920E-11
 -1.97958807579054143E-11 -2.05523208687949070E-11 -2.13376660652617400E-11
 -2.21530208682398654E-11 -2.29995320046067879E-11 -2.38783900199564565E-11
 -2.47908309529993979E-11 -2.57381380739449006E-11 -2.67216436893106500E-11
 -2.77427310156974152E-11 -2.88028361251637703E-11 -2.99034499649387310E-11
 -3.10461204543106256E-11 -3.22324546616421421E-11 -3.34641210645744757E-11
 -3.47428518965971238E-11 -3.60704455832853002E-11 -3.74487692716307239E-11
 -3.88797614560232856E-11 -4.03654347045768322E-11 -4.19078784896320024E-11
 -4.35092621264196551E-11 -4.51718378240158306E-11 -4.68979438528796175E-11
 -4.86900078334289729E-11 -5.05505501502791462E-11 -5.24821874969465229E-11
 -5.44876365560022922E-11 -5.65697178198518017E-11 -5.87313595575136095E-11
 -6.09756019329766310E-11 -6.33056012809285265E-11 -6.57246345458672330E-11
 -6.82361038908401943E-11 -7.08435414822925480E-11 -7.35506144577528714E-11
 -7.63611300833451560E-11 -7.92790411083787601E-11 -8.23084513245476888E-11
 -8.54536213375585423E-11 -8.87189745593016809E-11 -9.21091034289970863E-11
 -9.56287758720613718E-11 -9.92829420057807620E-11 -1.03076741101220767E-10
 -1.07015508811165233E-10 -1.11104784674246167E-10 -1.15350319905824219E-10
 -1.19758085486571762E-10 -1.24334280560136868E-10 -1.29085341151699763E-10
 -1.34017949219679284E-10 -1.39139042053325310E-10 -1.44455822029410216E-10
 -1.49975766741742323E-10 -1.55706639517749073E-10 -1.61656500336915946E-10
 -1.67833717166443781E-10 -1.74246977730060767E-10 -1.80905301726544236E-10
 -1.87818053515137723E-10 -1.94994955285697392E-10 -2.02446100732099878E-10
 -2.10181969248134936E-10 -2.18213440665849875E-10 -2.26551810557078464E-10
 -2.35208806119663156E-10 -2.44196602670727294E-10 -2.53527840770182901E-10
 -2.63215643998561057E-10 -2.73273637414170137E-10 -2.83715966715529985E-10
 -2.94557318136046581E-10 -3.05812939098895981E-10 -3.17498659661170605E-10
 -3.29630914777452092E-10 -3.42226767414106795E-10 -3.55303932546832429E-10
 -3.68880802075191087E-10 -3.82976470689174571E-10 -3.97610762724182252E-10
 -4.12804260042170768E-10 -4.28578330978202118E-10 -4.44955160393091199E-10
 -4.61957780874417600E-10 -4.79610105129796853E-10 -4.97936959617942586E-10
 -5.16964119464847119E-10 -5.36718344714168208E-10 -5.57227417962810315E-10
 -5.78520183434637392E-10 -6.00626587547252145E-10 -6.23577721028916634E-10
 -6.47405862644834740E-10 -6.72144524594288705E-10 -6.97828499642502151E-10
 -7.24493910053472773E-10 -7.52178258392637301E-10 -7.80920480270785841E-10
 -8.10760999103420080E-10 -8.41741782962576728E-10 -8.73906403601041487E-10
 -9.07300097731993277E-10 -9.41969830650254406E-10 -9.77964362284624861E-10
 -1.01533431577419653E-09 -1.05413224866506145E-09 -1.09441272682760882E-09
 -1.13623240119832110E-09 -1.17965008745399075E-09 -1.22472684873045436E-09
 -1.27152608150212976E-09 -1.32011360474318331E-09 -1.37055775249566385E-09
 -1.42292946997486993E-09 -1.47730241334704866E-09 -1.53375305331972803E-09
 -1.59236078269049348E-09 -1.65320802800532471E-09 -1.71638036548358477E-09
 -1.78196664137276591E-09 -1.85005909690208168E-09 -1.92075349801082986E-09
 -1.99414927003388219E-09 -2.07034963753365103E-09 -2.14946176947539499E-09
 -2.23159692994977504E-09 -2.31687063465483337E-09 -2.40540281335742549E-09
 -2.49731797856246051E-09 -2.59274540062740776E-09 -2.69181928956804820E-09
 -2.79467898381140933E-09 -2.90146914616124508E-09 -3.01233996725154976E-09
 -3.12744737677454972E-09 -3.24695326277975150E-09 -3.37102569935303678E-09
 -3.49983918299545949E-09 -3.63357487803461279E-09 -3.77242087141344615E-09
 -3.91657243721489111E-09 -4.06623231129444923E-09 -4.22161097640679699E-09
 -4.38292695822756121E-09 -4.55040713268643328E-09 -4.72428704504393197E-09
 -4.90481124116050905E-09 -5.09223361142395839E-09 -5.28681774781861911E-09
 -5.48883731463886160E-09 -5.69857643336779845E-09 -5.91633008226282404E-09
 -6.14240451120987349E-09 -6.37711767242960623E-09 -6.62079966764164821E-09
 -6.87379321231517941E-09 -7.13645411765955021E-09 -7.40915179103171768E-09
 -7.69226975546554241E-09 -7.98620618905216936E-09 -8.29137448493127050E-09
 -8.60820383267991134E-09 -8.93713982191675991E-09 -9.27864506897118891E-09
 -9.63319986749717380E-09 -1.00013028639487180E-08 -1.03834717588651296E-08
 -1.07802440349532824E-08 -1.11921777129909747E-08 -1.16198521366130769E-08
 -1.20638687870860985E-08 -1.25248521292152174E-08 -1.30034504895741349E-08
 -1.35003369682934574E-08 -1.40162103856880901E-08 -1.45517962650567474E-08
 -1.51078478530348271E-08 -1.56851471789348482E-08 -1.62845061545659481E-08
 -1.69067677160776159E-08 -1.75528070094334123E-08 -1.82235326211830746E-08
 -1.89198878562626686E-08 -1.96428520646193214E-08 -2.03934420185278412E-08
 -2.11727133425347488E-08 -2.19817619980398316E-08 -2.28217258246054363E-08
 -2.36937861401591157E-08 -2.45991694023388815E-08 -2.55391489333204869E-08
 -2.65150467105498313E-08 -2.75282352258984217E-08 -2.85801394158579721E-08
 -2.96722386654876700E-08 -3.08060688889316238E-08 -3.19832246894314373E-08
 -3.32053616018744257E-08 -3.44741984210278893E-08 -3.57915196187331456E-08
 -3.71591778534610494E-08 -3.85790965757562745E-08 -4.00532727332338015E-08
 -4.15837795789306903E-08 -4.31727695869643266E-08 -4.48224774795962743E-08
 -4.65352233699560139E-08 -4.83134160248453797E-08 -5.01595562522133489E-08
 -5.20762404180615745E-08 -5.40661640977272222E-08 -5.61321258666750319E-08
 -5.82770312361334160E-08 -6.05038967391052568E-08 -6.28158541724982179E-08
 -6.52161550013400322E-08 -6.77081749312721166E-08 -7.02954186557516155E-08
 -7.29815247846344703E-08 -7.57702709610692671E-08 -7.86655791738970876E-08
 -8.16715212730287368E-08 -8.47923246955517652E-08 -8.80323784106188999E-08
 -9.13962390914738012E-08 -9.48886375232962040E-08 -9.85144852558735030E-08
 -1.02278881510453438E-07 -1.06187120350486717E-07 -1.10244698126340492E-07
 -1.14457321204451324E-07 -1.18830913991785189E-07 -1.23371627266884489E-07
 -1.28085846829214918E-07 -1.32980202478969982E-07 -1.38061577339959542E-07
 -1.43337117538689750E-07 -1.48814242253240646E-07 -1.54500654146069591E-07
 -1.60404350195402253E-07 -1.66533632940444154E-07 -1.72897122156214589E-07
 -1.79503766974418221E-07 -1.86362858467398154E-07 -1.93484042712849648E-07
 -2.00877334357666835E-07 -2.08553130699988051E-07 -2.16522226309228102E-07
 -2.24795828204657329E-07 -2.33385571613856425E-07 -2.42303536333202282E-07
 -2.51562263713377938E-07 -2.61174774293776816E-07 -2.71154586110597941E-07
 -2.81515733704349323E-07 -2.92272787853488987E-07 -3.03440876061931314E-07
 -3.15035703829214310E-07 -3.27073576733225685E-07 -3.39571423356512822E-07
 -3.52546819088405377E-07 -3.66018010836401968E-07 -3.80003942681534800E-07
 -3.94524282513785817E-07 -4.09599449684962803E-07 -4.25250643717917680E-07
 -4.41499874112431602E-07 -4.58369991289652566E-07 -4.75884718718575754E-07
 -4.94068686269692300E-07 -5.12947464842689584E-07 -5.32547602316843339E-07
 -5.52896660874612434E-07 -5.74023255750885499E-07 -5.95957095462306660E-07
 -6.18729023573214762E-07 -6.42371062056858399E-07 -6.66916456312799845E-07
 -6.92399721903764117E-07 -7.18856693077564647E-07 -7.46324573142281677E-07
 -7.74841986765452583E-07 -8.04449034270713077E-07 -8.35187348008186485E-07
 -8.67100150877761122E-07 -9.00232317087473088E-07 -9.34630435232326409E-07
 -9.70342873782110451E-07 -1.00741984907021648E-06 -1.04591349587889446E-06
 -1.08587794072009053E-06 -1.12736937791475956E-06 -1.17044614857745513E-06
 -1.21516882261713276E-06 -1.26160028386925379E-06 -1.30980581847873653E-06
 -1.35985320665782863E-06 -1.41181281794768713E-06 -1.46575771011742494E-06
 -1.52176373183940184E-06 -1.57990962928492155E-06 -1.64027715678990812E-06
 -1.70295119174587531E-06 -1.76801985387745707E-06 -1.83557462907383017E-06
 -1.90571049794783631E-06 -1.97852606930318507E-06 -2.05412371869693046E-06
 -2.13260973229174935E-06 -2.21409445619969258E-06 -2.29869245152699081E-06
 -2.38652265533738345E-06 -2.47770854775970617E-06 -2.57237832547413577E-06
 -2.67066508182038822E-06 -2.77270699378042101E-06 -2.87864751609784019E-06
 -2.98863558280617268E-06 -3.10282581644857532E-06 -3.22137874528223102E-06
 -3.34446102877193966E-06 -3.47224569168895608E-06 -3.60491236714314017E-06
 -3.74264754888905094E-06 -3.88564485325949329E-06 -4.03410529109353179E-06
 -4.18823755003996559E-06 -4.34825828763168449E-06 -4.51439243554149473E-06
 -4.68687351544545688E-06 -4.86594396693618984E-06 -5.05185548794517597E-06
 -5.24486938815087169E-06 -5.44525695586720589E-06 -5.65329983892617567E-06
 -5.86929044008753399E-06 -6.09353232752901552E-06 -6.32634066099144571E-06
 -6.56804263417494694E-06 -6.81897793400513647E-06 -7.07949921741173823E-06
 -7.34997260628630802E-06 -7.63077820131130142E-06 -7.92231061537879526E-06
 -8.22497952734458399E-06 -8.53921025689163543E-06 -8.86544436130619494E-06
 -9.20414025500056806E-06 -9.55577385264782739E-06 -9.92083923682696290E-06
 -1.02998493511107792E-05 -1.06933367195642583E-05 -1.11018541936579901E-05
 -1.15259757276389856E-05 -1.19662971834410371E-05 -1.24234371662576139E-05
 -1.28980378919428717E-05 -1.33907660874505115E-05 -1.39023139255660013E-05
 -1.44333999952351040E-05 -1.49847703088414556E-05 -1.55571993478361276E-05
 -1.61514911481765097E-05 -1.67684804270856934E-05 -1.74090337527015365E-05
 -1.80740507582435048E-05 -1.87644654023869934E-05 -1.94812472775988237E-05
 -2.02254029682534688E-05 -2.09979774604185973E-05 -2.18000556052698610E-05
 -2.26327636381681784E-05 -2.34972707555106044E-05 -2.43947907515440279E-05
 -2.53265837174148624E-05 -2.62939578048124765E-05 -2.72982710566535071E-05
 -2.83409333073463609E-05 -2.94234081552701606E-05 -3.05472150102024362E-05
 -3.17139312185317420E-05 -3.29251942691988255E-05 -3.41827040834200311E-05
 -3.54882253913615158E-05 -3.68435901990517601E-05 -3.82507003489433842E-05
 -3.97115301776629614E-05 -4.12281292746204331E-05 -4.28026253452871034E-05
 -4.44372271830938855E-05 -4.61342277540496311E-05 -4.78960073983324860E-05
 -4.97250371532660144E-05 -5.16238822022578437E-05 -5.35952054544474251E-05
 -5.56417712599894249E-05 -5.77664492660801305E-05 -5.99722184190275962E-05
 -6.22621711178607880E-05 -6.46395175251799259E-05 -6.71075900411613902E-05
 -6.96698479468501729E-05 -7.23298822231009745E-05 -7.50914205517657106E-05
 -7.79583325059689404E-05 -8.09346349365671171E-05 -8.40244975621498276E-05
 -8.72322487702140582E-05 -9.05623816374241414E-05 -9.40195601771620307E-05
 -9.76086258228771271E-05 -1.01334604156055780E-04 -1.05202711887958413E-04
 -1.09218364104606813E-04 -1.13387181784853518E-04 -1.17714999601726891E-04
 -1.22207874017617548E-04 -1.26872091684262112E-04 -1.31714178158877929E-04
 -1.36740906948219158E-04 -1.41959308892755816E-04 -1.47376681903618756E-04
 -1.53000601065418634E-04 -1.58838929118519304E-04 -1.64899827334842136E-04
 -1.71191766801790095E-04 -1.77723540129402812E-04 -1.84504273596407432E-04
 -1.91543439751392871E-04 -1.98850870485917000E-04 -2.06436770596970430E-04
 -2.14311731856835946E-04 -2.22486747609037784E-04 -2.30973227909743581E-04
 -2.39783015234669054E-04 -2.48928400772258573E-04 -2.58422141324647961E-04
 -2.68277476838686408E-04 -2.78508148590078024E-04 -2.89128418044528126E-04
 -3.00153086420614098E-04 -3.11597514979981447E-04 -3.23477646071355777E-04
 -3.35810024955800473E-04 -3.48611822441603997E-04 -3.61900858358168900E-04
 -3.75695625899308239E-04 -3.90015316867397025E-04 -4.04879847850923174E-04
 -4.20309887369106584E-04 -4.36326884018406339E-04 -4.52953095656941432E-04
 -4.70211619664067564E-04 -4.88126424313641374E-04 -5.06722381300788501E-04
 -5.26025299463363672E-04 -5.46061959740666092E-04 -5.66860151413402301E-04
 -5.88448709670359249E-04 -6.10857554548779424E-04 -6.34117731296968742E-04
 -6.58261452209285580E-04 -6.83322139985301116E-04 -7.09334472666616075E-04
 -7.36334430206561619E-04 -7.64359342729801941E-04 -7.93447940540686425E-04
 -8.23640405941091663E-04 -8.54978426920427882E-04 -8.87505252782453953E-04
 -9.21265751775601077E-04 -9.56306470795572098E-04 -9.92675697231121517E-04
 -1.03042352302610716E-03 -1.06960191103313705E-03 -1.11026476373642818E-03
 -1.15246799442380947E-03 -1.19626960089021152E-03 -1.24172974175739748E-03
 -1.28891081549718529E-03 -1.33787754224792919E-03 -1.38869704851661644E-03
 -1.44143895486155632E-03 -1.49617546665326766E-03 -1.55298146801394416E-03
 -1.61193461903854870E-03 -1.67311545640341504E-03 -1.73660749747104226E-03
 -1.80249734800259800E-03 -1.87087481359254014E-03 -1.94183301494260598E-03
 -2.01546850709546400E-03 -2.09188140275118036E-03 -2.17117549979253420E-03
 -2.25345841314820907E-03 -2.33884171112584997E-03 -2.42744105634989157E-03
 -2.51937635144193310E-03 -2.61477188958440755E-03 -2.71375651011101452E-03
 -2.81646375927033276E-03 -2.92303205631161932E-03 -3.03360486504460460E-03
 -3.14833087102761805E-03 -3.26736416454083368E-03 -3.39086442950393453E-03
 -3.51899713849959227E-03 -3.65193375406635493E-03 -3.78985193642646795E-03
 -3.93293575781586240E-03 -4.08137592358512238E-03 -4.23537000024150432E-03
 -4.39512265060319589E-03 -4.56084587623768571E-03 -4.73275926735658523E-03
 -4.91109026033932465E-03 -5.09607440305788906E-03 -5.28795562817392043E-03
 -5.48698653457849444E-03 -5.69342867714304774E-03 -5.90755286494774965E-03
 -6.12963946815068324E-03 -6.35997873365749464E-03 -6.59887110974852892E-03
 -6.84662757981328515E-03 -7.10357000533717343E-03 -7.37003147827920268E-03
 -7.64635668297115618E-03 -7.93290226766040635E-03 -8.23003722580844393E-03
 -8.53814328724642954E-03 -8.85761531927651592E-03 -9.18886173779420029E-03
 -9.53230492849160317E-03 -9.88838167818474091E-03 -1.02575436162895255E-02
 -1.06402576664504905E-02 -1.10370065083042670E-02 -1.14482890493350521E-02
 -1.18746209067528349E-02 -1.23165348992957304E-02 -1.27745815488265017E-02
 -1.32493295915584210E-02 -1.37413664987087181E-02 -1.42512990063370492E-02
 -1.47797536540830547E-02 -1.53273773324693833E-02 -1.58948378383858974E-02
 -1.64828244383157484E-02 -1.70920484388047168E-02 -1.77232437636111080E-02
 -1.83771675369034174E-02 -1.90546006718103761E-02 -1.97563484635348112E-02
 -2.04832411861647495E-02 -2.12361346922257180E-02 -2.20159110139214395E-02
 -2.28234789649071380E-02 -2.36597747413294819E-02 -2.45257625207504076E-02
 -2.54224350574469259E-02 -2.63508142724462532E-02 -2.73119518365142686E-02
 -2.83069297441647209E-02 -2.93368608765971865E-02 -3.04028895513021834E-02
 -3.15061920558919739E-02 -3.26479771635256114E-02 -3.38294866270943684E-02
 -3.50519956491212037E-02 -3.63168133241019014E-02 -3.76252830497769766E-02
 -3.89787829035733169E-02 -4.03787259801878379E-02 -4.18265606860077355E-02
 -4.33237709857670281E-02 -4.48718765965302815E-02 -4.64724331237702029E-02
 -4.81270321339568041E-02 -4.98373011577247851E-02 -5.16049036173523851E-02
 -5.34315386718144728E-02 -5.53189409723096326E-02 -5.72688803207316507E-02
 -5.92831612231066590E-02 -6.13636223295535715E-02 -6.35121357518438345E-02
 -6.57306062491351539E-02 -6.80209702719373477E-02 -7.03851948538285893E-02
 -7.28252763398876957E-02 -7.53432389402358960E-02 -7.79411330964916854E-02
 -8.06210336483381418E-02 -8.33850377867833420E-02 -8.62352627800588717E-02
 -8.91738434574585043E-02 -9.22029294357601392E-02 -9.53246820722122024E-02
 -9.85412711273921937E-02 -1.01854871120572857E-01 -1.05267657359555511E-01
 -1.08781801626259694E-01 -1.12399467498693534E-01 -1.16122805289277375E-01
 -1.19953946578821677E-01 -1.23894998324892786E-01 -1.27948036522855690E-01
 -1.32115099397014490E-01 -1.36398180098976113E-01 -1.40799218889886640E-01
 -1.45320094782789455E-01 -1.49962616621035300E-01 -1.54728513568444914E-01
 -1.59619424986786801E-01 -1.64636889676110232E-01 -1.69782334453574546E-01
 -1.75057062046656969E-01 -1.80462238277028675E-01 -1.85998878511968196E-01
 -1.91667833360966100E-01 -1.97469773596180176E-01 -2.03405174276653833E-01
 -2.09474298057735125E-01 -2.15677177668961134E-01 -2.22013597545828334E-01
 -2.28483074603391789E-01 -2.35084838142547548E-01 -2.41817808883205643E-01
 -2.48680577122372848E-01 -2.55671380019499683E-01 -2.62788078016293558E-01
 -2.70028130403598354E-01 -2.77388570054566408E-01 -2.84865977349495314E-01
 -2.92456453325443066E-01 -3.00155592092232693E-01 -3.07958452565582574E-01
 -3.15859529578168097E-01 -3.23852724440478024E-01 -3.31931315035373209E-01
 -3.40087925543379022E-01 -3.48314495909984201E-01 -3.56602251181620977E-01
 -3.64941670853648925E-01 -3.73322458391574907E-01 -3.81733511105957657E-01
 -3.90162890582056388E-01 -3.98597793887235430E-01 -4.07024525802561266E-01
 -4.15428472349841538E-01 -4.23794075911635315E-01 -4.32104812269480665E-01
 -4.40343169914683308E-01 -4.48490632016519064E-01 -4.56527661464488976E-01
 -4.64433689434288255E-01 -4.72187107961376640E-01 -4.79765267041605992E-01
 -4.87144476812503835E-01 -4.94300015406963167E-01 -5.01206143107896795E-01
 -5.07836123468663470E-01 -5.14162252100796136E-01 -5.20155893866389496E-01
 -5.25787529247078611E-01 -5.31026810694390727E-01 -5.35842629796738246E-01
 -5.40203196125731200E-01 -5.44076128648096735E-01 -5.47428560608352544E-01
 -5.50227258800607744E-01 -5.52438758154327525E-01 -5.54029512557442261E-01
 -5.54966062829536200E-01 -5.55215222736591185E-01 -5.54744283905372226E-01
 -5.53521240448414220E-01 -5.51515034047907471E-01 -5.48695820166759329E-01
 -5.45035255955721776E-01 -5.40506810304658081E-01 -5.35086096341609085E-01
 -5.28751226514965311E-01 -5.21483190195646373E-01 -5.13266253491429958E-01
 -5.04088380730584151E-01 -4.93941676760945081E-01 -4.82822848876357014E-01
 -4.70733686810195173E-01 -4.57681558820748402E-01 -4.43679921435282842E-01
 -4.28748839917359070E-01 -4.12915515974540570E-01 -3.96214818630655441E-01
 -3.78689813548546417E-01 -3.60392285406875512E-01 -3.41383247209895380E-01
 -3.21733429645396307E-01 -3.01523742807311090E-01 -2.80845701771638423E-01
 -2.59801806664483603E-01 -2.38505866998323018E-01 -2.17083259188092931E-01
 -1.95671105305598975E-01 -1.74418360304842812E-01 -1.53485794170352158E-01
 -1.33045854726639212E-01 -1.13282396223495965E-01 -9.43902583003373152E-02
 -7.65746795841499295E-02 -6.00505300109481152E-02 -4.50413459821365492E-02
 -3.17781527494458912E-02 -2.04980584963956707E-02 -1.14425968801639740E-02
 -4.85565840680306313E-03 -9.78703264256955549E-04  1.85508924998462415E-05
  1.33031231143840358E-06  9.40129706155238541E-08  6.54854241317248166E-09
  4.49455145241713601E-10  3.03704229462026281E-11  2.01750075863411069E-12
  1.31465062370222533E-13  8.37516099642549770E-15  5.19001321604806473E-16
  3.10372964072232767E-17  1.76737404090732702E-18  9.34546798166318927E-20
  4.33664198568575579E-21  1.46963824746325154E-22 -5.12292353961215527E-25
 -7.59089689747162291E-25 -1.00953756935826819E-25 -1.01974576814450676E-26
 -9.16427629443441807E-28 -7.70788057166457296E-29 -6.20628172267581715E-30
 -4.84157633320517403E-31 -3.68498393259503524E-32 -2.74822977946415276E-33
 -2.01383905773912616E-34 -1.45240415192546699E-35  0.00000000000000000E+00
  0.00000000000000000E+00  0.00000000000000000E+00  0.00000000000000000E+00
  0.00000000000000000E+00  0.00000000000000000E+00  0.00000000000000000E+00
  0.00000000000000000E+00  0.00000000000000000E+00  0.00000000000000000E+00
  0.00000000000000000E+00  0.00000000000000000E+00  0.00000000000000000E+00
  0.00000000000000000E+00  0.00000000000000000E+00  0.00000000000000000E+00
  0.00000000000000000E+00  0.00000000000000000E+00  0.00000000000000000E+00
  0.00000000000000000E+00  0.00000000000000000E+00  0.00000000000000000E+00
  0.00000000000000000E+00  0.00000000000000000E+00  0.00000000000000000E+00
  0.00000000000000000E+00  0.00000000000000000E+00  0.00000000000000000E+00
  0.00000000000000000E+00  0.00000000000000000E+00  0.00000000000000000E+00
  0.00000000000000000E+00  0.00000000000000000E+00  0.00000000000000000E+00
  0.00000000000000000E+00  0.00000000000000000E+00  0.00000000000000000E+00
  0.00000000000000000E+00  0.00000000000000000E+00  0.00000000000000000E+00
  0.00000000000000000E+00  0.00000000000000000E+00  0.00000000000000000E+00
  0.00000000000000000E+00  0.00000000000000000E+00  0.00000000000000000E+00
  0.00000000000000000E+00  0.00000000000000000E+00  0.00000000000000000E+00
  0.00000000000000000E+00  0.00000000000000000E+00  0.00000000000000000E+00
  0.00000000000000000E+00  0.00000000000000000E+00  0.00000000000000000E+00
  0.00000000000000000E+00  0.00000000000000000E+00  0.00000000000000000E+00
  0.00000000000000000E+00  0.00000000000000000E+00  0.00000000000000000E+00
  0.00000000000000000E+00  0.00000000000000000E+00  0.00000000000000000E+00
  0.00000000000000000E+00  0.00000000000000000E+00  0.00000000000000000E+00
  0.00000000000000000E+00  0.00000000000000000E+00  0.00000000000000000E+00
  0.00000000000000000E+00  0.00000000000000000E+00  0.00000000000000000E+00
  0.00000000000000000E+00  0.00000000000000000E+00  0.00000000000000000E+00
  0.00000000000000000E+00  0.00000000000000000E+00  0.00000000000000000E+00
  0.00000000000000000E+00  0.00000000000000000E+00  0.00000000000000000E+00
  0.00000000000000000E+00  0.00000000000000000E+00  0.00000000000000000E+00
  0.00000000000000000E+00  0.00000000000000000E+00  0.00000000000000000E+00
  0.00000000000000000E+00  0.00000000000000000E+00  0.00000000000000000E+00
  0.00000000000000000E+00  0.00000000000000000E+00  0.00000000000000000E+00
  0.00000000000000000E+00  0.00000000000000000E+00  0.00000000000000000E+00
  0.00000000000000000E+00  0.00000000000000000E+00  0.00000000000000000E+00
  0.00000000000000000E+00  0.00000000000000000E+00  0.00000000000000000E+00
  0.00000000000000000E+00  0.00000000000000000E+00  0.00000000000000000E+00
  0.00000000000000000E+00  0.00000000000000000E+00  0.00000000000000000E+00
  0.00000000000000000E+00  0.00000000000000000E+00  0.00000000000000000E+00
  0.00000000000000000E+00  0.00000000000000000E+00  0.00000000000000000E+00
  0.00000000000000000E+00  0.00000000000000000E+00  0.00000000000000000E+00
  0.00000000000000000E+00  0.00000000000000000E+00  0.00000000000000000E+00
  0.00000000000000000E+00  0.00000000000000000E+00  0.00000000000000000E+00
  0.00000000000000000E+00  0.00000000000000000E+00  0.00000000000000000E+00
  0.00000000000000000E+00  0.00000000000000000E+00  0.00000000000000000E+00
  0.00000000000000000E+00  0.00000000000000000E+00  0.00000000000000000E+00
  0.00000000000000000E+00  0.00000000000000000E+00  0.00000000000000000E+00
  0.00000000000000000E+00  0.00000000000000000E+00  0.00000000000000000E+00
  0.00000000000000000E+00  0.00000000000000000E+00  0.00000000000000000E+00
  0.00000000000000000E+00  0.00000000000000000E+00  0.00000000000000000E+00
  0.00000000000000000E+00  0.00000000000000000E+00  0.00000000000000000E+00
  0.00000000000000000E+00  0.00000000000000000E+00  0.00000000000000000E+00
  0.00000000000000000E+00  0.00000000000000000E+00  0.00000000000000000E+00
  0.00000000000000000E+00  0.00000000000000000E+00  0.00000000000000000E+00
  0.00000000000000000E+00  0.00000000000000000E+00  0.00000000000000000E+00
  0.00000000000000000E+00  0.00000000000000000E+00  0.00000000000000000E+00
                       </PP_QIJL.2.3.1>
 <PP_QIJL.2.4.1 type="real" size="   999" columns="3" first_index=" 2" second_index=" 4" composite_index=" 8" angular_momentum="1">
  1.56255010582615082E-12  1.62225826568668302E-12  1.68424799356316671E-12
  1.74860647272502748E-12  1.81542421788846854E-12  1.88479520251771914E-12
  1.95681699099069614E-12  2.03159087581492510E-12  2.10922202008685910E-12
  2.18981960539486249E-12  2.27349698537370622E-12  2.36037184512680136E-12
  2.45056636674033184E-12  2.54420740112190514E-12  2.64142664640548753E-12
  2.74236083317364518E-12  2.84715191675749128E-12  2.95594727688463468E-12
  3.06889992495625993E-12  3.18616871924470309E-12  3.30791858831389311E-12
  3.43432076297737963E-12  3.56555301711995156E-12  3.70179991772130598E-12
  3.84325308443381996E-12  3.99011145907930351E-12  4.14258158544358862E-12
  4.30087789976277622E-12  4.46522303230961207E-12  4.63584812050382304E-12
  4.81299313398722109E-12  4.99690721212065526E-12  5.18784901437701154E-12
  5.38608708412391207E-12  5.59190022630703035E-12  5.80557789956523539E-12
  6.02742062332977425E-12  6.25774040047895835E-12  6.49686115614364500E-12
  6.74511919328049057E-12  7.00286366565293623E-12  7.27045706888659650E-12
  7.54827575028814864E-12  7.83671043814570362E-12  8.13616679125507506E-12
  8.44706596944372359E-12  8.76984522589662936E-12  9.10495852211515427E-12
  9.45287716637533146E-12  9.81409047658277911E-12  1.01891064684562141E-11
  1.05784525700086434E-11  1.09826763633292830E-11  1.14023463547115122E-11
  1.18380527742079980E-11  1.22904084057391457E-11  1.27600494489210326E-11
  1.32476364138261012E-11  1.37538550499338951E-11  1.42794173105793212E-11
  1.48250623542539895E-11  1.53915575841694648E-11  1.59796997275444751E-11
  1.65903159561333189E-11  1.72242650495726914E-11  1.78824386031812586E-11
  1.85657622819127007E-11  1.92751971222240231E-11  2.00117408836912560E-11
  2.07764294522730893E-11  2.15703382971955485E-11  2.23945839835077921E-11
  2.32503257424349966E-11  2.41387671017382579E-11  2.50611575783730216E-11
  2.60187944358282035E-11  2.70130245086155095E-11  2.80452460964778246E-11
  2.91169109309771925E-11  3.02295262172317100E-11  3.13846567536699813E-11
  3.25839271327859959E-11  3.38290240259900599E-11  3.51216985557664284E-11
  3.64637687584783964E-11  3.78571221412796618E-11  3.93037183367315176E-11
  4.08055918588587221E-11  4.23648549645179915E-11  4.39837006241072387E-11
  4.56644056057898030E-11  4.74093336775732216E-11  4.92209389317470512E-11
  5.11017692363523812E-11  5.30544698185399178E-11  5.50817869848549397E-11
  5.71865719836814749E-11  5.93717850152781299E-11  6.16404993950461742E-11
  6.39959058758836693E-11  6.64413171357039520E-11  6.89801724364340876E-11
  7.16160424610404463E-11  7.43526343353865985E-11  7.71937968419886587E-11
  8.01435258329956598E-11  8.32059698500119305E-11  8.63854359586637690E-11
  8.96863958061169712E-11  9.31134919100641433E-11  9.66715441880240988E-11
  1.00365556736141882E-10  1.04200724867018927E-10  1.08182442416472135E-10
  1.12316309329499075E-10  1.16608139536116864E-10  1.21063969128153855E-10
  1.25690064848492087E-10  1.30492932904699733E-10  1.35479328119450315E-10
  1.40656263430596729E-10  1.46031019754263309E-10  1.51611156224823996E-10
  1.57404520826171858E-10  1.63419261429229677E-10  1.69663837251223667E-10
  1.76147030752841618E-10  1.82877959990002725E-10  1.89866091437612961E-10
  1.97121253303342982E-10  2.04653649350147045E-10  2.12473873246971985E-10
  2.20592923467832906E-10  2.29022218760211659E-10  2.37773614204532429E-10
  2.46859417887304372E-10  2.56292408211370801E-10  2.66085851867623875E-10
  2.76253522493449172E-10  2.86809720044146276E-10  2.97769290904572497E-10
  3.09147648769284225E-10  3.20960796320555820E-10  3.33225347734754842E-10
  3.45958552048728439E-10  3.59178317419069058E-10  3.72903236308365339E-10
  3.87152611633877076E-10  4.01946483915395558E-10  4.17305659460477733E-10
  4.33251739626697292E-10  4.49807151202050896E-10  4.66995177946270365E-10
  4.84839993337382097E-10  5.03366694569575587E-10  5.22601337850204022E-10
  5.42570975045534348E-10  5.63303691726817083E-10  5.84828646670162027E-10
  6.07176112865778096E-10  6.30377520094265362E-10  6.54465499129807472E-10
  6.79473927632473288E-10  7.05437977794137808E-10  7.32394165805046433E-10
  7.60380403210601291E-10  7.89436050230563255E-10  8.19601971115705067E-10
  8.50920591619734345E-10  8.83435958667330759E-10  9.17193802302214132E-10
  9.52241600002351369E-10  9.88628643452781401E-10  1.02640610786995204E-09
  1.06562712397505982E-09  1.10634685271764942E-09  1.14862256285450531E-09
  1.19251371149300521E-09  1.23808202771217091E-09  1.28539159937903628E-09
  1.33450896328244199E-09  1.38550319871098254E-09  1.43844602460675927E-09
  1.49341190043155471E-09  1.55047813088726448E-09  1.60972497463793894E-09
  1.67123575718622959E-09  1.73509698806309969E-09  1.80139848249553303E-09
  1.87023348772339805E-09  1.94169881414313169E-09  2.01589497146261183E-09
  2.09292631005877411E-09  2.17290116773676049E-09  2.25593202209700045E-09
  2.34213564872451665E-09  2.43163328542285583E-09  2.52455080272378063E-09
  2.62101888091240305E-09  2.72117319381672091E-09  2.82515459962013646E-09
  2.93310933896519579E-09  3.04518924062727115E-09  3.16155193504730867E-09
  3.28236107602413868E-09  3.40778657087797415E-09  3.53800481940876599E-09
  3.67319896198573724E-09  3.81355913711670947E-09  3.95928274885957689E-09
  4.11057474445218366E-09  4.26764790255065029E-09  4.43072313248196356E-09
  4.60002978493147849E-09  4.77580597450213553E-09  4.95829891459947703E-09
  5.14776526511287479E-09  5.34447149338236269E-09  5.54869424895866967E-09
  5.76072075268317432E-09  5.98084920063558225E-09  6.20938918351670199E-09
  6.44666212205673753E-09  6.69300171906121138E-09  6.94875442873000366E-09
  7.21427994391027401E-09  7.48995170196738859E-09  7.77615740998664930E-09
  8.07329959004313939E-09  8.38179614530761341E-09  8.70208094778389969E-09
  9.03460444850453188E-09  9.37983431104303860E-09  9.73825606923346197E-09
  1.01103738100224289E-08  1.04967108824138276E-08  1.08978106335032635E-08
  1.13142371726373955E-08  1.17465761647729600E-08  1.21954356541508040E-08
  1.26614469194440386E-08  1.31452653615820247E-08  1.36475714254994999E-08
  1.41690715571070678E-08  1.47104991968282663E-08  1.52726158111015187E-08
  1.58562119632962141E-08  1.64621084255508384E-08  1.70911573330943411E-08
  1.77442433826770957E-08  1.84222850767936276E-08  1.91262360154496902E-08
  1.98570862372885954E-08  2.06158636119631065E-08  2.14036352857125184E-08
  2.22215091821747453E-08  2.30706355605480424E-08  2.39522086332899685E-08
  2.48674682456306019E-08  2.58177016192624333E-08  2.68042451626560760E-08
  2.78284863505520585E-08  2.88918656752678987E-08  2.99958786725662295E-08
  3.11420780249345525E-08  3.23320757452302762E-08  3.35675454437662757E-08
  3.48502246820231698E-08  3.61819174162966851E-08  3.75644965347205811E-08
  3.89999064912295067E-08  4.04901660401660051E-08  4.20373710753800464E-08
  4.36436975778111777E-08  4.53114046756973306E-08  4.70428378217179754E-08
  4.88404320915360362E-08  5.07067156083757272E-08  5.26443130984578809E-08
  5.46559495822881576E-08  5.67444542069868813E-08  5.89127642250568100E-08
  6.11639291251784182E-08  6.35011149208409603E-08  6.59276086028439900E-08
  6.84468227619287613E-08  7.10623003880390092E-08  7.37777198529580093E-08
  7.65969000833358416E-08  7.95238059313742267E-08  8.25625537507202084E-08
  8.57174171854159652E-08  8.89928331800415360E-08  9.23934082195004587E-08
  9.59239248072218906E-08  9.95893481908932058E-08  1.03394833345178853E-07
  1.07345732221239375E-07  1.11447601273247960E-07  1.15706209272491923E-07
  1.20127545420040481E-07  1.24717827769388825E-07  1.29483511970917124E-07
  1.34431300350470282E-07  1.39568151334816521E-07  1.44901289237236774E-07
  1.50438214417005486E-07  1.56186713827049996E-07  1.62154871964620384E-07
  1.68351082240362780E-07  1.74784058781780769E-07  1.81462848687683067E-07
  1.88396844750851489E-07  1.95595798666812879E-07  2.03069834747288185E-07
  2.10829464157592839E-07  2.18885599698017081E-07  2.27249571149962821E-07
  2.35933141208415852E-07  2.44948522023149799E-07  2.54308392371915699E-07
  2.64025915489766541E-07  2.74114757579584314E-07  2.84589107029831679E-07
  2.95463694366545070E-07  3.06753812967615580E-07  3.18475340568484218E-07
  3.30644761589484282E-07  3.43279190316221659E-07  3.56396394965579321E-07
  3.70014822671169887E-07  3.84153625423373249E-07  3.98832687000412013E-07
  4.14072650928329825E-07  4.29894949509188615E-07  4.46321833958267505E-07
  4.63376405692642392E-07  4.81082648815127321E-07  4.99465463839224274E-07
  5.18550702702508268E-07  5.38365205117647575E-07  5.58936836312167916E-07
  5.80294526209998338E-07  6.02468310109862904E-07  6.25489370917717174E-07
  6.49390082992554902E-07  6.74204057667240293E-07  6.99966190508330978E-07
  7.26712710381312221E-07  7.54481230390213605E-07  7.83310800763172326E-07
  8.13241963758289698E-07  8.44316810666944003E-07  8.76579040994636264E-07
  9.10074023902584205E-07  9.44848861996353042E-07  9.80952457551218785E-07
  1.01843558126728238E-06  1.05735094365095293E-06  1.09775326912312481E-06
  1.13969937295814135E-06  1.18324824116169301E-06  1.22846111339985126E-06
  1.27540156909575917E-06  1.32413561681495833E-06  1.37473178706490956E-06
  1.42726122863911795E-06  1.48179780864118047E-06  1.53841821632926582E-06
  1.59720207092695286E-06  1.65823203355181074E-06  1.72159392341900056E-06
  1.78737683848311125E-06  1.85567328068764351E-06  1.92657928599814070E-06
  2.00019455940151838E-06  2.07662261506125629E-06  2.15597092182528713E-06
  2.23835105429087253E-06  2.32387884963868966E-06  2.41267457045629037E-06
  2.50486307377963001E-06  2.60057398659000758E-06  2.69994188801280088E-06
  2.80310649847388440E-06  2.91021287607921729E-06  3.02141162049336938E-06
  3.13685908460318551E-06  3.25671759426367306E-06  3.38115567643466985E-06
  3.51034829602840604E-06  3.64447710180051205E-06  3.78373068162951372E-06
  3.92830482754306838E-06  4.07840281086295930E-06  4.23423566785484677E-06
  4.39602249628369103E-06  4.56399076329096207E-06  4.73837662502544025E-06
  4.91942525847632030E-06  5.10739120597386488E-06  5.30253873284102574E-06
  5.50514219869769342E-06  5.71548644293830361E-06  5.93386718492349082E-06
  6.16059143944701561E-06  6.39597794806055215E-06  6.64035762686114982E-06
  6.89407403136920569E-06  7.15748383914874577E-06  7.43095735084649949E-06
  7.71487901035216953E-06  8.00964794480897470E-06  8.31567852523122960E-06
  8.63340094851470534E-06  8.96326184165525302E-06  9.30572488902228340E-06
  9.66127148356599264E-06  1.00304014028704309E-05  1.04136335109996051E-05
  1.08115064871193369E-05  1.12245795819155482E-05  1.16534334028678360E-05
  1.20986707294782516E-05  1.25609173595960912E-05  1.30408229880238047E-05
  1.35390621186334321E-05  1.40563350112702701E-05  1.45933686647686559E-05
  1.51509178374551755E-05  1.57297661065669329E-05  1.63307269680668239E-05
  1.69546449783937227E-05  1.76023969397443542E-05  1.82748931305438820E-05
  1.89730785828253829E-05  1.96979344083035954E-05  2.04504791749959728E-05
  2.12317703363149164E-05  2.20429057146271581E-05  2.28850250413528535E-05
  2.37593115557551673E-05  2.46669936646524358E-05  2.56093466653704905E-05
  2.65876945343393234E-05  2.76034117838305920E-05  2.86579253894262204E-05
  2.97527167909070036E-05  3.08893239693516593E-05  3.20693436033425364E-05
  3.32944333072835916E-05  3.45663139549510199E-05  3.58867720915129112E-05
  3.72576624373794791E-05  3.86809104873699490E-05  4.01585152088157591E-05
  4.16925518423557403E-05  4.32851748093209863E-05  4.49386207297547153E-05
  4.66552115552647205E-05  4.84373578210643270E-05  5.02875620217236495E-05
  5.22084221153207981E-05  5.42026351608631957E-05  5.62730010940288607E-05
  5.84224266464714045E-05  6.06539294141274706E-05  6.29706420801715987E-05
  6.53758167984760675E-05  6.78728297436524653E-05  7.04651858339820430E-05
  7.31565236337777114E-05  7.59506204419674454E-05  7.88513975739435963E-05
  8.18629258439870441E-05  8.49894312558497521E-05  8.82353009093641693E-05
  9.16050891312419799E-05  9.51035238385324749E-05  9.87355131435262693E-05
  1.02506152209220282E-04  1.06420730364801123E-04  1.10484738490957806E-04
  1.14703876685200024E-04  1.19084062217742257E-04  1.23631437788902971E-04
  1.28352380099382830E-04  1.33253508745203848E-04  1.38341695449536686E-04
  1.43624073644092742E-04  1.49108048413234314E-04  1.54801306814443491E-04
  1.60711828589297503E-04  1.66847897279623998E-04  1.73218111764055199E-04
  1.79831398230763259E-04  1.86697022602745730E-04  1.93824603432632902E-04
  2.01224125284622801E-04  2.08905952621793711E-04  2.16880844217722202E-04
  2.25159968112034932E-04  2.33754917130239536E-04  2.42677724988937869E-04
  2.51940883008294661E-04  2.61557357454441741E-04  2.71540607535332825E-04
  2.81904604074419639E-04  2.92663848887424085E-04  3.03833394888395247E-04
  3.15428866952203850E-04  3.27466483561619076E-04  3.39963079268133003E-04
  3.52936127996770447E-04  3.66403767226208788E-04  3.80384823076681568E-04
  3.94898836339316892E-04  4.09966089481770516E-04  4.25607634666285719E-04
  4.41845322817616723E-04  4.58701833779588718E-04  4.76200707600487835E-04
  4.94366376988891916E-04  5.13224200983067379E-04  5.32800499878594729E-04
  5.53122591460475399E-04  5.74218828587638101E-04  5.96118638179455327E-04
  6.18852561655654958E-04  6.42452296882827195E-04  6.66950741682618129E-04
  6.92382038958637056E-04  7.18781623501130108E-04  7.46186270530529105E-04
  7.74634146043149101E-04  8.04164859024508109E-04  8.34819515598027371E-04
  8.66640775179246432E-04  8.99672908708098909E-04  9.33961859034317500E-04
  9.69555303533639070E-04  1.00650271903512489E-03  1.04485544914270428E-03
  1.08466677403684631E-03  1.12599198284524618E-03  1.16888844867437053E-03
  1.21341570639687374E-03  1.25963553329307143E-03  1.30761203264794412E-03
  1.35741172040855116E-03  1.40910361501024833E-03  1.46275933048365574E-03
  1.51845317295806769E-03  1.57626224068075694E-03  1.63626652767556247E-03
  1.69854903116815458E-03  1.76319586290949837E-03  1.83029636453327480E-03
  1.89994322708735919E-03  1.97223261488394279E-03  2.04726429381741530E-03
  2.12514176430385815E-03  2.20597239900079990E-03  2.28986758547076877E-03
  2.37694287395726631E-03  2.46731813044690548E-03  2.56111769519676161E-03
  2.65847054691131226E-03  2.75951047275892593E-03  2.86437624442339306E-03
  2.97321180039177057E-03  3.08616643468561953E-03  3.20339499224866564E-03
  3.32505807120998505E-03  3.45132223224786389E-03  3.58236021528587868E-03
  3.71835116375892694E-03  3.85948085669342430E-03  4.00594194885239580E-03
  4.15793421920269361E-03  4.31566482796826370E-03  4.47934858253991666E-03
  4.64920821251911011E-03  4.82547465417981249E-03  5.00838734463917613E-03
  5.19819452603468429E-03  5.39515356001219349E-03  5.59953125283610756E-03
  5.81160419143948032E-03  6.03165909073871513E-03  6.25999315254382582E-03
  6.49691443640198693E-03  6.74274224271811679E-03  6.99780750850267138E-03
  7.26245321610264477E-03  7.53703481527750411E-03  7.82192065898745965E-03
  8.11749245326641618E-03  8.42414572155695922E-03  8.74229028388922268E-03
  9.07235075128936218E-03  9.41476703580709784E-03  9.76999487655461941E-03
  1.01385063821517116E-02  1.05207905899736363E-02  1.09173540425992650E-02
  1.13287213818572090E-02  1.17554359608671079E-02  1.21980604744712940E-02
  1.26571776084496330E-02  1.31333907079062631E-02  1.36273244652117802E-02
  1.41396256278777024E-02  1.46709637267315399E-02  1.52220318247546834E-02
  1.57935472869286872E-02  1.63862525714244360E-02  1.70009160424539757E-02
  1.76383328050861293E-02  1.82993255623077403E-02  1.89847454945889955E-02
  1.96954731621866094E-02  2.04324194303894917E-02  2.11965264178806227E-02
  2.19887684683531641E-02  2.28101531454802629E-02  2.36617222512955881E-02
  2.45445528679937540E-02  2.54597584231092099E-02  2.64084897779750180E-02
  2.73919363393017139E-02  2.84113271936487256E-02  2.94679322644886936E-02
  3.05630634914843720E-02  3.16980760315127771E-02  3.28743694808769013E-02
  3.40933891180456861E-02  3.53566271661523157E-02  3.66656240743646542E-02
  3.80219698171143650E-02  3.94273052100344509E-02  4.08833232413072858E-02
  4.23917704169634521E-02  4.39544481185271674E-02  4.55732139711894566E-02
  4.72499832205099182E-02  4.89867301154417595E-02  5.07854892952516457E-02
  5.26483571776680814E-02  5.45774933453381378E-02  5.65751219274027300E-02
  5.86435329727122701E-02  6.07850838108978386E-02  6.30022003971874162E-02
  6.52973786365090431E-02  6.76731856820553673E-02  7.01322612030923082E-02
  7.26773186163802848E-02  7.53111462751376026E-02  7.80366086090090866E-02
  8.08566472080129439E-02  8.37742818429167424E-02  8.67926114139443983E-02
  8.99148148191377117E-02  9.31441517330819646E-02  9.64839632860635815E-02
  9.99376726330483967E-02  1.03508785401156031E-01  1.07200890003558758E-01
  1.11017657806927447E-01  1.14962843138738002E-01  1.19040283119982201E-01
  1.23253897307741972E-01  1.27607687131248204E-01  1.32105735104055572E-01
  1.36752203793927635E-01  1.41551334530958528E-01  1.46507445833344796E-01
  1.51624931529066254E-01  1.56908258550541746E-01  1.62361964378081008E-01
  1.67990654106679377E-01  1.73798997109381709E-01  1.79791723269080383E-01
  1.85973618749220915E-01  1.92349521272458690E-01  1.98924314874845742E-01
  2.05702924101642870E-01  2.12690307609332385E-01  2.19891451136879773E-01
  2.27311359807739283E-01  2.34955049722547327E-01  2.42827538800888865E-01
  2.50933836828975187E-01  2.59278934668538130E-01  2.67867792580742281E-01
  2.76705327617367269E-01  2.85796400030203901E-01  2.95145798648581981E-01
  3.04758225172944874E-01  3.14638277331705241E-01  3.24790430847516631E-01
  3.35219020158174619E-01  3.45928217836622642E-01  3.56922012654011522E-01
  3.68204186229438901E-01  3.79778288209947912E-01  3.91647609924592521E-01
  4.03815156456937607E-01  4.16283617081297519E-01  4.29055334009358302E-01
  4.42132269395634048E-01  4.55515970552530680E-01  4.69207533328680093E-01
  4.83207563607725155E-01  4.97516136888951466E-01  5.12132755916134941E-01
  5.27056306326790458E-01  5.42285010300728842E-01  5.57816378194553986E-01
  5.73647158157537751E-01  5.89773283734296827E-01  6.06189819470890678E-01
  6.22890904553403457E-01  6.39869694523357957E-01  6.57118301128495674E-01
  6.74627730385300217E-01  6.92387818949257494E-01  7.10387168909887290E-01
  7.28613081150806474E-01  7.47051487440603457E-01  7.65686881448071066E-01
  7.84502248905630806E-01  8.03478997177627274E-01  8.22596884525701344E-01
  8.41833949401852966E-01  8.61166440141118095E-01  8.80568745470112768E-01
  9.00013326295240890E-01  9.19470649284999553E-01  9.38909122814853614E-01
  9.58295035900389225E-01  9.77592500805073428E-01  9.96763400072885997E-01
  1.01576733880321290E+00  1.03456160305576206E+00  1.05310112534659117E+00
  1.07133845827250584E+00  1.08922375738004962E+00  1.10670477447733617E+00
  1.12372686266575483E+00  1.14023299445657145E+00  1.15616379442236106E+00
  1.17145758791682653E+00  1.18605046748126552E+00  1.19987637863859331E+00
  1.21286722685558934E+00  1.22495300752980407E+00  1.23606196092789355E+00
  1.24612075406537803E+00  1.25505469157227734E+00  1.26278795763258134E+00
  1.26924389111603064E+00  1.27434529603558033E+00  1.27801478946057090E+00
  1.28017518899106553E+00  1.28074994184978452E+00  1.27966359757102777E+00
  1.27684232615729032E+00  1.27221448342970200E+00  1.26571122511386247E+00
  1.25726717097335117E+00  1.24682112002452605E+00  1.23431681753307032E+00
  1.21970377410441566E+00  1.20293813672248429E+00  1.18398361102659688E+00
  1.16281243357432729E+00  1.13940639212065520E+00  1.11375789117279878E+00
  1.08587105922151594E+00  1.05576289309252158E+00  1.02346443380523988E+00
  9.89021967167563076E-01  9.52498241072476826E-01  9.13973690094559199E-01
  8.73547656512124626E-01  8.31339595306717416E-01  7.87490249020056043E-01
  7.42162776586846706E-01  6.95543818419411930E-01  6.47844478110492616E-01
  5.99301199160145237E-01  5.50176513142644819E-01  5.00759633735071819E-01
  4.51366869061374687E-01  4.02341822900526946E-01  3.54055353506954884E-01
  3.06905257144470589E-01  2.61315641996868575E-01  2.17735956938444247E-01
  1.76639638843429786E-01  1.38522341733520044E-01  1.03899711112253684E-01
  7.33046674861353442E-02  4.72841632437504267E-02  2.63953592926491239E-02
  1.12008532321993693E-02  2.25763649383938381E-03 -4.27925127364736941E-05
 -3.06871524004505343E-06 -2.16865643660641951E-07 -1.51059354488386085E-08
 -1.03678650649229332E-09 -7.00573684391864095E-11 -4.65389613520811071E-12
 -3.03258743800369205E-13 -1.93195116414224767E-14 -1.19721305404602481E-15
 -7.15956874755657062E-17 -4.07691307338807751E-18 -2.15577799093464079E-19
 -1.00036053471563480E-20 -3.39010715646714389E-22  1.18173705560878525E-24
  1.75104002230084307E-24  2.32876392847785898E-25  2.35231182390015174E-26
  2.11398136264009452E-27  1.77802538361379733E-28  1.43164211460957998E-29
  1.11683692256320947E-30  8.50038465106629799E-32  6.33951481533574502E-33
  4.64544945900710764E-34  3.35035218226254891E-35  0.00000000000000000E+00
  0.00000000000000000E+00  0.00000000000000000E+00  0.00000000000000000E+00
  0.00000000000000000E+00  0.00000000000000000E+00  0.00000000000000000E+00
  0.00000000000000000E+00  0.00000000000000000E+00  0.00000000000000000E+00
  0.00000000000000000E+00  0.00000000000000000E+00  0.00000000000000000E+00
  0.00000000000000000E+00  0.00000000000000000E+00  0.00000000000000000E+00
  0.00000000000000000E+00  0.00000000000000000E+00  0.00000000000000000E+00
  0.00000000000000000E+00  0.00000000000000000E+00  0.00000000000000000E+00
  0.00000000000000000E+00  0.00000000000000000E+00  0.00000000000000000E+00
  0.00000000000000000E+00  0.00000000000000000E+00  0.00000000000000000E+00
  0.00000000000000000E+00  0.00000000000000000E+00  0.00000000000000000E+00
  0.00000000000000000E+00  0.00000000000000000E+00  0.00000000000000000E+00
  0.00000000000000000E+00  0.00000000000000000E+00  0.00000000000000000E+00
  0.00000000000000000E+00  0.00000000000000000E+00  0.00000000000000000E+00
  0.00000000000000000E+00  0.00000000000000000E+00  0.00000000000000000E+00
  0.00000000000000000E+00  0.00000000000000000E+00  0.00000000000000000E+00
  0.00000000000000000E+00  0.00000000000000000E+00  0.00000000000000000E+00
  0.00000000000000000E+00  0.00000000000000000E+00  0.00000000000000000E+00
  0.00000000000000000E+00  0.00000000000000000E+00  0.00000000000000000E+00
  0.00000000000000000E+00  0.00000000000000000E+00  0.00000000000000000E+00
  0.00000000000000000E+00  0.00000000000000000E+00  0.00000000000000000E+00
  0.00000000000000000E+00  0.00000000000000000E+00  0.00000000000000000E+00
  0.00000000000000000E+00  0.00000000000000000E+00  0.00000000000000000E+00
  0.00000000000000000E+00  0.00000000000000000E+00  0.00000000000000000E+00
  0.00000000000000000E+00  0.00000000000000000E+00  0.00000000000000000E+00
  0.00000000000000000E+00  0.00000000000000000E+00  0.00000000000000000E+00
  0.00000000000000000E+00  0.00000000000000000E+00  0.00000000000000000E+00
  0.00000000000000000E+00  0.00000000000000000E+00  0.00000000000000000E+00
  0.00000000000000000E+00  0.00000000000000000E+00  0.00000000000000000E+00
  0.00000000000000000E+00  0.00000000000000000E+00  0.00000000000000000E+00
  0.00000000000000000E+00  0.00000000000000000E+00  0.00000000000000000E+00
  0.00000000000000000E+00  0.00000000000000000E+00  0.00000000000000000E+00
  0.00000000000000000E+00  0.00000000000000000E+00  0.00000000000000000E+00
  0.00000000000000000E+00  0.00000000000000000E+00  0.00000000000000000E+00
  0.00000000000000000E+00  0.00000000000000000E+00  0.00000000000000000E+00
  0.00000000000000000E+00  0.00000000000000000E+00  0.00000000000000000E+00
  0.00000000000000000E+00  0.00000000000000000E+00  0.00000000000000000E+00
  0.00000000000000000E+00  0.00000000000000000E+00  0.00000000000000000E+00
  0.00000000000000000E+00  0.00000000000000000E+00  0.00000000000000000E+00
  0.00000000000000000E+00  0.00000000000000000E+00  0.00000000000000000E+00
  0.00000000000000000E+00  0.00000000000000000E+00  0.00000000000000000E+00
  0.00000000000000000E+00  0.00000000000000000E+00  0.00000000000000000E+00
  0.00000000000000000E+00  0.00000000000000000E+00  0.00000000000000000E+00
  0.00000000000000000E+00  0.00000000000000000E+00  0.00000000000000000E+00
  0.00000000000000000E+00  0.00000000000000000E+00  0.00000000000000000E+00
  0.00000000000000000E+00  0.00000000000000000E+00  0.00000000000000000E+00
  0.00000000000000000E+00  0.00000000000000000E+00  0.00000000000000000E+00
  0.00000000000000000E+00  0.00000000000000000E+00  0.00000000000000000E+00
  0.00000000000000000E+00  0.00000000000000000E+00  0.00000000000000000E+00
  0.00000000000000000E+00  0.00000000000000000E+00  0.00000000000000000E+00
  0.00000000000000000E+00  0.00000000000000000E+00  0.00000000000000000E+00
  0.00000000000000000E+00  0.00000000000000000E+00  0.00000000000000000E+00
  0.00000000000000000E+00  0.00000000000000000E+00  0.00000000000000000E+00
  0.00000000000000000E+00  0.00000000000000000E+00  0.00000000000000000E+00
  0.00000000000000000E+00  0.00000000000000000E+00  0.00000000000000000E+00
                       </PP_QIJL.2.4.1>
 <PP_QIJL.3.3.0 type="real" size="   999" columns="3" first_index=" 3" second_index=" 3" composite_index=" 6" angular_momentum="0">
 -1.12280767902246895E-09 -1.15123169058407497E-09 -1.18037525941602102E-09
 -1.21025660119691015E-09 -1.24089439273742722E-09 -1.27230778365394665E-09
 -1.30451640833766899E-09 -1.33754039822674442E-09 -1.37140039438907794E-09
 -1.40611756042368190E-09 -1.44171359568858977E-09 -1.47821074886366564E-09
 -1.51563183185675945E-09 -1.55400023406188343E-09 -1.59333993697834494E-09
 -1.63367552919995342E-09 -1.67503222178370386E-09 -1.71743586400748904E-09
 -1.76091295952674063E-09 -1.80549068294009444E-09 -1.85119689677436249E-09
 -1.89806016889953142E-09 -1.94610979038461552E-09 -1.99537579380550795E-09
 -2.04588897201632927E-09 -2.09768089739594983E-09 -2.15078394158175097E-09
 -2.20523129570294421E-09 -2.26105699112611384E-09 -2.31829592072591692E-09
 -2.37698386069424982E-09 -2.43715749290154990E-09 -2.49885442782412455E-09
 -2.56211322805193472E-09 -2.62697343239147371E-09 -2.69347558057876240E-09
 -2.76166123861803586E-09 -2.83157302476181759E-09 -2.90325463614870484E-09
 -2.97675087611553118E-09 -3.05210768220083823E-09 -3.12937215485737804E-09
 -3.20859258689138964E-09 -3.28981849364716445E-09 -3.37310064395577520E-09
 -3.45849109186716855E-09 -3.54604320918568899E-09 -3.63581171882914393E-09
 -3.72785272903240803E-09 -3.82222376841690297E-09 -3.91898382194779001E-09
 -4.01819336780153351E-09 -4.11991441516666988E-09 -4.22421054300158094E-09
 -4.33114693977338549E-09 -4.44079044420282468E-09 -4.55320958704061523E-09
 -4.66847463390139928E-09 -4.78665762918198753E-09 -4.90783244109147196E-09
 -5.03207480782118610E-09 -5.15946238488353841E-09 -5.29007479364921207E-09
 -5.42399367111306045E-09 -5.56130272091990873E-09 -5.70208776568194918E-09
 -5.84643680062069001E-09 -5.99444004856677336E-09 -6.14619001635213674E-09
 -6.30178155262980053E-09 -6.46131190715725561E-09 -6.62488079158073055E-09
 -6.79259044175814789E-09 -6.96454568165981906E-09 -7.14085398888681176E-09
 -7.32162556184785836E-09 -7.50697338863689298E-09 -7.69701331765427293E-09
 -7.89186413001567308E-09 -8.09164761379416391E-09 -8.29648864014157848E-09
 -8.50651524133699849E-09 -8.72185869081105397E-09 -8.94265358519593683E-09
 -9.16903792845270003E-09 -9.40115321812803384E-09 -9.63914453379478576E-09
 -9.88316062773134068E-09 -1.01333540178964819E-08 -1.03898810832580555E-08
 -1.06529021615347133E-08 -1.09225816494121172E-08 -1.11990881052961197E-08
 -1.14825943546670720E-08 -1.17732775981013241E-08 -1.20713195220271037E-08
 -1.23769064122843490E-08 -1.26902292705592376E-08 -1.30114839337663152E-08
 -1.33408711964528101E-08 -1.36785969363014202E-08 -1.40248722428105164E-08
 -1.43799135492316900E-08 -1.47439427678473137E-08 -1.51171874286728585E-08
 -1.54998808216701649E-08 -1.58922621425610598E-08 -1.62945766423322106E-08
 -1.67070757805247005E-08 -1.71300173824042049E-08 -1.75636658001096878E-08
 -1.80082920778818955E-08 -1.84641741214744822E-08 -1.89315968718537562E-08
 -1.94108524832957611E-08 -1.99022405059916802E-08 -2.04060680732761149E-08
 -2.09226500935949825E-08 -2.14523094473330962E-08 -2.19953771886244142E-08
 -2.25521927522710940E-08 -2.31231041659008406E-08 -2.37084682674948344E-08
 -2.43086509284225900E-08 -2.49240272821228923E-08 -2.55549819585735645E-08
 -2.62019093246971724E-08 -2.68652137308524435E-08 -2.75453097635656146E-08
 -2.82426225046598597E-08 -2.89575877969441479E-08 -2.96906525166284787E-08
 -3.04422748526351340E-08 -3.12129245929806467E-08 -3.20030834184075303E-08
 -3.28132452034495974E-08 -3.36439163251180852E-08 -3.44956159794028818E-08
 -3.53688765057855453E-08 -3.62642437199674514E-08 -3.71822772550212327E-08
 -3.81235509111778457E-08 -3.90886530144691214E-08 -4.00781867844489482E-08
 -4.10927707112234719E-08 -4.21330389420259350E-08 -4.31996416775771019E-08
 -4.42932455784802583E-08 -4.54145341819034989E-08 -4.65642083288105464E-08
 -4.77429866020072085E-08 -4.89516057752761048E-08 -5.01908212738821098E-08
 -5.14614076467349081E-08 -5.27641590505044549E-08 -5.40998897459922091E-08
 -5.54694346070669231E-08 -5.68736496424851653E-08 -5.83134125309211511E-08
 -5.97896231695407287E-08 -6.13032042364631987E-08 -6.28551017674604604E-08
 -6.44462857472563787E-08 -6.60777507157945070E-08 -6.77505163898529758E-08
 -6.94656283003965640E-08 -7.12241584460615596E-08 -7.30272059631850254E-08
 -7.48758978127950270E-08 -7.67713894849920219E-08 -7.87148657211619194E-08
 -8.07075412544708655E-08 -8.27506615691064806E-08 -8.48455036787388574E-08
 -8.69933769246877277E-08 -8.91956237942962614E-08 -9.14536207600199831E-08
 -9.37687791397586395E-08 -9.61425459789661969E-08 -9.85764049550918439E-08
 -1.01071877304916744E-07 -1.03630522775365076E-07 -1.06253940598385711E-07
 -1.08943770490512504E-07 -1.11701693677727275E-07 -1.14529433946268841E-07
 -1.17428758720040482E-07 -1.20401480165293439E-07 -1.23449456323274593E-07
 -1.26574592271546093E-07 -1.29778841314705211E-07 -1.33064206205244036E-07
 -1.36432740395317236E-07 -1.39886549320196314E-07 -1.43427791714214993E-07
 -1.47058680960027272E-07 -1.50781486472019296E-07 -1.54598535114744431E-07
 -1.58512212657263936E-07 -1.62524965264303436E-07 -1.66639301025158646E-07
 -1.70857791521301944E-07 -1.75183073433675245E-07 -1.79617850190667936E-07
 -1.84164893657814010E-07 -1.88827045870263784E-07 -1.93607220809107945E-07
 -1.98508406222673511E-07 -2.03533665493921432E-07 -2.08686139555116245E-07
 -2.13969048850967247E-07 -2.19385695351460183E-07 -2.24939464615646855E-07
 -2.30633827907676754E-07 -2.36472344366391889E-07 -2.42458663229849149E-07
 -2.48596526116147104E-07 -2.54889769361995766E-07 -2.61342326420483834E-07
 -2.67958230319540966E-07 -2.74741616182639225E-07 -2.81696723813296378E-07
 -2.88827900345009574E-07 -2.96139602958267315E-07 -3.03636401666338432E-07
 -3.11322982171585293E-07 -3.19204148794073494E-07 -3.27284827474324676E-07
 -3.35570068852073973E-07 -3.44065051422966727E-07 -3.52775084775164605E-07
 -3.61705612907874522E-07 -3.70862217633891263E-07 -3.80250622068265628E-07
 -3.89876694205285389E-07 -3.99746450586004236E-07 -4.09866060058603885E-07
 -4.20241847633950361E-07 -4.30880298438745041E-07 -4.41788061768742322E-07
 -4.52971955244574738E-07 -4.64438969072766179E-07 -4.76196270414613110E-07
 -4.88251207865655369E-07 -5.00611316048535825E-07 -5.13284320322119855E-07
 -5.26278141609818569E-07 -5.39600901350133325E-07 -5.53260926572507441E-07
 -5.67266755101674822E-07 -5.81627140893732894E-07 -5.96351059507296972E-07
 -6.11447713713140492E-07 -6.26926539245830145E-07 -6.42797210700958254E-07
 -6.59069647581636112E-07 -6.75754020498056773E-07 -6.92860757523969517E-07
 -7.10400550714060837E-07 -7.28384362786309164E-07 -7.46823433973472281E-07
 -7.65729289048019757E-07 -7.85113744524865656E-07 -8.04988916046426454E-07
 -8.25367225954614050E-07 -8.46261411054477287E-07 -8.67684530574370361E-07
 -8.89649974327600938E-07 -9.12171471080659967E-07 -9.35263097133277388E-07
 -9.58939285115641315E-07 -9.83214833008292118E-07 -1.00810491339032174E-06
 -1.03362508292166256E-06 -1.05979129206537376E-06 -1.08661989505601722E-06
 -1.11412766012034773E-06 -1.14233177995668097E-06 -1.17124988247951743E-06
 -1.20090004183612724E-06 -1.23130078970193977E-06 -1.26247112686186117E-06
 -1.29443053508469775E-06 -1.32719898929812617E-06 -1.36079697007182032E-06
 -1.39524547641651744E-06 -1.43056603890703968E-06 -1.46678073313742810E-06
 -1.50391219351665514E-06 -1.54198362741348360E-06 -1.58101882965930418E-06
 -1.62104219741805744E-06 -1.66207874543247789E-06 -1.70415412165621807E-06
 -1.74729462328158135E-06 -1.79152721317290468E-06 -1.83687953671585595E-06
 -1.88337993909312684E-06 -1.93105748299735563E-06 -1.97994196679233227E-06
 -2.03006394313380497E-06 -2.08145473806155116E-06 -2.13414647057458209E-06
 -2.18817207270177102E-06 -2.24356531008040434E-06 -2.30036080305548472E-06
 -2.35859404831299706E-06 -2.41830144106061774E-06 -2.47952029776975006E-06
 -2.54228887949305258E-06 -2.60664641577201683E-06 -2.67263312914954477E-06
 -2.74029026030281436E-06 -2.80966009381213132E-06 -2.88078598458185572E-06
 -2.95371238492985140E-06 -3.02848487236245224E-06 -3.10515017805219612E-06
 -3.18375621603618430E-06 -3.26435211315322346E-06 -3.34698823973844893E-06
 -3.43171624109461871E-06 -3.51858906975968068E-06 -3.60766101859079027E-06
 -3.69898775468539991E-06 -3.79262635416055637E-06 -3.88863533781217256E-06
 -3.98707470767648727E-06 -4.08800598451651410E-06 -4.19149224625693352E-06
 -4.29759816739128514E-06 -4.40639005938618890E-06 -4.51793591210767675E-06
 -4.63230543629553437E-06 -4.74957010711219153E-06 -4.86980320879321177E-06
 -4.99307988042732935E-06 -5.11947716289455554E-06 -5.24907404699155576E-06
 -5.38195152277445874E-06 -5.51819263014969497E-06 -5.65788251074455885E-06
 -5.80110846108975195E-06 -5.94795998714703927E-06 -6.09852886021613592E-06
 -6.25290917425547733E-06 -6.41119740465281086E-06 -6.57349246848211764E-06
 -6.73989578628440339E-06 -6.91051134541100169E-06 -7.08544576496864184E-06
 -7.26480836240693743E-06 -7.44871122178975603E-06 -7.63726926379280475E-06
 -7.83060031747138508E-06 -8.02882519384264311E-06 -8.23206776132847660E-06
 -8.44045502310586802E-06 -8.65411719641286502E-06 -8.87318779385966400E-06
 -9.09780370679525981E-06 -9.32810529078176230E-06 -9.56423645322945174E-06
 -9.80634474324709118E-06 -1.00545814437635714E-05 -1.03091016659780305E-05
 -1.05700644461973551E-05 -1.08376328451212856E-05 -1.11119740496367391E-05
 -1.13932594771849464E-05 -1.16816648827660013E-05 -1.19773704686475710E-05
 -1.22805609968459887E-05 -1.25914259044494088E-05 -1.29101594218550676E-05
 -1.32369606939938154E-05 -1.35720339046174150E-05 -1.39155884037259062E-05
 -1.42678388382138721E-05 -1.46290052858172094E-05 -1.49993133924431337E-05
 -1.53789945129690650E-05 -1.57682858555975736E-05 -1.61674306298570191E-05
 -1.65766781983399168E-05 -1.69962842322728511E-05 -1.74265108710147918E-05
 -1.78676268855825205E-05 -1.83199078463046375E-05 -1.87836362947081828E-05
 -1.92591019197441793E-05 -1.97466017384616746E-05 -2.02464402812419479E-05
 -2.07589297817076333E-05 -2.12843903714246572E-05 -2.18231502795171571E-05
 -2.23755460373192369E-05 -2.29419226881903205E-05 -2.35226340026232411E-05
 -2.41180426987792473E-05 -2.47285206685852334E-05 -2.53544492095335587E-05
 -2.59962192623277628E-05 -2.66542316545206351E-05 -2.73288973502954664E-05
 -2.80206377065446676E-05 -2.87298847354037122E-05 -2.94570813734026241E-05
 -3.02026817574008282E-05 -3.09671515074758937E-05 -3.17509680169400971E-05
 -3.25546207496640465E-05 -3.33786115448902532E-05 -3.42234549297243111E-05
 -3.50896784394964383E-05 -3.59778229461900934E-05 -3.68884429951400113E-05
 -3.78221071502065658E-05 -3.87793983476385147E-05 -3.97609142588419852E-05
 -4.07672676622776819E-05 -4.17990868247156139E-05 -4.28570158920801592E-05
 -4.39417152901262477E-05 -4.50538621351913865E-05 -4.61941506552756407E-05
 -4.73632926217072678E-05 -4.85620177916582091E-05 -4.97910743617802542E-05
 -5.10512294332388900E-05 -5.23432694884291952E-05 -5.36680008796650086E-05
 -5.50262503301392450E-05 -5.64188654474610858E-05 -5.78467152500832833E-05
 -5.93106907069396885E-05 -6.08117052906220859E-05 -6.23506955444320926E-05
 -6.39286216636539875E-05 -6.55464680913999905E-05 -6.72052441293912269E-05
 -6.89059845640435393E-05 -7.06497503082382768E-05 -7.24376290591669235E-05
 -7.42707359726466960E-05 -7.61502143543157044E-05 -7.80772363681244325E-05
 -8.00530037625518757E-05 -8.20787486149834758E-05 -8.41557340946998329E-05
 -8.62852552449345681E-05 -8.84686397844730609E-05 -9.07072489292712499E-05
 -9.30024782345897211E-05 -9.53557584581463428E-05 -9.77685564448045841E-05
 -1.00242376033326730E-04 -1.02778758985733458E-04 -1.05379285939824358E-04
 -1.08045577385427013E-04 -1.10779294664954849E-04 -1.13582140998870224E-04
 -1.16455862536658981E-04 -1.19402249433942271E-04 -1.22423136956360454E-04
 -1.25520406610883992E-04 -1.28695987305216952E-04 -1.31951856535977911E-04
 -1.35290041606357344E-04 -1.38712620873965151E-04 -1.42221725029602672E-04
 -1.45819538407705702E-04 -1.49508300329226107E-04 -1.53290306477734241E-04
 -1.57167910309544996E-04 -1.61143524498685273E-04 -1.65219622417543427E-04
 -1.69398739654055824E-04 -1.73683475566308986E-04 -1.78076494875452541E-04
 -1.82580529297839421E-04 -1.87198379217331167E-04 -1.91932915398725535E-04
 -1.96787080743284696E-04 -2.01763892087367152E-04 -2.06866442045182164E-04
 -2.12097900896715991E-04 -2.17461518521894079E-04 -2.22960626382073129E-04
 -2.28598639549975447E-04 -2.34379058789205085E-04 -2.40305472684509112E-04
 -2.46381559823970599E-04 -2.52611091034345993E-04 -2.58997931670786649E-04
 -2.65546043962206185E-04 -2.72259489413586816E-04 -2.79142431266538342E-04
 -2.86199137019457252E-04 -2.93433981008655068E-04 -3.00851447051854394E-04
 -3.08456131155483151E-04 -3.16252744287217680E-04 -3.24246115215263855E-04
 -3.32441193415885790E-04 -3.40843052050726104E-04 -3.49456891015491474E-04
 -3.58288040061601290E-04 -3.67341961992438107E-04 -3.76624255935856537E-04
 -3.86140660694646819E-04 -3.95897058176677866E-04 -4.05899476906471980E-04
 -4.16154095620001514E-04 -4.26667246944520807E-04 -4.37445421165283215E-04
 -4.48495270081027077E-04 -4.59823610950136177E-04 -4.71437430529420443E-04
 -4.83343889207494268E-04 -4.95550325234747754E-04 -5.08064259051961868E-04
 -5.20893397719619637E-04 -5.34045639450020414E-04 -5.47529078244324155E-04
 -5.61352008636676974E-04 -5.75522930547614411E-04 -5.90050554248949637E-04
 -6.04943805442396411E-04 -6.20211830454195172E-04 -6.35864001548042709E-04
 -6.51909922358646921E-04 -6.68359433448259804E-04 -6.85222617988557551E-04
 -7.02509807570266768E-04 -7.20231588142952956E-04 -7.38398806087404752E-04
 -7.57022574423077345E-04 -7.76114279153060425E-04 -7.95685585749057408E-04
 -8.15748445778884004E-04 -8.36315103678983928E-04 -8.57398103674496606E-04
 -8.79010296849381287E-04 -9.01164848369147807E-04 -9.23875244858702325E-04
 -9.47155301937843415E-04 -9.71019171916926382E-04 -9.95481351655202237E-04
 -1.02055669058431710E-03 -1.04626039889946405E-03 -1.07260805592062627E-03
 -1.09961561862634218E-03 -1.12729943036238484E-03 -1.15567622972770866E-03
 -1.18476315963997477E-03 -1.21457777658291570E-03 -1.24513806003773760E-03
 -1.27646242210070543E-03 -1.30856971728897766E-03 -1.34147925253666977E-03
 -1.37521079738305973E-03 -1.40978459435473370E-03 -1.44522136954336466E-03
 -1.48154234338070839E-03 -1.51876924161227175E-03 -1.55692430647096439E-03
 -1.59603030805189911E-03 -1.63611055588934180E-03 -1.67718891073663457E-03
 -1.71928979654972498E-03 -1.76243821267472599E-03 -1.80665974623970735E-03
 -1.85198058475070601E-03 -1.89842752889161871E-03 -1.94602800552746221E-03
 -1.99481008091010161E-03 -2.04480247408528153E-03 -2.09603457049944465E-03
 -2.14853643580445539E-03 -2.20233882985796563E-03 -2.25747322091673138E-03
 -2.31397180001979971E-03 -2.37186749555795421E-03 -2.43119398802535717E-03
 -2.49198572494875809E-03 -2.55427793598910673E-03 -2.61810664820980032E-03
 -2.68350870150515586E-03 -2.75052176418203202E-03 -2.81918434868680011E-03
 -2.88953582746913178E-03 -2.96161644897321953E-03 -3.03546735374626408E-03
 -3.11113059065311294E-03 -3.18864913318498300E-03 -3.26806689584925548E-03
 -3.34942875062618642E-03 -3.43278054347730772E-03 -3.51816911088911497E-03
 -3.60564229643433850E-03 -3.69524896733183957E-03 -3.78703903098472376E-03
 -3.88106345147484636E-03 -3.97737426599031278E-03 -4.07602460116095622E-03
 -4.17706868927505970E-03 -4.28056188434881423E-03 -4.38656067801804390E-03
 -4.49512271521983458E-03 -4.60630680962949811E-03 -4.72017295881617654E-03
 -4.83678235907804548E-03 -4.95619741991558393E-03 -5.07848177809910959E-03
 -5.20370031128373003E-03 -5.33191915112218862E-03 -5.46320569582325801E-03
 -5.59762862210006970E-03 -5.73525789644970582E-03 -5.87616478570185397E-03
 -6.02042186677087272E-03 -6.16810303554185622E-03 -6.31928351481746316E-03
 -6.47403986124814399E-03 -6.63244997116421448E-03 -6.79459308522381913E-03
 -6.96054979178611141E-03 -7.13040202891425650E-03 -7.30423308490774775E-03
 -7.48212759725835896E-03 -7.66417154991842851E-03 -7.85045226876471269E-03
 -8.04105841513483993E-03 -8.23607997730742107E-03 -8.43560825979031668E-03
 -8.63973587027500392E-03 -8.84855670410785583E-03 -9.06216592612215169E-03
 -9.28065994966700836E-03 -9.50413641266170325E-03 -9.73269415049574441E-03
 -9.96643316558665053E-03 -1.02054545933996411E-02 -1.04498606647232001E-02
 -1.06997546639859588E-02 -1.09552408833907388E-02 -1.12164245726318647E-02
 -1.14834118839516608E-02 -1.17563098122816911E-02 -1.20352261302035576E-02
 -1.23202693174530916E-02 -1.26115484846804540E-02 -1.29091732911672374E-02
 -1.32132538561895475E-02 -1.35239006637042983E-02 -1.38412244600232878E-02
 -1.41653361441271882E-02 -1.44963466502588591E-02 -1.48343668224221494E-02
 -1.51795072803994936E-02 -1.55318782768880809E-02 -1.58915895453409575E-02
 -1.62587501380860935E-02 -1.66334682542827079E-02 -1.70158510572607433E-02
 -1.74060044807758489E-02 -1.78040330236987863E-02 -1.82100395326452863E-02
 -1.86241249720385284E-02 -1.90463881810848112E-02 -1.94769256171319453E-02
 -1.99158310848647491E-02 -2.03631954507830400E-02 -2.08191063423968543E-02
 -2.12836478315640010E-02 -2.17569001013860862E-02 -2.22389390960717331E-02
 -2.27298361531691404E-02 -2.32296576175655897E-02 -2.37384644366474551E-02
 -2.42563117360132634E-02 -2.47832483751325300E-02 -2.53193164823456197E-02
 -2.58645509686049359E-02 -2.64189790193659624E-02 -2.69826195640467011E-02
 -2.75554827224889776E-02 -2.81375692278722084E-02 -2.87288698255523736E-02
 -2.93293646473246350E-02 -2.99390225606392321E-02 -3.05578004923359493E-02
 -3.11856427265041376E-02 -3.18224801761230400E-02 -3.24682296281913613E-02
 -3.31227929621160586E-02 -3.37860563412004378E-02 -3.44578893771484360E-02
 -3.51381442675868447E-02 -3.58266549067045581E-02 -3.65232359692137659E-02
 -3.72276819679546941E-02 -3.79397662855944506E-02 -3.86592401810117517E-02
 -3.93858317711134609E-02 -4.01192449889981873E-02 -4.08591585195655430E-02
 -4.16052247138694806E-02 -4.23570684837308309E-02 -4.31142861783584269E-02
 -4.38764444449817118E-02 -4.46430790757700313E-02 -4.54136938436086879E-02
 -4.61877593296162042E-02 -4.69647117456263030E-02 -4.77439517552196366E-02
 -4.85248432972773189E-02 -4.93067124164402668E-02 -5.00888461052974715E-02
 -5.08704911635918661E-02 -5.16508530802275920E-02 -5.24290949443860232E-02
 -5.32043363926238966E-02 -5.39756525993558001E-02 -5.47420733187916619E-02
 -5.55025819870333323E-02 -5.62561148936885913E-02 -5.70015604330717518E-02
 -5.77377584457885243E-02 -5.84634996622635725E-02 -5.91775252605536914E-02
 -5.98785265516014742E-02 -6.05651448059187081E-02 -6.12359712365427369E-02
 -6.18895471539818026E-02 -6.25243643097525420E-02 -6.31388654460051657E-02
 -6.37314450696355311E-02 -6.43004504701771146E-02 -6.48441830016581039E-02
 -6.53608996494808581E-02 -6.58488149042275872E-02 -6.63061029651115796E-02
 -6.67309002965570941E-02 -6.71213085621006622E-02 -6.74753979604418297E-02
 -6.77912109890177056E-02 -6.80667666609356958E-02 -6.83000652014926768E-02
 -6.84890932503280925E-02 -6.86318295956778457E-02 -6.87262514669385038E-02
 -6.87703414112359329E-02 -6.87620947791024589E-02 -6.86995278434543305E-02
 -6.85806865748382066E-02 -6.84036560943542815E-02 -6.81665708237225026E-02
 -6.78676253496037912E-02 -6.75050860164754102E-02 -6.70773032590492174E-02
 -6.65827246813702200E-02 -6.60199088852916893E-02 -6.53875400459523332E-02
 -6.46844432261266256E-02 -6.39096004148419633E-02 -6.30621672684017615E-02
 -6.21414905238840756E-02 -6.11471260462494171E-02 -6.00788574603551284E-02
 -5.89367153083938805E-02 -5.77209966615224029E-02 -5.64322851016936036E-02
 -5.50714709760217608E-02 -5.36397718111663868E-02 -5.21387527587240801E-02
 -5.05703469270794292E-02 -4.89368754365745173E-02 -4.72410670161392196E-02
 -4.54860769399798859E-02 -4.36755050825396104E-02 -4.18134128489016932E-02
 -3.99043387162600835E-02 -3.79533121002090662E-02 -3.59658652376204646E-02
 -3.39480427560417894E-02 -3.19064085781627163E-02 -2.98480497892977502E-02
 -2.77805770764351367E-02 -2.57121213296318679E-02 -2.36513259809245889E-02
 -2.16073346430196225E-02 -1.95897736004638605E-02 -1.76087287004646868E-02
 -1.56747161897688274E-02 -1.37986470488484850E-02 -1.19917843859397334E-02
 -1.02656934721628498E-02 -8.63218402597075440E-03 -7.10324439065068008E-03
 -5.69096729787800688E-03 -4.40746696814668486E-03 -3.26478736675502252E-03
 -2.27480151904944352E-03 -1.44910185118689002E-03 -7.98881053340434375E-04
 -3.34793806835836103E-04 -6.66449493168828964E-05  1.25063854663981883E-06
  8.96851650543591352E-08  6.33803710181950667E-09  4.41480622362893047E-10
  3.03007485828266453E-11  2.04747138794482642E-12  1.36013090294378560E-13
  8.86293069392596559E-15  5.64625080789557730E-16  3.49893170132574285E-17
  2.09242974539799757E-18  1.19150391384544337E-19  6.30039902088439523E-21
  2.92361762665613932E-22  9.90780493126655394E-24 -3.45370210634370598E-26
 -5.11752642824344423E-26 -6.80596148423039470E-27 -6.87478171427559404E-28
 -6.17824570217966847E-29 -5.19639287214875672E-30 -4.18406562042709895E-31
 -3.26402731774530653E-32 -2.48429176649583842E-33 -1.85276374020808256E-34
 -1.35766230781523881E-35 -9.79161847718519085E-37  0.00000000000000000E+00
  0.00000000000000000E+00  0.00000000000000000E+00  0.00000000000000000E+00
  0.00000000000000000E+00  0.00000000000000000E+00  0.00000000000000000E+00
  0.00000000000000000E+00  0.00000000000000000E+00  0.00000000000000000E+00
  0.00000000000000000E+00  0.00000000000000000E+00  0.00000000000000000E+00
  0.00000000000000000E+00  0.00000000000000000E+00  0.00000000000000000E+00
  0.00000000000000000E+00  0.00000000000000000E+00  0.00000000000000000E+00
  0.00000000000000000E+00  0.00000000000000000E+00  0.00000000000000000E+00
  0.00000000000000000E+00  0.00000000000000000E+00  0.00000000000000000E+00
  0.00000000000000000E+00  0.00000000000000000E+00  0.00000000000000000E+00
  0.00000000000000000E+00  0.00000000000000000E+00  0.00000000000000000E+00
  0.00000000000000000E+00  0.00000000000000000E+00  0.00000000000000000E+00
  0.00000000000000000E+00  0.00000000000000000E+00  0.00000000000000000E+00
  0.00000000000000000E+00  0.00000000000000000E+00  0.00000000000000000E+00
  0.00000000000000000E+00  0.00000000000000000E+00  0.00000000000000000E+00
  0.00000000000000000E+00  0.00000000000000000E+00  0.00000000000000000E+00
  0.00000000000000000E+00  0.00000000000000000E+00  0.00000000000000000E+00
  0.00000000000000000E+00  0.00000000000000000E+00  0.00000000000000000E+00
  0.00000000000000000E+00  0.00000000000000000E+00  0.00000000000000000E+00
  0.00000000000000000E+00  0.00000000000000000E+00  0.00000000000000000E+00
  0.00000000000000000E+00  0.00000000000000000E+00  0.00000000000000000E+00
  0.00000000000000000E+00  0.00000000000000000E+00  0.00000000000000000E+00
  0.00000000000000000E+00  0.00000000000000000E+00  0.00000000000000000E+00
  0.00000000000000000E+00  0.00000000000000000E+00  0.00000000000000000E+00
  0.00000000000000000E+00  0.00000000000000000E+00  0.00000000000000000E+00
  0.00000000000000000E+00  0.00000000000000000E+00  0.00000000000000000E+00
  0.00000000000000000E+00  0.00000000000000000E+00  0.00000000000000000E+00
  0.00000000000000000E+00  0.00000000000000000E+00  0.00000000000000000E+00
  0.00000000000000000E+00  0.00000000000000000E+00  0.00000000000000000E+00
  0.00000000000000000E+00  0.00000000000000000E+00  0.00000000000000000E+00
  0.00000000000000000E+00  0.00000000000000000E+00  0.00000000000000000E+00
  0.00000000000000000E+00  0.00000000000000000E+00  0.00000000000000000E+00
  0.00000000000000000E+00  0.00000000000000000E+00  0.00000000000000000E+00
  0.00000000000000000E+00  0.00000000000000000E+00  0.00000000000000000E+00
  0.00000000000000000E+00  0.00000000000000000E+00  0.00000000000000000E+00
  0.00000000000000000E+00  0.00000000000000000E+00  0.00000000000000000E+00
  0.00000000000000000E+00  0.00000000000000000E+00  0.00000000000000000E+00
  0.00000000000000000E+00  0.00000000000000000E+00  0.00000000000000000E+00
  0.00000000000000000E+00  0.00000000000000000E+00  0.00000000000000000E+00
  0.00000000000000000E+00  0.00000000000000000E+00  0.00000000000000000E+00
  0.00000000000000000E+00  0.00000000000000000E+00  0.00000000000000000E+00
  0.00000000000000000E+00  0.00000000000000000E+00  0.00000000000000000E+00
  0.00000000000000000E+00  0.00000000000000000E+00  0.00000000000000000E+00
  0.00000000000000000E+00  0.00000000000000000E+00  0.00000000000000000E+00
  0.00000000000000000E+00  0.00000000000000000E+00  0.00000000000000000E+00
  0.00000000000000000E+00  0.00000000000000000E+00  0.00000000000000000E+00
  0.00000000000000000E+00  0.00000000000000000E+00  0.00000000000000000E+00
  0.00000000000000000E+00  0.00000000000000000E+00  0.00000000000000000E+00
  0.00000000000000000E+00  0.00000000000000000E+00  0.00000000000000000E+00
  0.00000000000000000E+00  0.00000000000000000E+00  0.00000000000000000E+00
  0.00000000000000000E+00  0.00000000000000000E+00  0.00000000000000000E+00
  0.00000000000000000E+00  0.00000000000000000E+00  0.00000000000000000E+00
  0.00000000000000000E+00  0.00000000000000000E+00  0.00000000000000000E+00
  0.00000000000000000E+00  0.00000000000000000E+00  0.00000000000000000E+00
  0.00000000000000000E+00  0.00000000000000000E+00  0.00000000000000000E+00
                       </PP_QIJL.3.3.0>
 <PP_QIJL.3.3.2 type="real" size="   999" columns="3" first_index=" 3" second_index=" 3" composite_index=" 6" angular_momentum="2">
 -1.09364191162517782E-17 -1.14971439641740949E-17 -1.20866144099487512E-17
 -1.27063061792389337E-17 -1.33577737327478200E-17 -1.40426438311142876E-17
 -1.47626232721785133E-17 -1.55195180921990383E-17 -1.63152234969959878E-17
 -1.71517230729020695E-17 -1.80311080545020412E-17 -1.89555841104505720E-17
 -1.99274600941274710E-17 -2.09491599434026664E-17 -2.20232461500621387E-17
 -2.31524053605610509E-17 -2.43394525425797795E-17 -2.55873615652940073E-17
 -2.68992569317707000E-17 -2.82784102240583420E-17 -2.97282732279187636E-17
 -3.12524776286415817E-17 -3.28548257066069337E-17 -3.45393263195534045E-17
 -3.63101988571286419E-17 -3.81718615046345353E-17 -4.01289726484861218E-17
 -4.21864328676858025E-17 -4.43493753794613953E-17 -4.66232154340592135E-17
 -4.90136427236949921E-17 -5.15266223225711558E-17 -5.41684496515718071E-17
 -5.69457279568084933E-17 -5.98653939286104010E-17 -6.29347617452119566E-17
 -6.61614949079290745E-17 -6.95536656193050867E-17 -7.31197625628244006E-17
 -7.68686885698201575E-17 -8.08098332466500860E-17 -8.49530417596397910E-17
 -8.93086752642268107E-17 -9.38876333503133945E-17 -9.87013504766261203E-17
 -1.03761880902149149E-16 -1.09081863906538476E-16 -1.14674610954093621E-16
 -1.20554105983884732E-16 -1.26735043737091149E-16 -1.33232893312924732E-16
 -1.40063884575955726E-16 -1.47245118609031954E-16 -1.54794532735308648E-16
 -1.62731021625410372E-16 -1.71074417028299025E-16 -1.79845591341623713E-16
 -1.89066471604671570E-16 -1.98760116432263505E-16 -2.08950766745778084E-16
 -2.19663899873834312E-16 -2.30926311050156990E-16 -2.42766153726206082E-16
 -2.55213043108872482E-16 -2.68298093090845419E-16 -2.82054032660791972E-16
 -2.96515250229452867E-16 -3.11717913301728899E-16 -3.27700032009719520E-16
 -3.44501571117123717E-16 -3.62164546249626989E-16 -3.80733116136487607E-16
 -4.00253725179797045E-16 -4.20775166292208435E-16 -4.42348777158992492E-16
 -4.65028476630740327E-16 -4.88871001887608966E-16 -5.13935949898048469E-16
 -5.40286009895265184E-16 -5.67987068333926380E-16 -5.97108382132028286E-16
 -6.27722790594269788E-16 -6.59906818698031016E-16 -6.93740967606393208E-16
 -7.29309828145458066E-16 -7.66702336576835711E-16 -8.06012013075507940E-16
 -8.47337125564056062E-16 -8.90781028543114190E-16 -9.36452353363104778E-16
 -9.84465282996569069E-16 -1.03493990071626285E-15 -1.08800240521529877E-15
 -1.14378547253804185E-15 -1.20242861236117246E-15 -1.26407844492846975E-15
 -1.32888912359973851E-15 -1.39702272998579505E-15 -1.46864961727509258E-15
 -1.54394888282874040E-15 -1.62310883613014370E-15 -1.70632740937071869E-15
 -1.79381267511694721E-15 -1.88578341330258888E-15 -1.98246960174256191E-15
 -2.08411298563850255E-15 -2.19096773186800270E-15 -2.30330104904554258E-15
 -2.42139382253631658E-15 -2.54554132762559662E-15 -2.67605401051686821E-15
 -2.81325823199534537E-15 -2.95749706792493430E-15 -3.10913117417157760E-15
 -3.26853972292612817E-15 -3.43612133063540741E-15 -3.61229503809923102E-15
 -3.79750136017538787E-15 -3.99220340099033504E-15 -4.19688802884986901E-15
 -4.41206706879810460E-15 -4.63827857958154278E-15 -4.87608820059764836E-15
 -5.12609057043822676E-15 -5.38891083025201984E-15 -5.66520617507357499E-15
 -5.95566748986988573E-15 -6.26102107815288212E-15 -6.58203047910531902E-15
 -6.91949837773672653E-15 -7.27426861635810059E-15 -7.64722830980570802E-15
 -8.03931005506071080E-15 -8.45149426221875217E-15 -8.88481160656951116E-15
 -9.34034560629006487E-15 -9.81923533219803927E-15 -1.03226782563428119E-14
 -1.08519332465598342E-14 -1.14083237144769474E-14 -1.19932409250507970E-14
 -1.26081474763712430E-14 -1.32545809556480492E-14 -1.39341577833762186E-14
 -1.46485772553539280E-14 -1.53996257919026241E-14 -1.61891814049186494E-14
 -1.70192183939318373E-14 -1.78918122829170486E-14 -1.88091450102073427E-14
 -1.97735103844891578E-14 -2.07873198205228905E-14 -2.18531083689326271E-14
 -2.29735410551395396E-14 -2.41514195432856214E-14 -2.53896891418042657E-14
 -2.66914461681431612E-14 -2.80599456910420201E-14 -2.94986096697039184E-14
 -3.10110355101875311E-14 -3.26010050605766259E-14 -3.42724940697763510E-14
 -3.60296821295990230E-14 -3.78769631248184976E-14 -3.98189562199973458E-14
 -4.18605174094468990E-14 -4.40067516590991914E-14 -4.62630256705674650E-14
 -4.86349812992063360E-14 -5.11285496596042298E-14 -5.37499659538939874E-14
 -5.65057850764674229E-14 -5.94028980192684389E-14 -6.24485490828215638E-14
 -6.56503539851322715E-14 -6.90163188999239119E-14 -7.25548604695949622E-14
 -7.62748268490742811E-14 -8.01855198923101577E-14 -8.42967183980923090E-14
 -8.86187025158534493E-14 -9.31622794380805537E-14 -9.79388104095708233E-14
 -1.02960239212203380E-13 -1.08239122088670914E-13 -1.13788659018358733E-13
 -1.19622726689730877E-13 -1.25755913200269578E-13 -1.32203554743152523E-13
 -1.38981773851184357E-13 -1.46107519567822730E-13 -1.53598609814355742E-13
 -1.61473776245901116E-13 -1.69752710980982829E-13 -1.78456115591387819E-13
 -1.87605752924973114E-13 -1.97224501970024827E-13 -2.07336414665535268E-13
 -2.17966775826120495E-13 -2.29142166855488978E-13 -2.40890532235914371E-13
 -2.53241248801908757E-13 -2.66225199585344339E-13 -2.79874851486622457E-13
 -2.94224335557044387E-13 -3.09309532707090113E-13 -3.25168164102489888E-13
 -3.41839884316007916E-13 -3.59366381086013558E-13 -3.77791480129772930E-13
 -3.97161253323701024E-13 -4.17524135169731430E-13 -4.38931043700125437E-13
 -4.61435506655509373E-13 -4.85093797311108235E-13 -5.09965073422723972E-13
 -5.36111525743288622E-13 -5.63598534466197777E-13 -5.92494830530675171E-13
 -6.22872670209251994E-13 -6.54808013396231390E-13 -6.88380714847018812E-13
 -7.23674724016481329E-13 -7.60778293326117434E-13 -7.99784201736455621E-13
 -8.40789983040191697E-13 -8.83898173743104569E-13 -9.29216565636089076E-13
 -9.76858478606861353E-13 -1.02694304147646420E-12 -1.07959549155447564E-12
 -1.13494748697183093E-12 -1.19313743592733421E-12 -1.25431084343125396E-12
 -1.31862067392487834E-12 -1.38622773540438250E-12 -1.45730107962162093E-12
 -1.53201842679076108E-12 -1.61056660808198830E-12 -1.69314203437869188E-12
 -1.77995118636642771E-12 -1.87121113105910637E-12 -1.96715006544879406E-12
 -2.06800788486496868E-12 -2.17403678668139377E-12 -2.28550189535338984E-12
 -2.40268193259777461E-12 -2.52586990582813280E-12 -2.65537384984193744E-12
 -2.79151758866476161E-12 -2.93464155168795270E-12 -3.08510362173603085E-12
 -3.24328002891912389E-12 -3.40956629685122337E-12 -3.58437822262489699E-12
 -3.76815292706460679E-12 -3.96134993876324721E-12 -4.16445234735950361E-12
 -4.37796801377619008E-12 -4.60243083173476064E-12 -4.83840207430122428E-12
 -5.08647178777098612E-12 -5.34726026964769365E-12 -5.62141962570215545E-12
 -5.90963538906681055E-12 -6.21262824491537626E-12 -6.53115582948939497E-12
 -6.86601461751128712E-12 -7.21804192664629309E-12 -7.58811800190077445E-12
 -7.97716821454076221E-12 -8.38616538830927321E-12 -8.81613221987368466E-12
 -9.26814383666686183E-12 -9.74333049703331040E-12 -1.02428804035269918E-11
 -1.07680426745970408E-11 -1.13201304807445250E-11 -1.19005243154355371E-11
 -1.25106754452402230E-11 -1.31521095529561084E-11 -1.38264305424752543E-11
 -1.45353245433895196E-11 -1.52805641401690574E-11 -1.60640128022889383E-11
 -1.68876295326244373E-11 -1.77534737722795512E-11 -1.86637105607525448E-11
 -1.96206159350558878E-11 -2.06265826187759068E-11 -2.16841260190957231E-11
 -2.27958905130584071E-11 -2.39646560486512189E-11 -2.51933450985463281E-11
 -2.64850299830904709E-11 -2.78429405406348295E-11 -2.92704721969486735E-11
 -3.07711944597489734E-11 -3.23488598588160161E-11 -3.40074133148787403E-11
 -3.57510019984866692E-11 -3.75839857030247261E-11 -3.95109477622123529E-11
 -4.15367064976524822E-11 -4.36663272601397034E-11 -4.59051350956153022E-11
 -4.82587280754933228E-11 -5.07329912908451788E-11 -5.33341115554985944E-11
 -5.60685928745867420E-11 -5.89432727126931231E-11 -6.19653391055601478E-11
 -6.51423486176037082E-11 -6.84822452314148941E-11 -7.19933802101449902E-11
 -7.56845329874578773E-11 -7.95649331314530925E-11 -8.36442834053984059E-11
 -8.79327840250356471E-11 -9.24411581622156006E-11 -9.71806787619318024E-11
 -1.02163196745496924E-10 -1.07401170626554251E-10 -1.12907697656226093E-10
 -1.18696546570168382E-10 -1.24782192014973190E-10 -1.31179850753793701E-10
 -1.37905519717061673E-10 -1.44976015984329607E-10 -1.52409018830911748E-10
 -1.60223113931101068E-10 -1.68437839827933051E-10 -1.77073736799144386E-10
 -1.86152398219546194E-10 -1.95696524534368075E-10 -2.05729980015262346E-10
 -2.16277852427216274E-10 -2.27366515754374240E-10 -2.39023696144554962E-10
 -2.51278541251254704E-10 -2.64161693099832076E-10 -2.77705364690519728E-10
 -2.91943420538272027E-10 -3.06911461341589313E-10 -3.22646912991947022E-10
 -3.39189120147028513E-10 -3.56579444616687794E-10 -3.74861368777881940E-10
 -3.94080604273634097E-10 -4.14285206299696231E-10 -4.35525693750847412E-10
 -4.57855175526443613E-10 -4.81329483310951589E-10 -5.06007311161498379E-10
 -5.31950362263111003E-10 -5.59223503205422209E-10 -5.87894926139521780E-10
 -6.18036319263865207E-10 -6.49723046051999437E-10 -6.83034333668074340E-10
 -7.18053471041069012E-10 -7.54868017092858196E-10 -7.93570019640567139E-10
 -8.34256245524199548E-10 -8.77028422546750980E-10 -9.21993493783610845E-10
 -9.69263884933543543E-10 -1.01895778538270082E-09 -1.07119944367628219E-09
 -1.12611947813636311E-09 -1.18385520340215168E-09 -1.24455097370882432E-09
 -1.30835854376287721E-09 -1.37543744811583122E-09 -1.44595539998663196E-09
 -1.52008871054354194E-09 -1.59802272965138183E-09 -1.67995230920830060E-09
 -1.76608229024307946E-09 -1.85662801498020968E-09 -1.95181586515217029E-09
 -2.05188382790415599E-09 -2.15708209070535445E-09 -2.26767366675330317E-09
 -2.38393505243415929E-09 -2.50615691848158497E-09 -2.63464483656132951E-09
 -2.76972004309694270E-09 -2.91172024224808230E-09 -3.06100045005846907E-09
 -3.21793388184175050E-09 -3.38291288505261260E-09 -3.55634991997775224E-09
 -3.73867859068963442E-09 -3.93035472883875211E-09 -4.13185753299176317E-09
 -4.34369076636189448E-09 -4.56638401592365707E-09 -4.80049401605698300E-09
 -5.04660604002757567E-09 -5.30533536277890273E-09 -5.57732879868989381E-09
 -5.86326631813924677E-09 -6.16386274691400989E-09 -6.47986955270698386E-09
 -6.81207672316485194E-09 -7.16131474017738720E-09 -7.52845665533957539E-09
 -7.91442027177914247E-09 -8.32017043777138530E-09 -8.74672145788183535E-09
 -9.19513962766797598E-09 -9.66654589826200814E-09 -1.01621186774876659E-08
 -1.06830967745050874E-08 -1.12307824953356294E-08 -1.18065448969949405E-08
 -1.24118232083585001E-08 -1.30481304262992520E-08 -1.37170570960749036E-08
 -1.44202752854010161E-08 -1.51595427621300879E-08 -1.59367073859636533E-08
 -1.67537117251590736E-08 -1.76125979097526905E-08 -1.85155127334117046E-08
 -1.94647130166462062E-08 -2.04625712447648492E-08 -2.15115814946424884E-08
 -2.26143656650873192E-08 -2.37736800263527854E-08 -2.49924221051340787E-08
 -2.62736379222251151E-08 -2.76205296008912030E-08 -2.90364633649352959E-08
 -3.05249779464074478E-08 -3.20897934239268826E-08 -3.37348205136587186E-08
 -3.54641703361155779E-08 -3.72821646831374936E-08 -3.91933468106507944E-08
 -4.12024927841146768E-08 -4.33146234049398400E-08 -4.55350167476113059E-08
 -4.78692213387648031E-08 -5.03230700110665210E-08 -5.29026944664230424E-08
 -5.56145405848146923E-08 -5.84653845168994914E-08 -6.14623496004812904E-08
 -6.46129241429913375E-08 -6.79249801142828380E-08 -7.14067927962980679E-08
 -7.50670614385521449E-08 -7.89149309708729623E-08 -8.29600148274658319E-08
 -8.72124189391342621E-08 -9.16827669533875549E-08 -9.63822267452194629E-08
 -1.01322538284544008E-07 -1.06516042929645268E-07 -1.11975714219540224E-07
 -1.17715190241868147E-07 -1.23748807656839686E-07 -1.30091637461877303E-07
 -1.36759522585906111E-07 -1.43769117406786907E-07 -1.51137929290153194E-07
 -1.58884362252928907E-07 -1.67027762860064273E-07 -1.75588468468566980E-07
 -1.84587857938717589E-07 -1.94048404938472670E-07 -2.03993733973478877E-07
 -2.14448679281869977E-07 -2.25439346740108295E-07 -2.36993178933588035E-07
 -2.49139023553538436E-07 -2.61907205290002766E-07 -2.75329601399301707E-07
 -2.89439721133480240E-07 -3.04272789228778163E-07 -3.19865833660191128E-07
 -3.36257777879722123E-07 -3.53489537767000919E-07 -3.71604123532565447E-07
 -3.90646746826332755E-07 -4.10664933316612075E-07 -4.31708641018511679E-07
 -4.53830384664755690E-07 -4.77085366426795567E-07 -5.01531613309769471E-07
 -5.27230121561278553E-07 -5.54245008451199655E-07 -5.82643671797905311E-07
 -6.12496957635280466E-07 -6.43879336434960411E-07 -6.76869088319202698E-07
 -7.11548497721908330E-07 -7.48004057978473588E-07 -7.86326686349517581E-07
 -8.26611950009121904E-07 -8.68960303555067951E-07 -9.13477338626799911E-07
 -9.60274046246466068E-07 -1.00946709252952528E-06 -1.06117910844410289E-06
 -1.11553899433259802E-06 -1.17268223994512917E-06 -1.23275126077222839E-06
 -1.29589575150399042E-06 -1.36227305748461980E-06 -1.43204856507515162E-06
 -1.50539611188318833E-06 -1.58249841786677323E-06 -1.66354753837032715E-06
 -1.74874534020383935E-06 -1.83830400193241286E-06 -1.93244653960202556E-06
 -2.03140735918903558E-06 -2.13543283712559754E-06 -2.24478193032123595E-06
 -2.35972681717195766E-06 -2.48055357112331090E-06 -2.60756286843225511E-06
 -2.74107073185518408E-06 -2.88140931207603980E-06 -3.02892770877920176E-06
 -3.18399283336721512E-06 -3.34699031542337715E-06 -3.51832545512420760E-06
 -3.69842422391688597E-06 -3.88773431589234850E-06 -4.08672625240586105E-06
 -4.29589454262413340E-06 -4.51575890281142985E-06 -4.74686553730696310E-06
 -4.98978848429285085E-06 -5.24513102960563680E-06 -5.51352719200597262E-06
 -5.79564328349041220E-06 -6.09217954840669590E-06 -6.40387188532030231E-06
 -6.73149365577498031E-06 -7.07585758429527883E-06 -7.43781775419460242E-06
 -7.81827170397188446E-06 -8.21816262932139670E-06 -8.63848169602737955E-06
 -9.08027046927134323E-06 -9.54462346515258616E-06 -1.00326908305065457E-05
 -1.05456811574037796E-05 -1.10848644390244858E-05 -1.16515751739303878E-05
 -1.22472156260984887E-05 -1.28732592484398071E-05 -1.35312542779018923E-05
 -1.42228275106473488E-05 -1.49496882662124424E-05 -1.57136325499809446E-05
 -1.65165474237597538E-05 -1.73604155947153154E-05 -1.82473202334238949E-05
 -1.91794500323062040E-05 -2.01591045162580288E-05 -2.11886996178544444E-05
 -2.22707735300971993E-05 -2.34079928502943002E-05 -2.46031590293077971E-05
 -2.58592151410828672E-05 -2.71792529880783269E-05 -2.85665205589584849E-05
 -3.00244298556784967E-05 -3.15565651079018531E-05 -3.31666913935328464E-05
 -3.48587636850258186E-05 -3.66369363420528360E-05 -3.85055730720706307E-05
 -4.04692573813291960E-05 -4.25328035399090415E-05 -4.47012680854784765E-05
 -4.69799618915623036E-05 -4.93744628273056337E-05 -5.18906290370036306E-05
 -5.45346128689048532E-05 -5.73128754841499343E-05 -6.02322021781055716E-05
 -6.32997184478067450E-05 -6.65229068407363443E-05 -6.99096246217439059E-05
 -7.34681222965458645E-05 -7.72070630319518313E-05 -8.11355430147333727E-05
 -8.52631127928911567E-05 -8.95997996449861934E-05 -9.41561310251870764E-05
 -9.89431591337412367E-05 -1.03972486664713709E-04 -1.09256293785052098E-04
 -1.14807366401327207E-04 -1.20639125772876185E-04 -1.26765659532531057E-04
 -1.33201754178661309E-04 -1.39962929104885163E-04 -1.47065472236521902E-04
 -1.54526477345659193E-04 -1.62363883119606554E-04 -1.70596514060479993E-04
 -1.79244123296742072E-04 -1.88327437390677050E-04 -1.97868203229031203E-04
 -2.07889237087416487E-04 -2.18414475962510994E-04 -2.29469031269321301E-04
 -2.41079245004816999E-04 -2.53272748482689155E-04 -2.66078523747731812E-04
 -2.79526967782188311E-04 -2.93649959620305792E-04 -3.08480930491290058E-04
 -3.24054937114869697E-04 -3.40408738277736143E-04 -3.57580874823224958E-04
 -3.75611753190741797E-04 -3.94543732645571022E-04 -4.14421216343880035E-04
 -4.35290746381859545E-04 -4.57201102982079314E-04 -4.80203407974213233E-04
 -5.04351232731311975E-04 -5.29700710726730751E-04 -5.56310654880668213E-04
 -5.84242679868945871E-04 -6.13561329570210196E-04 -6.44334209831056055E-04
 -6.76632126731701450E-04 -7.10529230537643446E-04 -7.46103165525273631E-04
 -7.83435225871577162E-04 -8.22610517799786107E-04 -8.63718128174191285E-04
 -9.06851299738159825E-04 -9.52107613188805609E-04 -9.99589176282348691E-04
 -1.04940282016251956E-03 -1.10166030310211390E-03 -1.15647852184491370E-03
 -1.21397973073120885E-03 -1.27429176878496569E-03 -1.33754829493434911E-03
 -1.40388903152953957E-03 -1.47346001631255808E-03 -1.54641386298294916E-03
 -1.62291003049047536E-03 -1.70311510117138317E-03 -1.78720306782800169E-03
 -1.87535562983237635E-03 -1.96776249831301115E-03 -2.06462171045941004E-03
 -2.16613995295180913E-03 -2.27253289449287719E-03 -2.38402552738411697E-03
 -2.50085251805189524E-03 -2.62325856638608718E-03 -2.75149877370807353E-03
 -2.88583901913380811E-03 -3.02655634404154928E-03 -3.17393934429239730E-03
 -3.32828856978393010E-03 -3.48991693084369382E-03 -3.65915011089090183E-03
 -3.83632698470406019E-03 -4.02180004153840798E-03 -4.21593581223371656E-03
 -4.41911529934071491E-03 -4.63173440917296394E-03 -4.85420438455979111E-03
 -5.08695223693405880E-03 -5.33042117623591574E-03 -5.58507103694882122E-03
 -5.85137869840741433E-03 -6.12983849732665932E-03 -6.42096263029774943E-03
 -6.72528154377798493E-03 -7.04334430886822960E-03 -7.37571897792182324E-03
 -7.72299291976276132E-03 -8.08577313000697490E-03 -8.46468651267885501E-03
 -8.86038012899422779E-03 -9.27352140884072675E-03 -9.70479832012591595E-03
 -1.01549194907821511E-02 -1.06246142778143367E-02 -1.11146327773521767E-02
 -1.16257457692147646E-02 -1.21587445890327783E-02 -1.27144409205090809E-02
 -1.32936664998256036E-02 -1.38972727237014742E-02 -1.45261301520437508E-02
 -1.51811278955473160E-02 -1.58631728779968263E-02 -1.65731889624000685E-02
 -1.73121159294388240E-02 -1.80809082960639127E-02 -1.88805339613861110E-02
 -1.97119726663264536E-02 -2.05762142527935003E-02 -2.14742567074513412E-02
 -2.24071039744380383E-02 -2.33757635206929201E-02 -2.43812436368588334E-02
 -2.54245504560488347E-02 -2.65066846721128541E-02 -2.76286379384176571E-02
 -2.87913889275722076E-02 -2.99958990320007314E-02 -3.12431076848008124E-02
 -3.25339272799348225E-02 -3.38692376705085965E-02 -3.52498802236913822E-02
 -3.66766514107207467E-02 -3.81502959107860168E-02 -3.96714992075397205E-02
 -4.12408796575034625E-02 -4.28589800103990892E-02 -4.45262583623296376E-02
 -4.62430785239447417E-02 -4.80096997872606485E-02 -4.98262660766900095E-02
 -5.16927944721230978E-02 -5.36091630946258224E-02 -5.55750983485284386E-02
 -5.75901615174260958E-02 -5.96537347159458442E-02 -6.17650062041092129E-02
 -6.39229550768040666E-02 -6.61263353473162119E-02 -6.83736594511480944E-02
 -7.06631812045130231E-02 -7.29928782610212989E-02 -7.53604341202393085E-02
 -7.77632197530597480E-02 -8.01982749212682700E-02 -8.26622892823729305E-02
 -8.51515833857650756E-02 -8.76620896826465906E-02 -9.01893336899246140E-02
 -9.27284154680497047E-02 -9.52739915930172349E-02 -9.78202578254423610E-02
 -1.00360932703861816E-01 -1.02889242315052420E-01 -1.05397906521521575E-01
 -1.07879126955276169E-01 -1.10324577117489137E-01 -1.12725394955665109E-01
 -1.15072178323238350E-01 -1.17354983761082499E-01 -1.19563329075945010E-01
 -1.21686200227119928E-01 -1.23712063069409253E-01 -1.25628880537232257E-01
 -1.27424135891179846E-01 -1.29084862683848639E-01 -1.30597682135804916E-01
 -1.31948848644330929E-01 -1.33124304176344854E-01 -1.34109742321660425E-01
 -1.34890682802477402E-01 -1.35452557248495364E-01 -1.35780807052984259E-01
 -1.35860994122656342E-01 -1.35678925320656923E-01 -1.35220791370413040E-01
 -1.34473320955477260E-01 -1.33423950689446180E-01 -1.32061011553793406E-01
 -1.30373932304575280E-01 -1.28353460227838917E-01 -1.25991899475895258E-01
 -1.23283367039626848E-01 -1.20224066202774885E-01 -1.16812577079803109E-01
 -1.13050163556537075E-01 -1.08941095629519924E-01 -1.04492985773175201E-01
 -9.97171375510111091E-02 -9.46289042260260449E-02 -8.92480546145543452E-02
 -8.35991428658253710E-02 -7.77118782361505556E-02 -7.16214902623717314E-02
 -6.53690840255901490E-02 -5.90019794361685695E-02 -5.25740276689685634E-02
 -4.61458970399994742E-02 -3.97853197505515441E-02 -3.35672900447345490E-02
 -2.75742034313487087E-02 -2.18959257581226377E-02 -1.66297800898255049E-02
 -1.18804385345019307E-02 -7.75970525227049918E-03 -4.38617285554592125E-03
 -1.88467929294131487E-03 -3.84638795185130225E-04  7.36377037501578056E-06
  5.28067012871217806E-07  3.73184162374700582E-08  2.59944165069435524E-09
  1.78411064775281182E-10  1.20555289062129978E-11  8.00846229804030543E-13
  5.21850111329938188E-14  3.32451726686340811E-15  2.06017395478907071E-16
  1.23202440963952499E-17  7.01558515533050754E-19  3.70968028975424600E-20
  1.72142853943589934E-21  5.83372395088270201E-23 -2.03354273088368401E-25
 -3.01320390347063113E-25 -4.00735589717177871E-26 -4.04787730702038788E-27
 -3.63775631204670618E-28 -3.05964053256487489E-29 -2.46358138773220232E-30
 -1.92186205440677943E-31 -1.46275310017981015E-32 -1.09090886241306316E-33
 -7.99392718897594701E-35 -5.76531326812838118E-36  0.00000000000000000E+00
  0.00000000000000000E+00  0.00000000000000000E+00  0.00000000000000000E+00
  0.00000000000000000E+00  0.00000000000000000E+00  0.00000000000000000E+00
  0.00000000000000000E+00  0.00000000000000000E+00  0.00000000000000000E+00
  0.00000000000000000E+00  0.00000000000000000E+00  0.00000000000000000E+00
  0.00000000000000000E+00  0.00000000000000000E+00  0.00000000000000000E+00
  0.00000000000000000E+00  0.00000000000000000E+00  0.00000000000000000E+00
  0.00000000000000000E+00  0.00000000000000000E+00  0.00000000000000000E+00
  0.00000000000000000E+00  0.00000000000000000E+00  0.00000000000000000E+00
  0.00000000000000000E+00  0.00000000000000000E+00  0.00000000000000000E+00
  0.00000000000000000E+00  0.00000000000000000E+00  0.00000000000000000E+00
  0.00000000000000000E+00  0.00000000000000000E+00  0.00000000000000000E+00
  0.00000000000000000E+00  0.00000000000000000E+00  0.00000000000000000E+00
  0.00000000000000000E+00  0.00000000000000000E+00  0.00000000000000000E+00
  0.00000000000000000E+00  0.00000000000000000E+00  0.00000000000000000E+00
  0.00000000000000000E+00  0.00000000000000000E+00  0.00000000000000000E+00
  0.00000000000000000E+00  0.00000000000000000E+00  0.00000000000000000E+00
  0.00000000000000000E+00  0.00000000000000000E+00  0.00000000000000000E+00
  0.00000000000000000E+00  0.00000000000000000E+00  0.00000000000000000E+00
  0.00000000000000000E+00  0.00000000000000000E+00  0.00000000000000000E+00
  0.00000000000000000E+00  0.00000000000000000E+00  0.00000000000000000E+00
  0.00000000000000000E+00  0.00000000000000000E+00  0.00000000000000000E+00
  0.00000000000000000E+00  0.00000000000000000E+00  0.00000000000000000E+00
  0.00000000000000000E+00  0.00000000000000000E+00  0.00000000000000000E+00
  0.00000000000000000E+00  0.00000000000000000E+00  0.00000000000000000E+00
  0.00000000000000000E+00  0.00000000000000000E+00  0.00000000000000000E+00
  0.00000000000000000E+00  0.00000000000000000E+00  0.00000000000000000E+00
  0.00000000000000000E+00  0.00000000000000000E+00  0.00000000000000000E+00
  0.00000000000000000E+00  0.00000000000000000E+00  0.00000000000000000E+00
  0.00000000000000000E+00  0.00000000000000000E+00  0.00000000000000000E+00
  0.00000000000000000E+00  0.00000000000000000E+00  0.00000000000000000E+00
  0.00000000000000000E+00  0.00000000000000000E+00  0.00000000000000000E+00
  0.00000000000000000E+00  0.00000000000000000E+00  0.00000000000000000E+00
  0.00000000000000000E+00  0.00000000000000000E+00  0.00000000000000000E+00
  0.00000000000000000E+00  0.00000000000000000E+00  0.00000000000000000E+00
  0.00000000000000000E+00  0.00000000000000000E+00  0.00000000000000000E+00
  0.00000000000000000E+00  0.00000000000000000E+00  0.00000000000000000E+00
  0.00000000000000000E+00  0.00000000000000000E+00  0.00000000000000000E+00
  0.00000000000000000E+00  0.00000000000000000E+00  0.00000000000000000E+00
  0.00000000000000000E+00  0.00000000000000000E+00  0.00000000000000000E+00
  0.00000000000000000E+00  0.00000000000000000E+00  0.00000000000000000E+00
  0.00000000000000000E+00  0.00000000000000000E+00  0.00000000000000000E+00
  0.00000000000000000E+00  0.00000000000000000E+00  0.00000000000000000E+00
  0.00000000000000000E+00  0.00000000000000000E+00  0.00000000000000000E+00
  0.00000000000000000E+00  0.00000000000000000E+00  0.00000000000000000E+00
  0.00000000000000000E+00  0.00000000000000000E+00  0.00000000000000000E+00
  0.00000000000000000E+00  0.00000000000000000E+00  0.00000000000000000E+00
  0.00000000000000000E+00  0.00000000000000000E+00  0.00000000000000000E+00
  0.00000000000000000E+00  0.00000000000000000E+00  0.00000000000000000E+00
  0.00000000000000000E+00  0.00000000000000000E+00  0.00000000000000000E+00
  0.00000000000000000E+00  0.00000000000000000E+00  0.00000000000000000E+00
  0.00000000000000000E+00  0.00000000000000000E+00  0.00000000000000000E+00
  0.00000000000000000E+00  0.00000000000000000E+00  0.00000000000000000E+00
  0.00000000000000000E+00  0.00000000000000000E+00  0.00000000000000000E+00
  0.00000000000000000E+00  0.00000000000000000E+00  0.00000000000000000E+00
                       </PP_QIJL.3.3.2>
 <PP_QIJL.3.4.0 type="real" size="   999" columns="3" first_index=" 3" second_index=" 4" composite_index=" 9" angular_momentum="0">
  2.66902709896451229E-09  2.73659384128075238E-09  2.80587104380284627E-09
  2.87690200703605876E-09  2.94973112764312356E-09  3.02440392619358526E-09
  3.10096707561564385E-09  3.17946843036823167E-09  3.25995705635160836E-09
  3.34248326157517798E-09  3.42709862760157511E-09  3.51385604178682907E-09
  3.60280973033669945E-09  3.69401529219979785E-09  3.78752973381874205E-09
  3.88341150476101296E-09  3.98172053425186413E-09  4.08251826863199550E-09
  4.18586770976351576E-09  4.29183345440820050E-09  4.40048173460248560E-09
  4.51188045905467309E-09  4.62609925559009459E-09  4.74320951467072278E-09
  4.86328443401655689E-09  4.98639906435654813E-09  5.11263035633774335E-09
  5.24205720862192265E-09  5.37476051719984432E-09  5.51082322595385091E-09
  5.65033037850045132E-09  5.79336917134539608E-09  5.94002900838424220E-09
  6.09040155678273798E-09  6.24458080427178258E-09  6.40266311789272031E-09
  6.56474730422994943E-09  6.73093467116817461E-09  6.90132909121312082E-09
  7.07603706641528613E-09  7.25516779493702517E-09  7.43883323930506365E-09
  7.62714819639062419E-09  7.82023036916118363E-09  8.01820044024872802E-09
  8.22118214738012937E-09  8.42930236071737074E-09  8.64269116215541581E-09
  8.86148192662761608E-09  9.08581140546939980E-09  9.31581981189215660E-09
  9.55165090862115063E-09  9.79345209775175016E-09  1.00413745128805792E-08
  1.02955731135688603E-08  1.05562067821971212E-08  1.08234384232717979E-08
  1.10974350652458591E-08  1.13783679649168938E-08  1.16664127144682286E-08
  1.19617493512195870E-08  1.22645624701562653E-08  1.25750413393069627E-08
  1.28933800180423134E-08  1.32197774783683854E-08  1.35544377292903934E-08
  1.38975699443250273E-08  1.42493885922405584E-08  1.46101135711067049E-08
  1.49799703457380896E-08  1.53591900886168481E-08  1.57480098243829349E-08
  1.61466725779821003E-08  1.65554275265642773E-08  1.69745301552273544E-08
  1.74042424167034494E-08  1.78448328950877846E-08  1.82965769737124276E-08
  1.87597570072695536E-08  1.92346624982923516E-08  1.97215902781031722E-08
  2.02208446923426845E-08  2.07327377911956784E-08  2.12575895244322359E-08
  2.17957279413868071E-08  2.23474893959992503E-08  2.29132187570469047E-08
  2.34932696236985795E-08  2.40880045465251972E-08  2.46977952541056504E-08
  2.53230228853687766E-08  2.59640782278173745E-08  2.66213619617828828E-08
  2.72952849108632145E-08  2.79862682987007220E-08  2.86947440122601312E-08
  2.94211548717716814E-08  3.01659549075077766E-08  3.09296096435663201E-08
  3.17125963888381286E-08  3.25154045353397186E-08  3.33385358640991116E-08
  3.41825048587847252E-08  3.50478390272737219E-08  3.59350792313614901E-08
  3.68447800248168207E-08  3.77775099999957104E-08  3.87338521432293675E-08
  3.97144041992090571E-08  4.07197790445954334E-08  4.17506050710852723E-08
  4.28075265781762489E-08  4.38912041758742530E-08  4.50023151975952233E-08
  4.61415541235198772E-08  4.73096330146651747E-08  4.85072819579448169E-08
  4.97352495224962754E-08  5.09943032275598355E-08  5.22852300222019001E-08
  5.36088367771824690E-08  5.49659507892745064E-08  5.63574202983498206E-08
  5.77841150175553833E-08  5.92469266769109961E-08  6.07467695806675588E-08
  6.22845811787757072E-08  6.38613226528207418E-08  6.54779795167905927E-08
  6.71355622330524722E-08  6.88351068439222532E-08  7.05776756192228644E-08
  7.23643577202353013E-08  7.41962698804575104E-08  7.60745571035965688E-08
  7.80003933792313345E-08  7.99749824165904977E-08  8.19995583969078909E-08
  8.40753867448227660E-08  8.62037649193080317E-08  8.83860232246216751E-08
  9.06235256417859740E-08  9.29176706811168806E-08  9.52698922563345078E-08
  9.76816605808017949E-08  1.00154483086452011E-07  1.02689905365977394E-07
  1.05289512138871067E-07  1.07954928241922860E-07  1.10687819644790103E-07
  1.13489894491278135E-07  1.16362904166978997E-07  1.19308644393939147E-07
  1.22328956353037597E-07  1.25425727834777191E-07  1.28600894419208928E-07
  1.31856440685723961E-07  1.35194401453473314E-07  1.38616863053187881E-07
  1.42125964631194222E-07  1.45723899486442809E-07  1.49412916441380189E-07
  1.53195321247527342E-07  1.57073478026638954E-07  1.61049810748344849E-07
  1.65126804745200155E-07  1.69307008266084651E-07  1.73593034068930035E-07
  1.77987561053764769E-07  1.82493335937099962E-07  1.87113174968702466E-07
  1.91849965691825693E-07  1.96706668748002596E-07  2.01686319727526170E-07
  2.06792031066772954E-07  2.12026993993560460E-07  2.17394480521745920E-07
  2.22897845496321902E-07  2.28540528690281020E-07  2.34326056954563033E-07
  2.40258046422428104E-07  2.46340204769630461E-07  2.52576333531810418E-07
  2.58970330480550142E-07  2.65526192059576194E-07  2.72248015882638578E-07
  2.79140003294617072E-07  2.86206461997465251E-07  2.93451808742628266E-07
  3.00880572091616608E-07  3.08497395246467493E-07  3.16307038951851587E-07
  3.24314384470650672E-07  3.32524436634858725E-07  3.40942326973715778E-07
  3.49573316921031583E-07  3.58422801103693878E-07  3.67496310713432859E-07
  3.76799516963934800E-07  3.86338234635471596E-07  3.96118425709264183E-07
  4.06146203093841044E-07  4.16427834445735744E-07  4.26969746086896206E-07
  4.37778527021266400E-07  4.48860933053044863E-07  4.60223891009187191E-07
  4.71874503068809865E-07  4.83820051202182556E-07  4.96068001722091110E-07
  5.08626009950422633E-07  5.21501925002868265E-07  5.34703794694760288E-07
  5.48239870571092479E-07  5.62118613063865601E-07  5.76348696780001331E-07
  5.90939015923098302E-07  6.05898689852447395E-07  6.21237068782767050E-07
  6.36963739628215715E-07  6.53088531994353204E-07  6.69621524321766170E-07
  6.86573050185227351E-07  7.03953704752307496E-07  7.21774351405476198E-07
  7.40046128531847166E-07  7.58780456484777584E-07  7.77989044721715978E-07
  7.97683899122718387E-07  8.17877329494234686E-07  8.38581957262848075E-07
  8.59810723363752737E-07  8.81576896328941433E-07  9.03894080580121172E-07
  9.26776224931557100E-07  9.50237631308159957E-07  9.74292963684245417E-07
  9.98957257248579549E-07  1.02424592780141930E-06  1.05017478138941812E-06
  1.07676002418444147E-06  1.10401827261242657E-06  1.13196656373865198E-06
  1.16062236591589215E-06  1.19000358970210798E-06  1.22012859905449943E-06
  1.25101622280691571E-06  1.28268576643779962E-06  1.31515702413599843E-06
  1.34845029117202676E-06  1.38258637658244784E-06  1.41758661617536222E-06
  1.45347288586508612E-06  1.49026761534436812E-06  1.52799380210270803E-06
  1.56667502579947745E-06  1.60633546300090948E-06  1.64699990229007737E-06
  1.68869375975936709E-06  1.73144309489510895E-06  1.77527462686425338E-06
  1.82021575121334412E-06  1.86629455699014147E-06  1.91353984429864739E-06
  1.96198114229849950E-06  2.01164872765992779E-06  2.06257364348587859E-06
  2.11478771871307530E-06  2.16832358800414461E-06  2.22321471214327452E-06
  2.27949539894809116E-06  2.33720082471085870E-06  2.39636705618237760E-06
  2.45703107311234526E-06  2.51923079136021172E-06  2.58300508659101100E-06
  2.64839381857097744E-06  2.71543785607805364E-06  2.78417910244295309E-06
  2.85466052173668722E-06  2.92692616562085040E-06  3.00102120087757481E-06
  3.07699193763623674E-06  3.15488585831458614E-06  3.23475164729240125E-06
  3.31663922133615520E-06  3.40059976079376440E-06  3.48668574157880160E-06
  3.57495096796429130E-06  3.66545060620646774E-06  3.75824121901948429E-06
  3.85338080092271539E-06  3.95092881448261763E-06  4.05094622747186651E-06
  4.15349555096888994E-06  4.25864087842168056E-06  4.36644792570027467E-06
  4.47698407216281191E-06  4.59031840276094683E-06  4.70652175121085824E-06
  4.82566674425678892E-06  4.94782784705482017E-06  5.07308140970511044E-06
  5.20150571496180534E-06  5.33318102715032032E-06  5.46818964232252211E-06
  5.60661593968117981E-06  5.74854643430574224E-06  5.89406983121246251E-06
  6.04327708078250268E-06  6.19626143559266413E-06  6.35311850868425440E-06
  6.51394633330644281E-06  6.67884542417142331E-06  6.84791884025961629E-06
  7.02127224921402705E-06  7.19901399336414144E-06  7.38125515742036871E-06
  7.56810963788148742E-06  7.75969421419825397E-06  7.95612862173762117E-06
  8.15753562659316329E-06  8.36404110228835638E-06  8.57577410842061772E-06
  8.79286697129514594E-06  9.01545536659884001E-06  9.24367840416596776E-06
  9.47767871488844903E-06  9.71760253982492786E-06  9.96359982156438216E-06
  1.02158242979010017E-05  1.04744335978790862E-05  1.07395893402676255E-05
  1.10114572345260863E-05  1.12902071843245235E-05  1.15760133936822871E-05
  1.18690544757917934E-05  1.21695135645951455E-05  1.24775784291829974E-05
  1.27934415910873875E-05  1.31173004445412804E-05  1.34493573797800945E-05
  1.37898199094620063E-05  1.41389007982856669E-05  1.44968181958865088E-05
  1.48637957730940195E-05  1.52400628616353389E-05  1.56258545973720593E-05
  1.60214120671593839E-05  1.64269824594195520E-05  1.68428192185228243E-05
  1.72691822030726438E-05  1.77063378481935702E-05  1.81545593319226253E-05
  1.86141267458084440E-05  1.90853272698237334E-05  1.95684553517006608E-05
  2.00638128908004089E-05  2.05717094266314741E-05  2.10924623321343151E-05
  2.16263970118523002E-05  2.21738471051127802E-05  2.27351546943444127E-05
  2.33106705186604912E-05  2.39007541928413254E-05  2.45057744318516952E-05
  2.51261092810334341E-05  2.57621463521160425E-05  2.64142830651921371E-05
  2.70829268968086137E-05  2.77684956343272734E-05  2.84714176367134803E-05
  2.91921321019150911E-05  2.99310893409971944E-05  3.06887510592040143E-05
  3.14655906441218663E-05  3.22620934611225866E-05  3.30787571562712174E-05
  3.39160919668853725E-05  3.47746210399402477E-05  3.56548807585158376E-05
  3.65574210764901388E-05  3.74828058616853704E-05  3.84316132476804725E-05
  3.94044359945084518E-05  4.04018818584618119E-05  4.14245739712360676E-05
  4.24731512286462691E-05  4.35482686891574004E-05  4.46505979824762675E-05
  4.57808277284573413E-05  4.69396639665832581E-05  4.81278305962851120E-05
  4.93460698283756442E-05  5.05951426478754447E-05  5.18758292885176042E-05
  5.31889297192257257E-05  5.45352641428660870E-05  5.59156735075812920E-05
  5.73310200310242539E-05  5.87821877378140581E-05  6.02700830105475500E-05
  6.17956351547071771E-05  6.33597969778131997E-05  6.49635453831790151E-05
  6.66078819786357628E-05  6.82938337006019946E-05  7.00224534538840081E-05
  7.17948207676007458E-05  7.36120424676387798E-05  7.54752533660511262E-05
  7.73856169678253312E-05  7.93443261954561625E-05  8.13526041317686079E-05
  8.34117047814495686E-05  8.55229138517559179E-05  8.76875495528794697E-05
  8.99069634184614932E-05  9.21825411467599906E-05  9.45157034629882313E-05
  9.69079070033518721E-05  9.93606452213299888E-05  1.01875449316753098E-04
  1.04453889188250968E-04  1.07097574409651484E-04  1.09808155230930435E-04
  1.12587323604323986E-04  1.15436814236232892E-04  1.18358405665561263E-04
  1.21353921369148947E-04  1.24425230894973390E-04  1.27574251023812910E-04
  1.30802946960080024E-04  1.34113333552551215E-04  1.37507476545737424E-04
  1.40987493862657174E-04  1.44555556919793689E-04  1.48213891975034265E-04
  1.51964781509414458E-04  1.55810565643502700E-04  1.59753643589287739E-04
  1.63796475138448268E-04  1.67941582187906401E-04  1.72191550303591031E-04
  1.76549030323353928E-04  1.81016740000010070E-04  1.85597465685493875E-04
  1.90294064057147720E-04  1.95109463887183608E-04  2.00046667856384320E-04
  2.05108754413133623E-04  2.10298879678897689E-04  2.15620279401295366E-04
  2.21076270955936218E-04  2.26670255398221286E-04  2.32405719566336374E-04
  2.38286238236696092E-04  2.44315476333124956E-04  2.50497191191095207E-04
  2.56835234878368833E-04  2.63333556573425024E-04  2.69996205003088772E-04
  2.76827330940803947E-04  2.83831189767036354E-04  2.91012144093317408E-04
  2.98374666451483640E-04  3.05923342049696826E-04  3.13662871596868606E-04
  3.21598074197155669E-04  3.29733890316219209E-04  3.38075384820994641E-04
  3.46627750094746854E-04  3.55396309229235382E-04  3.64386519295848744E-04
  3.73603974697616097E-04  3.83054410604040808E-04  3.92743706470753077E-04
  4.02677889646016192E-04  4.12863139066172065E-04  4.23305789042155900E-04
  4.34012333139258643E-04  4.44989428152364492E-04  4.56243898178942139E-04
  4.67782738792111446E-04  4.79613121316173406E-04  4.91742397207023440E-04
  5.04178102539942015E-04  5.16927962607293279E-04  5.29999896628732055E-04
  5.43402022576562377E-04  5.57142662118956288E-04  5.71230345683801074E-04
  5.85673817645990832E-04  6.00482041641049930E-04  6.15664206008031197E-04
  6.31229729364691117E-04  6.47188266318014229E-04  6.63549713313209646E-04
  6.80324214624384400E-04  6.97522168490144370E-04  7.15154233397452478E-04
  7.33231334517138911E-04  7.51764670294517191E-04  7.70765719198639740E-04
  7.90246246633788895E-04  8.10218312016866039E-04  8.30694276024425199E-04
  8.51686808013146996E-04  8.73208893617647970E-04  8.95273842529564160E-04
  9.17895296461941320E-04  9.41087237303030698E-04  9.64863995463656325E-04
  9.89240258422409511E-04  1.01423107947297983E-03  1.03985188667802186E-03
  1.06611849203403484E-03  1.09304710085178242E-03  1.12065432135688404E-03
  1.14895717451526892E-03  1.17797310408824856E-03  1.20771998692206697E-03
  1.23821614347682340E-03  1.26948034859976442E-03  1.30153184254800411E-03
  1.33439034226579185E-03  1.36807605292153930E-03  1.40260967970986020E-03
  1.43801243992397140E-03  1.47430607530384073E-03  1.51151286466555835E-03
  1.54965563681744366E-03  1.58875778376848468E-03  1.62884327423474086E-03
  1.66993666744940858E-03  1.71206312728230036E-03  1.75524843667451171E-03
  1.79951901239414308E-03  1.84490192011892498E-03  1.89142488985167266E-03
  1.93911633167451365E-03  1.98800535184784355E-03  2.03812176926002455E-03
  2.08949613223378267E-03  2.14215973569536816E-03  2.19614463871243811E-03
  2.25148368240669179E-03  2.30821050824724051E-03  2.36635957673067034E-03
  2.42596618645371303E-03  2.48706649358443549E-03  2.54969753173776240E-03
  2.61389723226109361E-03  2.67970444493571477E-03  2.74715895909958922E-03
  2.81630152519702541E-03  2.88717387676059494E-03  2.95981875283052786E-03
  3.03427992081668372E-03  3.11060219980800485E-03  3.18883148433417567E-03
  3.26901476858400654E-03  3.35120017108484630E-03  3.43543695984702569E-03
  3.52177557797711451E-03  3.61026766976342995E-03  3.70096610723694283E-03
  3.79392501721031745E-03  3.88919980879749543E-03  3.98684720141575556E-03
  4.08692525327177675E-03  4.18949339033269138E-03  4.29461243578263194E-03
  4.40234463996470610E-03  4.51275371080764407E-03  4.62590484473585431E-03
  4.74186475806076882E-03  4.86070171885071532E-03  4.98248557927569169E-03
  5.10728780842258871E-03  5.23518152557547311E-03  5.36624153395452805E-03
  5.50054435490634520E-03  5.63816826253696075E-03  5.77919331877799723E-03
  5.92370140887490525E-03  6.07177627728500841E-03  6.22350356397168188E-03
  6.37897084107936791E-03  6.53826764997268457E-03  6.70148553862100378E-03
  6.86871809930828404E-03  7.04006100664581521E-03  7.21561205586370921E-03
  7.39547120135474259E-03  7.57974059544182580E-03  7.76852462733820196E-03
  7.96192996226671376E-03  8.16006558070192164E-03  8.36304281769614105E-03
  8.57097540224723183E-03  8.78397949666315410E-03  9.00217373587473141E-03
  9.22567926664475194E-03  9.45461978661778918E-03  9.68912158315129307E-03
  9.92931357186435139E-03  1.01753273348364343E-02  1.04272971583836277E-02
  1.06853600703354194E-02  1.09496558767299551E-02  1.12203271978404164E-02
  1.14975195034397945E-02  1.17813811472053335E-02  1.20720634001584524E-02
  1.23697204830288763E-02  1.26745095974251862E-02  1.29865909556873948E-02
  1.33061278092893188E-02  1.36332864756513166E-02  1.39682363632154978E-02
  1.43111499946273688E-02  1.46622030278589135E-02  1.50215742750989881E-02
  1.53894457192271898E-02  1.57660025276772642E-02  1.61514330634858067E-02
  1.65459288933106387E-02  1.69496847921921379E-02  1.73628987448186216E-02
  1.77857719430445475E-02  1.82185087793969268E-02  1.86613168362924596E-02
  1.91144068706730307E-02  1.95779927937530969E-02  2.00522916455567607E-02
  2.05375235639070411E-02  2.10339117475125230E-02  2.15416824127801845E-02
  2.20610647439651031E-02  2.25922908362491057E-02  2.31355956313215663E-02
  2.36912168450151110E-02  2.42593948865310743E-02  2.48403727687646174E-02
  2.54343960092198208E-02  2.60417125209816760E-02  2.66625724931890302E-02
  2.72972282604283557E-02  2.79459341604434489E-02  2.86089463795306705E-02
  2.92865227849633189E-02  2.99789227437616893E-02  3.06864069270983038E-02
  3.14092370995990577E-02  3.21476758927729117E-02  3.29019865617728169E-02
  3.36724327246610833E-02  3.44592780833217482E-02  3.52627861251316593E-02
  3.60832198044707259E-02  3.69208412031201971E-02  3.77759111685656429E-02
  3.86486889291896216E-02  3.95394316853065267E-02  4.04483941749600798E-02
  4.13758282133718722E-02  4.23219822048974612E-02  4.32871006263154667E-02
  4.42714234802430370E-02  4.52751857174424344E-02  4.62986166267580282E-02
  4.73419391913867532E-02  4.84053694101634277E-02  4.94891155825174858E-02
  5.05933775557343909E-02  5.17183459331338954E-02  5.28642012417595980E-02
  5.40311130581586502E-02  5.52192390908196329E-02  5.64287242178270754E-02
  5.76596994782886396E-02  5.89122810160913196E-02  6.01865689745491733E-02
  6.14826463405171927E-02  6.28005777365649720E-02  6.41404081598283132E-02
  6.55021616661919243E-02  6.68858399984972457E-02  6.82914211575219726E-02
  6.97188579145393283E-02  7.11680762643385340E-02  7.26389738176734107E-02
  7.41314181322048349E-02  7.56452449811164107E-02  7.71802565587112188E-02
  7.87362196224431765E-02  8.03128635710027433E-02  8.19098784582592276E-02
  8.35269129430642604E-02  8.51635721751515112E-02  8.68194156176199522E-02
  8.84939548067654874E-02  9.01866510503312735E-02  9.18969130655841321E-02
  9.36240945589896234E-02  9.53674917496619423E-02  9.71263408391998123E-02
  9.88998154309946864E-02  1.00687023902613471E-01  1.02487006735413499E-01
  1.04298733806151359E-01  1.06121101645993809E-01  1.07952930673039918E-01
  1.09792962405211414E-01  1.11639856661173681E-01  1.13492188757809032E-01
  1.15348446713685063E-01  1.17207028468938323E-01  1.19066239133039223E-01
  1.20924288273009259E-01  1.22779287255839448E-01  1.24629246660103499E-01
  1.26472073773103655E-01  1.28305570191145857E-01  1.30127429542128525E-01
  1.31935235351135466E-01  1.33726459071279002E-01  1.35498458303728170E-01
  1.37248475232589567E-01  1.38973635302116177E-01  1.40670946165584648E-01
  1.42337296937111724E-01  1.43969457779663079E-01  1.45564079864538676E-01
  1.47117695739693882E-01  1.48626720146362357E-01  1.50087451325570748E-01
  1.51496072858281178E-01  1.52848656085022905E-01  1.54141163152996308E-01
  1.55369450740702963E-01  1.56529274512171079E-01  1.57616294354781111E-01
  1.58626080456513996E-01  1.59554120280130718E-01  1.60395826493301086E-01
  1.61146545915000217E-01  1.61801569539582801E-01  1.62356143700883138E-01
  1.62805482438257432E-01  1.63144781127483818E-01  1.63369231438822149E-01
  1.63474037683311063E-01  1.63454434606977811E-01  1.63305706690466373E-01
  1.63023209008683612E-01  1.62602389701350686E-01  1.62038814100734563E-01
  1.61328190557234824E-01  1.60466397996818250E-01  1.59449515236420369E-01
  1.58273852074282212E-01  1.56935982161630128E-01  1.55432777650055254E-01
  1.53761445595268886E-01  1.51919566082512836E-01  1.49905132021660309E-01
  1.47716590540857895E-01  1.45352885886321531E-01  1.42813503712513556E-01
  1.40098516621306457E-01  1.37208630780802227E-01  1.34145233424162819E-01
  1.30910440996278854E-01  1.27507147680819249E-01  1.23939074000989746E-01
  1.20210815150392974E-01  1.16327888666189302E-01  1.12296781012263633E-01
  1.08124992593644040E-01  1.03821080674963720E-01  9.93946996257372845E-02
  9.48566378640037788E-02  9.02188508178956017E-02  8.54944891724362527E-02
  8.06979216169648739E-02  7.58447512577493932E-02  7.09518248113829297E-02
  6.60372336484473937E-02  6.11203057146865181E-02  5.62215873198244481E-02
  5.13628137534852050E-02  4.65668676649399205E-02  4.18577241302550002E-02
  3.72603813286118205E-02  3.28007757610698641E-02  2.85056809718988134E-02
  2.44025887770201524E-02  2.05195720683198808E-02  1.68851283469312122E-02
  1.35280032557145401E-02  1.04769935186193649E-02  7.76072885590923297E-03
  5.40743264634112233E-03  3.44466125609749381E-03  1.89902083860994360E-03
  7.95838646016648371E-04  1.58421766308847466E-04 -2.97289396426052411E-06
 -2.13190682943663132E-07 -1.50661534428820322E-08 -1.04944396691349916E-09
 -7.20279355026181651E-11 -4.86704599628042088E-12 -3.23316833854980286E-13
 -2.10680801710650054E-14 -1.34217076489392319E-15 -8.31731355488666579E-17
 -4.97391654642835986E-18 -2.83232497781316317E-19 -1.49766839283375453E-20
 -6.94973397345218304E-22 -2.35518516188168210E-23  8.20979824577571420E-26
  1.21648764715791406E-25  1.61784568945365543E-26  1.63420495225345487E-27
  1.46863131694422404E-28  1.23523499631796795E-29  9.94594598292038517E-31
  7.75892214275490053E-32  5.90541209362277567E-33  4.40420627947562917E-34
  3.22730023894773766E-35  2.32756646989460977E-36  0.00000000000000000E+00
  0.00000000000000000E+00  0.00000000000000000E+00  0.00000000000000000E+00
  0.00000000000000000E+00  0.00000000000000000E+00  0.00000000000000000E+00
  0.00000000000000000E+00  0.00000000000000000E+00  0.00000000000000000E+00
  0.00000000000000000E+00  0.00000000000000000E+00  0.00000000000000000E+00
  0.00000000000000000E+00  0.00000000000000000E+00  0.00000000000000000E+00
  0.00000000000000000E+00  0.00000000000000000E+00  0.00000000000000000E+00
  0.00000000000000000E+00  0.00000000000000000E+00  0.00000000000000000E+00
  0.00000000000000000E+00  0.00000000000000000E+00  0.00000000000000000E+00
  0.00000000000000000E+00  0.00000000000000000E+00  0.00000000000000000E+00
  0.00000000000000000E+00  0.00000000000000000E+00  0.00000000000000000E+00
  0.00000000000000000E+00  0.00000000000000000E+00  0.00000000000000000E+00
  0.00000000000000000E+00  0.00000000000000000E+00  0.00000000000000000E+00
  0.00000000000000000E+00  0.00000000000000000E+00  0.00000000000000000E+00
  0.00000000000000000E+00  0.00000000000000000E+00  0.00000000000000000E+00
  0.00000000000000000E+00  0.00000000000000000E+00  0.00000000000000000E+00
  0.00000000000000000E+00  0.00000000000000000E+00  0.00000000000000000E+00
  0.00000000000000000E+00  0.00000000000000000E+00  0.00000000000000000E+00
  0.00000000000000000E+00  0.00000000000000000E+00  0.00000000000000000E+00
  0.00000000000000000E+00  0.00000000000000000E+00  0.00000000000000000E+00
  0.00000000000000000E+00  0.00000000000000000E+00  0.00000000000000000E+00
  0.00000000000000000E+00  0.00000000000000000E+00  0.00000000000000000E+00
  0.00000000000000000E+00  0.00000000000000000E+00  0.00000000000000000E+00
  0.00000000000000000E+00  0.00000000000000000E+00  0.00000000000000000E+00
  0.00000000000000000E+00  0.00000000000000000E+00  0.00000000000000000E+00
  0.00000000000000000E+00  0.00000000000000000E+00  0.00000000000000000E+00
  0.00000000000000000E+00  0.00000000000000000E+00  0.00000000000000000E+00
  0.00000000000000000E+00  0.00000000000000000E+00  0.00000000000000000E+00
  0.00000000000000000E+00  0.00000000000000000E+00  0.00000000000000000E+00
  0.00000000000000000E+00  0.00000000000000000E+00  0.00000000000000000E+00
  0.00000000000000000E+00  0.00000000000000000E+00  0.00000000000000000E+00
  0.00000000000000000E+00  0.00000000000000000E+00  0.00000000000000000E+00
  0.00000000000000000E+00  0.00000000000000000E+00  0.00000000000000000E+00
  0.00000000000000000E+00  0.00000000000000000E+00  0.00000000000000000E+00
  0.00000000000000000E+00  0.00000000000000000E+00  0.00000000000000000E+00
  0.00000000000000000E+00  0.00000000000000000E+00  0.00000000000000000E+00
  0.00000000000000000E+00  0.00000000000000000E+00  0.00000000000000000E+00
  0.00000000000000000E+00  0.00000000000000000E+00  0.00000000000000000E+00
  0.00000000000000000E+00  0.00000000000000000E+00  0.00000000000000000E+00
  0.00000000000000000E+00  0.00000000000000000E+00  0.00000000000000000E+00
  0.00000000000000000E+00  0.00000000000000000E+00  0.00000000000000000E+00
  0.00000000000000000E+00  0.00000000000000000E+00  0.00000000000000000E+00
  0.00000000000000000E+00  0.00000000000000000E+00  0.00000000000000000E+00
  0.00000000000000000E+00  0.00000000000000000E+00  0.00000000000000000E+00
  0.00000000000000000E+00  0.00000000000000000E+00  0.00000000000000000E+00
  0.00000000000000000E+00  0.00000000000000000E+00  0.00000000000000000E+00
  0.00000000000000000E+00  0.00000000000000000E+00  0.00000000000000000E+00
  0.00000000000000000E+00  0.00000000000000000E+00  0.00000000000000000E+00
  0.00000000000000000E+00  0.00000000000000000E+00  0.00000000000000000E+00
  0.00000000000000000E+00  0.00000000000000000E+00  0.00000000000000000E+00
  0.00000000000000000E+00  0.00000000000000000E+00  0.00000000000000000E+00
  0.00000000000000000E+00  0.00000000000000000E+00  0.00000000000000000E+00
  0.00000000000000000E+00  0.00000000000000000E+00  0.00000000000000000E+00
  0.00000000000000000E+00  0.00000000000000000E+00  0.00000000000000000E+00
  0.00000000000000000E+00  0.00000000000000000E+00  0.00000000000000000E+00
                       </PP_QIJL.3.4.0>
 <PP_QIJL.3.4.2 type="real" size="   999" columns="3" first_index=" 3" second_index=" 4" composite_index=" 9" angular_momentum="2">
  3.98442942682694747E-17  4.18871645722199844E-17  4.40347627626542859E-17
  4.62924653021016694E-17  4.86659355058600960E-17  5.11611000971934086E-17
  5.37841773962553572E-17  5.65417472752490377E-17  5.94407144748938312E-17
  6.24883057297092083E-17  6.56921399655330625E-17  6.90602530220676771E-17
  7.26010566685137040E-17  7.63233819575905524E-17  8.02365647309201743E-17
  8.43503931587269056E-17  8.86751229197132808E-17  9.32215886131472506E-17
  9.80011736377738133E-17  1.03025797240329645E-16  1.08308035197783736E-16
  1.13861118709108198E-16  1.19698900496729420E-16  1.25835985899535623E-16
  1.32287747280360231E-16  1.39070281267672588E-16  1.46200559606717993E-16
  1.53696436414989655E-16  1.61576613373137650E-16  1.69860819683385956E-16
  1.78569784413314210E-16  1.87725239920591476E-16  1.97350122104032743E-16
  2.07468488351929149E-16  2.18105610878868169E-16  2.29288137188644652E-16
  2.41043987462289678E-16  2.53402570888506577E-16  2.66394814007244826E-16
  2.80053152209621740E-16  2.94411794338111689E-16  3.09506608961761569E-16
  3.25375344535693948E-16  3.42057711175519203E-16  3.59595367666755445E-16
  3.78032230892711973E-16  3.97414349123174338E-16  4.17790219576021076E-16
  4.39210789474234163E-16  4.61729595682624795E-16  4.85402996259028032E-16
  5.10290120932562601E-16  5.36453273513100014E-16  5.63957804457182246E-16
  5.92872552093741605E-16  6.23269768778242513E-16  6.55225498227112839E-16
  6.88819626497799933E-16  7.24136162279489780E-16  7.61263421719768783E-16
  8.00294225527854208E-16  8.41326195893072291E-16  8.84461903354528578E-16
  9.29809244016572424E-16  9.77481574095984308E-16  1.02759813403533406E-15
  1.08028420999478139E-15  1.13567156984943237E-15  1.19389869465715846E-15
  1.25511118672052849E-15  1.31946212017979655E-15  1.38711237707362437E-15
  1.45823116675695477E-15  1.53299625483563072E-15  1.61159467820145765E-15
  1.69422287762053304E-15  1.78108756178590256E-15  1.87240585836277199E-15
  1.96840616096232064E-15  2.06932851152699324E-15  2.17542523149687146E-15
  2.28696169390309767E-15  2.40421669966626495E-15  2.52748353601290091E-15
  2.65707038990363426E-15  2.79330127988064378E-15  2.93651692490617683E-15
  3.08707534125437691E-15  3.24535307696107114E-15  3.41174590503449868E-15
  3.58666982452425652E-15  3.77056233084868087E-15  3.96388319953495412E-15
  4.16711580482996944E-15  4.38076841772735314E-15  4.60537521491480537E-15
  4.84149781823263907E-15  5.08972673425601243E-15  5.35068260512547693E-15
  5.62501793033678643E-15  5.91341877160635271E-15  6.21660624874461202E-15
  6.53533842565528910E-15  6.87041237603939042E-15  7.22266597046820099E-15
  7.59297995124407209E-15  7.98228031615077446E-15  8.39154057750099571E-15
  8.82178407566121887E-15  9.27408657731809441E-15  9.74957912086313484E-15
  1.02494507257574161E-14  1.07749513089557007E-14  1.13273948360530744E-14
  1.19081627325591241E-14  1.25187072645984824E-14  1.31605551096659288E-14
  1.38353111809818393E-14  1.45446626905024589E-14  1.52903834294331016E-14
  1.60743381130388700E-14  1.68984870329656172E-14  1.77648909645331936E-14
  1.86757163348676397E-14  1.96332407000524318E-14  2.06398583970336759E-14
  2.16980865041747550E-14  2.28105711390530837E-14  2.39800940787347724E-14
  2.52095797189826887E-14  2.65021024025956845E-14  2.78608941257335837E-14
  2.92893525881513318E-14  3.07910496855433896E-14  3.23697404431241870E-14
  3.40293724068531129E-14  3.57740955157885963E-14  3.76082724802662804E-14
  3.95364896918598063E-14  4.15635686924081664E-14  4.36945782315403160E-14
  4.59348469445315968E-14  4.82899766720391435E-14  5.07658564654224082E-14
  5.33686773128935013E-14  5.61049476205603037E-14  5.89815094870880142E-14
  6.20055558126941391E-14  6.51846482852708741E-14  6.85267362886241808E-14
  7.20401767801205991E-14  7.57337551874485685E-14  7.96167073767519524E-14
  8.36987427470566148E-14  8.79900685087234348E-14  9.25014152066120880E-14
  9.72440635517324644E-14  1.02229872628429273E-13  1.07471309547555870E-13
  1.12981480619695364E-13  1.18774164126964187E-13  1.24863844783932051E-13
  1.31265749959294399E-13  1.37995887748210165E-13  1.45071087000245841E-13
  1.52509039398963463E-13  1.60328343698001079E-13  1.68548552223952443E-13
  1.77190219761942389E-13  1.86274954945700718E-13  1.95825474281056554E-13
  2.05865658998078679E-13  2.16420614819938065E-13  2.27516734667278905E-13
  2.39181764633776614E-13  2.51444873347517374E-13  2.64336724883543623E-13
  2.77889555432236278E-13  2.92137254130616845E-13  3.07115447753082467E-13
  3.22861589628256156E-13  3.39415053243299251E-13  3.56817230645840847E-13
  3.75111636221605480E-13  3.94344015714554933E-13  4.14562460173264893E-13
  4.35817526078129197E-13  4.58162361762502436E-13  4.81652841072058604E-13
  5.06347702697642514E-13  5.32308696529040833E-13  5.59600738009920174E-13
  5.88292071560205063E-13  6.18454440824400504E-13  6.50163267154717865E-13
  6.83497838415394022E-13  7.18541508868198443E-13  7.55381906147436317E-13
  7.94111149582421610E-13  8.34826082322649638E-13  8.77628513576697460E-13
  9.22625470994705334E-13  9.69929469705870594E-13  1.01965879529524733E-12
  1.07193779629385656E-12  1.12689719643682417E-12  1.18467442400040067E-12
  1.24541395117877508E-12  1.30926765753118099E-12  1.37639521184469639E-12
  1.44696446626378051E-12  1.52115188060834969E-12  1.59914296286227106E-12
  1.68113272887363419E-12  1.76732619720598213E-12  1.85793889535559718E-12
  1.95319740083695079E-12  2.05333991114753240E-12  2.15861683144634749E-12
  2.26929141062271312E-12  2.38564039084872736E-12  2.50795470431519882E-12
  2.63654020129613679E-12  2.77171840892164628E-12  2.91382734571185733E-12
  3.06322235330976742E-12  3.22027699957758654E-12  3.38538399878407656E-12
  3.55895620553042319E-12  3.74142763791258177E-12  3.93325456888088562E-12
  4.13491666415187202E-12  4.34691818174123157E-12  4.56978923524327602E-12
  4.80408711495078826E-12  5.05039768732080498E-12  5.30933685301293013E-12
  5.58155209420898949E-12  5.86772408673570602E-12  6.16856840787226549E-12
  6.48483732187523530E-12  6.81732166182135326E-12  7.16685281026887569E-12
  7.53430476994206343E-12  7.92059636319649245E-12  8.32669350919667113E-12
  8.75361166556047380E-12  9.20241833651259528E-12  9.67423577504872991E-12
  1.01702437585374044E-11  1.06916825621273848E-11  1.12398560484836106E-11
  1.18161349243302035E-11  1.24219601877761832E-11  1.30588466986249313E-11
  1.37283870047273922E-11  1.44322552914165732E-11  1.51722115832047970E-11
  1.59501061530050716E-11  1.67678841181651583E-11  1.76275903462938542E-11
  1.85313745335555135E-11  1.94814965893415401E-11  2.04803323090516997E-11
  2.15303792728874314E-11  2.26342631293202528E-11  2.37947441494256713E-11
  2.50147241032328119E-11  2.62972535625143073E-11  2.76455394948057806E-11
  2.90629532746530597E-11  3.05530391586428665E-11  3.21195231037387342E-11
  3.37663220861789847E-11  3.54975539388300489E-11  3.73175476007813041E-11
  3.92308539439894795E-11  4.12422571991349197E-11  4.33567868724311067E-11
  4.55797303154021437E-11  4.79166459977535620E-11  5.03733773695190480E-11
  5.29560674509064351E-11  5.56711742403239168E-11  5.85254868545139644E-11
  6.15261424638981667E-11  6.46806441621769146E-11  6.79968797661899098E-11
  7.14831414863514059E-11  7.51481466534131362E-11  7.90010595672198562E-11
  8.30515143992439653E-11  8.73096392420976434E-11  9.17860814438665190E-11
  9.64920342877157693E-11  1.01439264936949589E-10  1.06640143834038978E-10
  1.12107675648460884E-10  1.17855531847925765E-10  1.23898084831727946E-10
  1.30250443849247846E-10  1.36928492791613883E-10  1.43948929967066289E-10
  1.51329309807433735E-10  1.59088086737833536E-10  1.67244661322126676E-10
  1.75819428828854541E-10  1.84833830215788749E-10  1.94310405697245809E-10
  2.04272851100140637E-10  2.14746077133181312E-10  2.25756271729391169E-10
  2.37330965470128105E-10  2.49499100404581730E-10  2.62291102413744171E-10
  2.75738957318083368E-10  2.89876290897977297E-10  3.04738452910119516E-10
  3.20362605463358963E-10  3.36787815935250486E-10  3.54055154673667417E-10
  3.72207797748501714E-10  3.91291134850699990E-10  4.11352882762352842E-10
  4.32443204662956849E-10  4.54614835553988422E-10  4.77923214165661061E-10
  5.02426621585845885E-10  5.28186326924596458E-10  5.55266740501285246E-10
  5.83735574888723557E-10  6.13664014214915463E-10  6.45126892194790399E-10
  6.78202879257039198E-10  7.12974679183414984E-10  7.49529235886006699E-10
  7.87957950789728567E-10  8.28356911359234772E-10  8.70827131352399269E-10
  9.15474803451742933E-10  9.62411564735398810E-10  1.01175477576232843E-09
  1.06362781400049064E-09  1.11816038229796816E-09  1.17548883316807879E-09
  1.23575650970164200E-09  1.29911410401330491E-09  1.36572003400974566E-09
  1.43574083940901550E-09  1.50935159811735601E-09  1.58673636395423886E-09
  1.66808862681719871E-09  1.75361179643676489E-09  1.84351971093116426E-09
  1.93803717147483829E-09  2.03740050436966117E-09  2.14185815182564191E-09
  2.25167129308659395E-09  2.36711449740458837E-09  2.48847641048795840E-09
  2.61606047613857762E-09  2.75018569488229545E-09  2.89118742148864914E-09
  3.03941820338724265E-09  3.19524866212016848E-09  3.35906841985904145E-09
  3.53128707343599338E-09  3.71233521833489807E-09  3.90266552517350770E-09
  4.10275387136711469E-09  4.31310053080187758E-09  4.53423142449125663E-09
  4.76669943534125021E-09  5.01108579031007979E-09  5.26800151342465172E-09
  5.53808895333641638E-09  5.82202338908122664E-09  6.12051471813887539E-09
  6.43430923105860048E-09  6.76419147704885983E-09  7.11098622519265626E-09
  7.47556052618953157E-09  7.85882587977615055E-09  8.26174051324133003E-09
  8.68531177672930484E-09  9.13059866131604695E-09  9.59871444615085854E-09
  1.00908294812773486E-08  1.06081741130977489E-08  1.11520417598292685E-08
  1.17237921444876721E-08  1.23248546935857598E-08  1.29567321100523873E-08
  1.36210041292721911E-08  1.43193314676301269E-08  1.50534599734244143E-08
  1.58252249905181709E-08  1.66365559456303872E-08  1.74894811707248868E-08
  1.83861329725446870E-08  1.93287529619537132E-08  2.03196976563985892E-08
  2.13614443694839419E-08  2.24565974023714949E-08  2.36078945524670371E-08
  2.48182139556510883E-08  2.60905812791414719E-08  2.74281772829559148E-08
  2.88343457688921225E-08  3.03126019367789104E-08  3.18666411689125225E-08
  3.35003482646516731E-08  3.52178071482038190E-08  3.70233110738414636E-08
  3.89213733540295349E-08  4.09167386372485330E-08  4.30143947636700661E-08
  4.52195852282831687E-08  4.75378222825836723E-08  4.99749007075342809E-08
  5.25369122921737194E-08  5.52302610540168389E-08  5.80616792392341602E-08
  6.10382441425470609E-08  6.41673957888153520E-08  6.74569555204455263E-08
  7.09151455370039132E-08  7.45506094357942044E-08  7.83724338046540403E-08
  8.23901709208457341E-08  8.66138626126765327E-08  9.10540653433786734E-08
  9.57218765798259240E-08  1.00628962511866154E-07  1.05787587191411822E-07
  1.11210643163969794E-07  1.16911683669008125E-07  1.22904956489464395E-07
  1.29205439534811179E-07  1.35828878246404530E-07  1.42791824918385781E-07
  1.50111680032171891E-07  1.57806735707582310E-07  1.65896221378924212E-07
  1.74400351809885685E-07  1.83340377566918057E-07  1.92738638076897171E-07
  2.02618617401289915E-07  2.13005002865806322E-07  2.23923746691608800E-07
  2.35402130781639199E-07  2.47468834823459634E-07  2.60154007878235034E-07
  2.73489343634174357E-07  2.87508159511838403E-07  3.02245479818300062E-07
  3.17738123157209109E-07  3.34024794312376800E-07  3.51146180833619205E-07
  3.69145054565265106E-07  3.88066378370013423E-07  4.07957418313730640E-07
  4.28867861590312744E-07  4.50849940480013715E-07  4.73958562649578677E-07
  4.98251448118280015E-07  5.23789273230475776E-07  5.50635821992680998E-07
  5.78858145151419081E-07  6.08526727407281971E-07  6.39715663180814169E-07
  6.72502841367008102E-07  7.06970139537474233E-07  7.43203628072738282E-07
  7.81293784731709668E-07  8.21335720191186407E-07  8.63429415115434013E-07
  9.07679969344361753E-07  9.54197863818836370E-07  1.00309923589312409E-06
  1.05450616871756879E-06  1.10854699540937607E-06  1.16535661876590610E-06
  1.22507684731324581E-06  1.28785674852319616E-06  1.35385302007412821E-06
  1.42323038007573647E-06  1.49616197722443345E-06  1.57282982190532625E-06
  1.65342523930829955E-06  1.73814934567992128E-06  1.82721354888995832E-06
  1.92084007455109297E-06  2.01926251899330502E-06  2.12272643046046741E-06
  2.23148991996605347E-06  2.34582430331778624E-06  2.46601477589757593E-06
  2.59236112186358212E-06  2.72517845952566025E-06  2.86479802473419684E-06
  3.01156799421559979E-06  3.16585435088548596E-06  3.32804179327356415E-06
  3.49853469130207333E-06  3.67775809077312210E-06  3.86615876903937621E-06
  4.06420634445756140E-06  4.27239444235573511E-06  4.49124192038308071E-06
  4.72129415625593480E-06  4.96312440106586345E-06  5.21733520147526352E-06
  5.48455989429379292E-06  5.76546417710487461E-06  6.06074775879654054E-06
  6.37114609404501768E-06  6.69743220600308634E-06  7.04041860165937237E-06
  7.40095928455936453E-06  7.77995186981448385E-06  8.17833980657350133E-06
  8.59711471338986866E-06  9.03731883219173732E-06  9.50004760684737747E-06
  9.98645239261918204E-06  1.04977433031148792E-05  1.10351922016752502E-05
  1.16001358444851094E-05  1.21939791830584902E-05  1.28181988341315054E-05
  1.34743467253973896E-05  1.41640539259393418E-05  1.48890346706581436E-05
  1.56510905884551194E-05  1.64521151444168938E-05  1.72940983067580019E-05
  1.81791314498128028E-05  1.91094125049282659E-05  2.00872513716978838E-05
  2.11150756025940876E-05  2.21954363747027707E-05  2.33310147629427713E-05
  2.45246283298633396E-05  2.57792380478605695E-05  2.70979555704388621E-05
  2.84840508699436948E-05  2.99409602600711435E-05  3.14722948223604331E-05
  3.30818492568089170E-05  3.47736111777424968E-05  3.65517708771091586E-05
  3.84207315784501713E-05  4.03851202059399357E-05  4.24497986940771768E-05
  4.46198758648581808E-05  4.69007199005693886E-05  4.92979714417055798E-05
  5.18175573409530475E-05  5.44657051056775344E-05  5.72489580629276687E-05
  6.01741912826085916E-05  6.32486282962024473E-05  6.64798586502115049E-05
  6.98758563353860422E-05  7.34449991347691791E-05  7.71960889356542487E-05
  8.11383730527057595E-05  8.52815666117529177E-05  8.96358760461208503E-05
  9.42120237598321672E-05  9.90212740145870481E-05  1.04075460100125502E-04
  1.09387012850388669E-04  1.14968990570834628E-04  1.20835110445339266E-04
  1.26999781494315802E-04  1.33478139159037184E-04  1.40286081590640296E-04
  1.47440307725940173E-04  1.54958357235987824E-04  1.62858652437328818E-04
  1.71160542259927778E-04  1.79884348370067305E-04  1.89051413551219856E-04
  1.98684152450396623E-04  2.08806104802410775E-04  2.19441991249587093E-04
  2.30617771879743408E-04  2.42360707610792203E-04  2.54699424556041631E-04
  2.67663981510252104E-04  2.81285940702704251E-04  2.95598441969992882E-04
  3.10636280507960323E-04  3.26435988369140953E-04  3.43035919879327493E-04
  3.60476341154356320E-04  3.78799523905993217E-04  3.98049843733868888E-04
  4.18273883108760962E-04  4.39520539261179270E-04  4.61841137198160925E-04
  4.85289548080455012E-04  5.09922313201844886E-04  5.35798773822256796E-04
  5.62981207116511817E-04  5.91534968511129916E-04  6.21528640692435618E-04
  6.53034189580426697E-04  6.86127127574367220E-04  7.20886684387906816E-04
  7.57395985803802096E-04  7.95742240690824583E-04  8.36016936637222073E-04
  8.78316044569832171E-04  9.22740232740486082E-04  9.69395090474994749E-04
  1.01839136209400777E-03  1.06984519142925183E-03  1.12387837737303996E-03
  1.18061864091357615E-03  1.24019990412336991E-03  1.30276258158299710E-03
  1.36845388473752928E-03  1.43742813969801198E-03  1.50984711901558551E-03
  1.58588038797087528E-03  1.66570566593636353E-03  1.74950920338429400E-03
  1.83748617512732664E-03  1.92984109039347229E-03  2.02678822035085851E-03
  2.12855204371126218E-03  2.23536771105429079E-03  2.34748152852616446E-03
  2.46515146157848166E-03  2.58864765942252691E-03  2.71825300088398463E-03
  2.85426366235072516E-03  2.99698970851270579E-03  3.14675570659787461E-03
  3.30390136481104827E-03  3.46878219568053873E-03  3.64177020501946095E-03
  3.82325460720251819E-03  4.01364256745086970E-03  4.21335997180717625E-03
  4.42285222546835374E-03  4.64258508012476562E-03  4.87304549093136360E-03
  5.11474250370810672E-03  5.36820817293329287E-03  5.63399851105390436E-03
  5.91269446959077211E-03  6.20490295246324541E-03  6.51125786189680252E-03
  6.83242117720763396E-03  7.16908406667940944E-03  7.52196803265862707E-03
  7.89182608989546543E-03  8.27944397704553046E-03  8.68564140112388153E-03
  9.11127331456491538E-03  9.55723122438897552E-03  1.00244445328080047E-02
  1.05138819084166502E-02  1.10265526869108583E-02  1.15635083000519764E-02
  1.21258437313473237E-02  1.27146989966501495E-02  1.33312606475963699E-02
  1.39767632954651711E-02  1.46524911527088127E-02  1.53597795890203365E-02
  1.61000166983989584E-02  1.68746448732303850E-02  1.76851623809212710E-02
  1.85331249381103236E-02  1.94201472769223865E-02  2.03479046971314532E-02
  2.13181345974543940E-02  2.23326379785047831E-02  2.33932809091929109E-02
  2.45019959475630059E-02  2.56607835062075719E-02  2.68717131514888408E-02
  2.81369248248280884E-02  2.94586299732888905E-02  3.08391125755813067E-02
  3.22807300484446724E-02  3.37859140171270222E-02  3.53571709323655531E-02
  3.69970825148828522E-02  3.87083060069463650E-02  4.04935742089913842E-02
  4.23556952776550574E-02  4.42975522598834173E-02  4.63221023360813125E-02
  4.84323757431877333E-02  5.06314743467269693E-02  5.29225698288324845E-02
  5.53089014571098297E-02  5.77937733970057127E-02  6.03805515280785715E-02
  6.30726597222223268E-02  6.58735755394928707E-02  6.87868252947270026E-02
  7.18159784456375017E-02  7.49646412505310805E-02  7.82364496412330523E-02
  8.16350612542367515E-02  8.51641465605409015E-02  8.88273790321160162E-02
  9.26284242804756852E-02  9.65709281004458880E-02  1.00658503349959169E-01
  1.04894715594582216E-01  1.09283067443555870E-01  1.13826981502432006E-01
  1.18529781865975042E-01  1.23394674073922378E-01  1.28424723451470685E-01
  1.33622831755952881E-01  1.38991712052444372E-01  1.44533861740878206E-01
  1.50251533659129966E-01  1.56146705189320945E-01  1.62221045297841232E-01
  1.68475879444005050E-01  1.74912152297844375E-01  1.81530388214414529E-01
  1.88330649420315133E-01  1.95312491878054301E-01  2.02474918805572002E-01
  2.09816331841891968E-01  2.17334479865658847E-01  2.25026405491440790E-01
  2.32888389289388209E-01  2.40915891797290838E-01  2.49103493420585381E-01
  2.57444832345601060E-01  2.65932540624583991E-01  2.74558178628075022E-01
  2.83312168101229056E-01  2.92183724106008624E-01  3.01160786181034923E-01
  3.10229949105527758E-01  3.19376393713401596E-01  3.28583818268306405E-01
  3.37834370982446563E-01  3.47108584335770243E-01  3.56385311934783178E-01
  3.65641668738566572E-01  3.74852975572983027E-01  3.83992708953747042E-01
  3.93032457344520469E-01  4.01941885087355122E-01  4.10688705359325334E-01
  4.19238663630631614E-01  4.27555533225314977E-01  4.35601124715182142E-01
  4.43335311009792843E-01  4.50716070139202785E-01  4.57699547860260902E-01
  4.64240142350012874E-01  4.70290613379233391E-01  4.75802218483040718E-01
  4.80724878761407071E-01  4.85007377047087296E-01  4.88597591268740861E-01
  4.91442765908896684E-01  4.93489824505589758E-01  4.94685726168147877E-01
  4.94977869068539800E-01  4.94314543820410290E-01  4.92645439542879759E-01
  4.89922205287412260E-01  4.86099069283600749E-01  4.81133518181961761E-01
  4.74987038118862726E-01  4.67625918987402744E-01  4.59022122760078921E-01
  4.49154216064233613E-01  4.38008366449019748E-01  4.25579400892396542E-01
  4.11871924067815365E-01  3.96901492712538995E-01  3.80695841103008248E-01
  3.63296151138518653E-01  3.44758358854657887E-01  3.25154487326528074E-01
  3.04573993874391435E-01  2.83125117249742431E-01  2.60936208059661723E-01
  2.38157023087417347E-01  2.14959961398297483E-01  1.91541217197651076E-01
  1.68121821355833562E-01  1.44948540362950962E-01  1.22294598269670471E-01
  1.00460183909660813E-01  7.97727025554801072E-02  6.05867281120356857E-02
  4.32836090106813384E-02  2.82706776523453870E-02  1.59799985818177108E-02
  6.86638977082331889E-03  1.40134180845123842E-03 -2.68281812014764729E-05
 -1.92388909299756356E-06 -1.35960952336027016E-07 -9.47045984270576248E-09
 -6.49999135005529808E-10 -4.39215099744099410E-11 -2.91769659746563577E-12
 -1.90123926110885358E-13 -1.21121038680755800E-14 -7.50576367144326406E-16
 -4.48859380767701954E-17 -2.55596494996888819E-18 -1.35153555779990063E-19
 -6.27162369675066392E-21 -2.12538136393663418E-22  7.40873901367082254E-25
  1.09779061815372203E-24  1.45998672789820019E-25  1.47474975920681108E-26
  1.32533173274288591E-27  1.11470872173762773E-28  8.97548463745011958E-30
  7.00185649661250615E-31  5.32920001929872198E-32  3.97447219897205531E-33
  2.91240106922531058E-34  2.10045752601694024E-35  0.00000000000000000E+00
  0.00000000000000000E+00  0.00000000000000000E+00  0.00000000000000000E+00
  0.00000000000000000E+00  0.00000000000000000E+00  0.00000000000000000E+00
  0.00000000000000000E+00  0.00000000000000000E+00  0.00000000000000000E+00
  0.00000000000000000E+00  0.00000000000000000E+00  0.00000000000000000E+00
  0.00000000000000000E+00  0.00000000000000000E+00  0.00000000000000000E+00
  0.00000000000000000E+00  0.00000000000000000E+00  0.00000000000000000E+00
  0.00000000000000000E+00  0.00000000000000000E+00  0.00000000000000000E+00
  0.00000000000000000E+00  0.00000000000000000E+00  0.00000000000000000E+00
  0.00000000000000000E+00  0.00000000000000000E+00  0.00000000000000000E+00
  0.00000000000000000E+00  0.00000000000000000E+00  0.00000000000000000E+00
  0.00000000000000000E+00  0.00000000000000000E+00  0.00000000000000000E+00
  0.00000000000000000E+00  0.00000000000000000E+00  0.00000000000000000E+00
  0.00000000000000000E+00  0.00000000000000000E+00  0.00000000000000000E+00
  0.00000000000000000E+00  0.00000000000000000E+00  0.00000000000000000E+00
  0.00000000000000000E+00  0.00000000000000000E+00  0.00000000000000000E+00
  0.00000000000000000E+00  0.00000000000000000E+00  0.00000000000000000E+00
  0.00000000000000000E+00  0.00000000000000000E+00  0.00000000000000000E+00
  0.00000000000000000E+00  0.00000000000000000E+00  0.00000000000000000E+00
  0.00000000000000000E+00  0.00000000000000000E+00  0.00000000000000000E+00
  0.00000000000000000E+00  0.00000000000000000E+00  0.00000000000000000E+00
  0.00000000000000000E+00  0.00000000000000000E+00  0.00000000000000000E+00
  0.00000000000000000E+00  0.00000000000000000E+00  0.00000000000000000E+00
  0.00000000000000000E+00  0.00000000000000000E+00  0.00000000000000000E+00
  0.00000000000000000E+00  0.00000000000000000E+00  0.00000000000000000E+00
  0.00000000000000000E+00  0.00000000000000000E+00  0.00000000000000000E+00
  0.00000000000000000E+00  0.00000000000000000E+00  0.00000000000000000E+00
  0.00000000000000000E+00  0.00000000000000000E+00  0.00000000000000000E+00
  0.00000000000000000E+00  0.00000000000000000E+00  0.00000000000000000E+00
  0.00000000000000000E+00  0.00000000000000000E+00  0.00000000000000000E+00
  0.00000000000000000E+00  0.00000000000000000E+00  0.00000000000000000E+00
  0.00000000000000000E+00  0.00000000000000000E+00  0.00000000000000000E+00
  0.00000000000000000E+00  0.00000000000000000E+00  0.00000000000000000E+00
  0.00000000000000000E+00  0.00000000000000000E+00  0.00000000000000000E+00
  0.00000000000000000E+00  0.00000000000000000E+00  0.00000000000000000E+00
  0.00000000000000000E+00  0.00000000000000000E+00  0.00000000000000000E+00
  0.00000000000000000E+00  0.00000000000000000E+00  0.00000000000000000E+00
  0.00000000000000000E+00  0.00000000000000000E+00  0.00000000000000000E+00
  0.00000000000000000E+00  0.00000000000000000E+00  0.00000000000000000E+00
  0.00000000000000000E+00  0.00000000000000000E+00  0.00000000000000000E+00
  0.00000000000000000E+00  0.00000000000000000E+00  0.00000000000000000E+00
  0.00000000000000000E+00  0.00000000000000000E+00  0.00000000000000000E+00
  0.00000000000000000E+00  0.00000000000000000E+00  0.00000000000000000E+00
  0.00000000000000000E+00  0.00000000000000000E+00  0.00000000000000000E+00
  0.00000000000000000E+00  0.00000000000000000E+00  0.00000000000000000E+00
  0.00000000000000000E+00  0.00000000000000000E+00  0.00000000000000000E+00
  0.00000000000000000E+00  0.00000000000000000E+00  0.00000000000000000E+00
  0.00000000000000000E+00  0.00000000000000000E+00  0.00000000000000000E+00
  0.00000000000000000E+00  0.00000000000000000E+00  0.00000000000000000E+00
  0.00000000000000000E+00  0.00000000000000000E+00  0.00000000000000000E+00
  0.00000000000000000E+00  0.00000000000000000E+00  0.00000000000000000E+00
  0.00000000000000000E+00  0.00000000000000000E+00  0.00000000000000000E+00
  0.00000000000000000E+00  0.00000000000000000E+00  0.00000000000000000E+00
  0.00000000000000000E+00  0.00000000000000000E+00  0.00000000000000000E+00
  0.00000000000000000E+00  0.00000000000000000E+00  0.00000000000000000E+00
                       </PP_QIJL.3.4.2>
 <PP_QIJL.4.4.0 type="real" size="   999" columns="3" first_index=" 4" second_index=" 4" composite_index="10" angular_momentum="0">
 -9.54847841019720549E-09 -9.79019929062748381E-09 -1.00380393642099922E-08
 -1.02921535390533157E-08 -1.05527006447833391E-08 -1.08198435318168620E-08
 -1.10937491731484379E-08 -1.13745887687138493E-08 -1.16625378523956448E-08
 -1.19577764017376402E-08 -1.22604889504365444E-08 -1.25708647036815464E-08
 -1.28890976564137874E-08 -1.32153867145794260E-08 -1.35499358194523432E-08
 -1.38929540751039772E-08 -1.42446558791002783E-08 -1.46052610565070134E-08
 -1.49749949972875773E-08 -1.53540887971792296E-08 -1.57427794021351218E-08
 -1.61413097564233526E-08 -1.65499289544750693E-08 -1.69688923965764285E-08
 -1.73984619485021766E-08 -1.78389061051901646E-08 -1.82905001585594103E-08
 -1.87535263695764211E-08 -1.92282741446775517E-08 -1.97150402166573441E-08
 -2.02141288301360587E-08 -2.07258519317225888E-08 -2.12505293649909752E-08
 -2.17884890703931495E-08 -2.23400672902324099E-08 -2.29056087788254480E-08
 -2.34854670179852704E-08 -2.40800044379585632E-08 -2.46895926439563452E-08
 -2.53146126484195243E-08 -2.59554551091634846E-08 -2.66125205735523136E-08
 -2.72862197288536174E-08 -2.79769736589313292E-08 -2.86852141074370772E-08
 -2.94113837476633208E-08 -3.01559364592289989E-08 -3.09193376117686316E-08
 -3.17020643558035105E-08 -3.25046059209762985E-08 -3.33274639218349727E-08
 -3.41711526713585498E-08 -3.50361995024189335E-08 -3.59231450973812339E-08
 -3.68325438260475997E-08 -3.77649640921561551E-08 -3.87209886886516655E-08
 -3.97012151619500641E-08 -4.07062561854239986E-08 -4.17367399423437527E-08
 -4.27933105185116266E-08 -4.38766283048365072E-08 -4.49873704100995147E-08
 -4.61262310841685355E-08 -4.72939221519272058E-08 -4.84911734581877220E-08
 -4.97187333238677931E-08 -5.09773690137150407E-08 -5.22678672158721262E-08
 -5.35910345335824271E-08 -5.49476979893424459E-08 -5.63387055418178143E-08
 -5.77649266158444672E-08 -5.92272526458470903E-08 -6.07265976330144484E-08
 -6.22638987165790950E-08 -6.38401167595594099E-08 -6.54562369493301583E-08
 -6.71132694133956176E-08 -6.88122498507521872E-08 -7.05542401792328149E-08
 -7.23403291992398048E-08 -7.41716332742801370E-08 -7.60492970287276521E-08
 -7.79744940632507949E-08 -7.99484276883495925E-08 -8.19723316764634187E-08
 -8.40474710331183126E-08 -8.61751427875952305E-08 -8.83566768036154455E-08
 -9.05934366105469097E-08 -9.28868202556536931E-08 -9.52382611779202129E-08
 -9.76492291039957936E-08 -1.00121230966821049E-07 -1.02655811847508085E-07
 -1.05254555941065554E-07 -1.07919087546570535E-07 -1.10651072082407133E-07
 -1.13452217127206040E-07 -1.16324273487133903E-07 -1.19269036290203711E-07
 -1.22288346108286043E-07 -1.25384090107524124E-07 -1.28558203227873383E-07
 -1.31812669392498479E-07 -1.35149522747788376E-07 -1.38570848934761534E-07
 -1.42078786392657319E-07 -1.45675527695528153E-07 -1.49363320922665613E-07
 -1.53144471063721362E-07 -1.57021341459397802E-07 -1.60996355278609662E-07
 -1.65071997033040743E-07 -1.69250814130040281E-07 -1.73535418464832470E-07
 -1.77928488053032230E-07 -1.82432768704488428E-07 -1.87051075739500215E-07
 -1.91786295748478922E-07 -1.96641388396157281E-07 -2.01619388271470650E-07
 -2.06723406784269481E-07 -2.11956634110047042E-07 -2.17322341183895444E-07
 -2.22823881744942292E-07 -2.28464694432540183E-07 -2.34248304935521591E-07
 -2.40178328195863551E-07 -2.46258470668134816E-07 -2.52492532636144434E-07
 -2.58884410588234850E-07 -2.65438099652705444E-07 -2.72157696094888684E-07
 -2.79047399877442054E-07 -2.86111517285448419E-07 -2.93354463617977033E-07
 -3.00780765947777451E-07 -3.08395065950835433E-07 -3.16202122807562384E-07
 -3.24206816177422175E-07 -3.32414149248866339E-07 -3.40829251866475316E-07
 -3.49457383737263661E-07 -3.58303937718154833E-07 -3.67374443186673049E-07
 -3.76674569496970854E-07 -3.86210129523340001E-07 -3.95987083293429254E-07
 -4.06011541713438486E-07 -4.16289770387609837E-07 -4.26828193534415137E-07
 -4.37633398001878481E-07 -4.48712137384545939E-07 -4.60071336244680653E-07
 -4.71718094440308067E-07 -4.83659691562834675E-07 -4.95903591486998830E-07
 -5.08457447036004504E-07 -5.21329104764757357E-07 -5.34526609864176143E-07
 -5.48058211189668062E-07 -5.61932366416894327E-07 -5.76157747328050909E-07
 -5.90743245231979851E-07 -6.05697976521475352E-07 -6.21031288371285626E-07
 -6.36752764580351878E-07 -6.52872231561944622E-07 -6.69399764485442195E-07
 -6.86345693573577514E-07 -7.03720610559109660E-07 -7.21535375304939689E-07
 -7.39801122591811055E-07 -7.58529269077849315E-07 -7.77731520434265717E-07
 -7.97419878661711651E-07 -8.17606649591839808E-07 -8.38304450578766844E-07
 -8.59526218385246374E-07 -8.81285217268470044E-07 -9.03595047270565879E-07
 -9.26469652718968625E-07 -9.49923330941964940E-07 -9.73970741204888767E-07
 -9.98626913872509331E-07 -1.02390725980338176E-06 -1.04982757998200477E-06
 -1.07640407539480887E-06 -1.10365335715616663E-06 -1.13159245689071915E-06
 -1.16023883737854017E-06 -1.18961040346977501E-06 -1.21972551327557969E-06
 -1.25060298964236023E-06 -1.28226213191645529E-06 -1.31472272800666441E-06
 -1.34800506675211698E-06 -1.38212995060322942E-06 -1.41711870862368650E-06
 -1.45299320982153634E-06 -1.48977587681778412E-06 -1.52748969986097447E-06
 -1.56615825119656246E-06 -1.60580569980003677E-06 -1.64645682648297619E-06
 -1.68813703938154470E-06 -1.73087238983704677E-06 -1.77468958867848361E-06
 -1.81961602291731996E-06 -1.86567977286482284E-06 -1.91290962968275305E-06
 -1.96133511337832596E-06 -2.01098649125468514E-06 -2.06189479682847856E-06
 -2.11409184922625964E-06 -2.16761027307193650E-06 -2.22248351887764687E-06
 -2.27874588395078642E-06 -2.33643253383032898E-06 -2.39557952426572168E-06
 -2.45622382375221058E-06 -2.51840333663660469E-06 -2.58215692680792613E-06
 -2.64752444198781120E-06 -2.71454673863572103E-06 -2.78326570748468189E-06
 -2.85372429972336999E-06 -2.92596655384100306E-06 -3.00003762315179198E-06
 -3.07598380401606861E-06 -3.15385256477588120E-06 -3.23369257542300224E-06
 -3.31555373801796744E-06 -3.39948721787913796E-06 -3.48554547556122775E-06
 -3.57378229964337345E-06 -3.66425284034716094E-06 -3.75701364400562613E-06
 -3.85212268840484370E-06 -3.94963941902005033E-06 -4.04962478616907632E-06
 -4.15214128310626151E-06 -4.25725298508062474E-06 -4.36502558938272940E-06
 -4.47552645640527309E-06 -4.58882465174304670E-06 -4.70499098935853558E-06
 -4.82409807584026601E-06 -4.94622035578133835E-06 -5.07143415830673507E-06
 -5.19981774477829258E-06 -5.33145135770724218E-06 -5.46641727090491245E-06
 -5.60479984090276216E-06 -5.74668555967413509E-06 -5.89216310869041793E-06
 -6.04132341434554084E-06 -6.19425970478346108E-06 -6.35106756816394761E-06
 -6.51184501240337178E-06 -6.67669252642753327E-06 -6.84571314297498318E-06
 -7.01901250299008737E-06 -7.19669892164586502E-06 -7.37888345603813417E-06
 -7.56567997459305079E-06 -7.75720522823144153E-06 -7.95357892333453000E-06
 -8.15492379655644472E-06 -8.36136569153037842E-06 -8.57303363751628083E-06
 -8.79005993003926256E-06 -9.01258021356898762E-06 -9.24073356629181163E-06
 -9.47466258702865938E-06 -9.71451348435268092E-06 -9.96043616796272746E-06
 -1.02125843423695677E-05 -1.04711156029531086E-05 -1.07361915344511888E-05
 -1.10079778119409473E-05 -1.12866443043761092E-05 -1.15723651807448391E-05
 -1.18653190189143948E-05 -1.21656889172307248E-05 -1.24736626089423872E-05
 -1.27894325795208037E-05 -1.31131961869496404E-05 -1.34451557850585567E-05
 -1.37855188499785887E-05 -1.41344981097979141E-05 -1.44923116774990930E-05
 -1.48591831872606618E-05 -1.52353419342084162E-05 -1.56210230177036472E-05
 -1.60164674882575104E-05 -1.64219224981636607E-05 -1.68376414559430988E-05
 -1.72638841846975319E-05 -1.77009170844704200E-05 -1.81490132987166457E-05
 -1.86084528849853140E-05 -1.90795229899219838E-05 -1.95625180286994180E-05
 -2.00577398689892638E-05 -2.05654980195891677E-05 -2.10861098238235491E-05
 -2.16199006578383733E-05 -2.21672041339137959E-05 -2.27283623089217794E-05
 -2.33037258980587103E-05 -2.38936544939865202E-05 -2.44985167915191022E-05
 -2.51186908179939404E-05 -2.57545641694734379E-05 -2.64065342529226439E-05
 -2.70750085345152923E-05 -2.77604047942224897E-05 -2.84631513868431503E-05
 -2.91836875096392576E-05 -2.99224634767427931E-05 -3.06799410005058104E-05
 -3.14565934799690449E-05 -3.22529062966288448E-05 -3.30693771176874990E-05
 -3.39065162069758364E-05 -3.47648467437420926E-05 -3.56449051495063790E-05
 -3.65472414231837254E-05 -3.74724194846859702E-05 -3.84210175272157935E-05
 -3.93936283784730962E-05 -4.03908598709995558E-05 -4.14133352218911440E-05
 -4.24616934221166140E-05 -4.35365896356842364E-05 -4.46386956089052091E-05
 -4.57687000900102554E-05 -4.69273092593796608E-05 -4.81152471706560765E-05
 -4.93332562030147668E-05 -5.05820975248725749E-05 -5.18625515693262767E-05
 -5.31754185216145594E-05 -5.45215188189095685E-05 -5.59016936627482525E-05
 -5.73168055444229799E-05 -5.87677387836597925E-05 -6.02554000809184118E-05
 -6.17807190836593926E-05 -6.33446489669312550E-05 -6.49481670286376544E-05
 -6.65922752998580398E-05 -6.82780011705991664E-05 -7.00063980313697252E-05
 -7.17785459309760608E-05 -7.35955522509487497E-05 -7.54585523970208746E-05
 -7.73687105080871339E-05 -7.93272201830867371E-05 -8.13353052262612644E-05
 -8.33942204112516635E-05 -8.55052522645106472E-05 -8.76697198685166883E-05
 -8.98889756852908111E-05 -9.21644064007277343E-05 -9.44974337902659963E-05
 -9.68895156064372931E-05 -9.93421464888448837E-05 -1.01856858897138235E-04
 -1.04435224067564672E-04 -1.07078852993689795E-04 -1.09789397431900068E-04
 -1.12568550932309427E-04 -1.15418049895711964E-04 -1.18339674657237919E-04
 -1.21335250597383966E-04 -1.24406649281110892E-04 -1.27555789625712914E-04
 -1.30784639098186807E-04 -1.34095214942841855E-04 -1.37489585439913505E-04
 -1.40969871195962794E-04 -1.44538246466859878E-04 -1.48196940514174912E-04
 -1.51948238995816223E-04 -1.55794485391777993E-04 -1.59738082465882872E-04
 -1.63781493764423062E-04 -1.67927245152632007E-04 -1.72177926389936227E-04
 -1.76536192744962980E-04 -1.81004766651307017E-04 -1.85586439405077057E-04
 -1.90284072905277013E-04 -1.95100601438098081E-04 -2.00039033506221669E-04
 -2.05102453704272830E-04 -2.10294024641575648E-04 -2.15616988913404172E-04
 -2.21074671121947354E-04 -2.26670479948233523E-04 -2.32407910276297548E-04
 -2.38290545370900808E-04 -2.44322059110148738E-04 -2.50506218274384085E-04
 -2.56846884892766836E-04 -2.63348018648990934E-04 -2.70013679347616564E-04
 -2.76848029442542320E-04 -2.83855336629173333E-04 -2.91039976501879889E-04
 -2.98406435278386715E-04 -3.05959312592766087E-04 -3.13703324358753372E-04
 -3.21643305705148950E-04 -3.29784213985103629E-04 -3.38131131861146980E-04
 -3.46689270467840629E-04 -3.55463972654010104E-04 -3.64460716306533935E-04
 -3.73685117757737166E-04 -3.83142935278471151E-04 -3.92840072659023749E-04
 -4.02782582880050182E-04 -4.12976671875773453E-04 -4.23428702391755163E-04
 -4.34145197939593682E-04 -4.45132846850968683E-04 -4.56398506433505758E-04
 -4.67949207230998097E-04 -4.79792157390582653E-04 -4.91934747139534238E-04
 -5.04384553374402590E-04 -5.17149344365287538E-04 -5.30237084578110492E-04
 -5.43655939617821143E-04 -5.57414281295531030E-04 -5.71520692822660302E-04
 -5.85983974135240236E-04 -6.00813147351601578E-04 -6.16017462366756489E-04
 -6.31606402586851602E-04 -6.47589690807166417E-04 -6.63977295237202798E-04
 -6.80779435676504376E-04 -6.98006589844929232E-04 -7.15669499871186593E-04
 -7.33779178943543193E-04 -7.52346918126706155E-04 -7.71384293348957172E-04
 -7.90903172563753461E-04 -8.10915723090071053E-04 -8.31434419135889877E-04
 -8.52472049509322809E-04 -8.74041725521988613E-04 -8.96156889089351353E-04
 -9.18831321032847928E-04 -9.42079149588741097E-04 -9.65914859128768136E-04
 -9.90353299097742907E-04 -1.01540969317343260E-03 -1.04109964865410501E-03
 -1.06743916607931902E-03 -1.09444464908962078E-03 -1.12213291453095864E-03
 -1.15052120280977662E-03 -1.17962718850484556E-03 -1.20946899124207779E-03
 -1.24006518683867761E-03 -1.27143481872315145E-03 -1.30359740963783307E-03
 -1.33657297363074922E-03 -1.37038202834377791E-03 -1.40504560760425440E-03
 -1.44058527432728819E-03 -1.47702313373627016E-03 -1.51438184690917601E-03
 -1.55268464465846499E-03 -1.59195534175254438E-03 -1.63221835148694540E-03
 -1.67349870061352362E-03 -1.71582204463622211E-03 -1.75921468348205442E-03
 -1.80370357755623399E-03 -1.84931636419049909E-03 -1.89608137449393714E-03
 -1.94402765061576772E-03 -1.99318496342977113E-03 -2.04358383065026414E-03
 -2.09525553538970379E-03 -2.14823214516824193E-03 -2.20254653138576232E-03
 -2.25823238926714130E-03 -2.31532425829172233E-03 -2.37385754311817505E-03
 -2.43386853501620284E-03 -2.49539443381673791E-03 -2.55847337039252038E-03
 -2.62314442968121899E-03 -2.68944767426344475E-03 -2.75742416850829680E-03
 -2.82711600329931152E-03 -2.89856632135391092E-03 -2.97181934314975785E-03
 -3.04692039347159629E-03 -3.12391592859251029E-03 -3.20285356410369504E-03
 -3.28378210340716419E-03 -3.36675156688605792E-03 -3.45181322176745442E-03
 -3.53901961269291378E-03 -3.62842459301216573E-03 -3.72008335681568107E-03
 -3.81405247172214405E-03 -3.91038991243702720E-03 -4.00915509509882414E-03
 -4.11040891242974143E-03 -4.21421376970784224E-03 -4.32063362157805286E-03
 -4.42973400971950673E-03 -4.54158210138713887E-03 -4.65624672884561164E-03
 -4.77379842971387656E-03 -4.89430948823903807E-03 -5.01785397751830335E-03
 -5.14450780268814814E-03 -5.27434874509997206E-03 -5.40745650750184062E-03
 -5.54391276024601351E-03 -5.68380118854231158E-03 -5.82720754077744197E-03
 -5.97421967792068336E-03 -6.12492762403650266E-03 -6.27942361792476183E-03
 -6.43780216590949302E-03 -6.60016009579719384E-03 -6.76659661202580042E-03
 -6.93721335202564671E-03 -7.11211444381367949E-03 -7.29140656484245867E-03
 -7.47519900212527226E-03 -7.66360371365900923E-03 -7.85673539116616901E-03
 -8.05471152417753557E-03 -8.25765246547694766E-03 -8.46568149792945555E-03
 -8.67892490271404173E-03 -8.89751202898206306E-03 -9.12157536496216274E-03
 -9.35125061053234882E-03 -9.58667675127953568E-03 -9.82799613406661228E-03
 -1.00753545441266430E-02 -1.03289012837034701E-02 -1.05887892522573742E-02
 -1.08551750282540726E-02 -1.11282189525545826E-02 -1.14080852134228646E-02
 -1.16949419331673927E-02 -1.19889612564320711E-02 -1.22903194401508022E-02
 -1.25991969451792248E-02 -1.29157785296159823E-02 -1.32402533438246671E-02
 -1.35728150271663631E-02 -1.39136618064512746E-02 -1.42629965961164808E-02
 -1.46210271001351727E-02 -1.49879659156609713E-02 -1.53640306384090850E-02
 -1.57494439697741309E-02 -1.61444338256818247E-02 -1.65492334471701238E-02
 -1.69640815126921446E-02 -1.73892222521310584E-02 -1.78249055625138916E-02
 -1.82713871254084580E-02 -1.87289285259839601E-02 -1.91977973737124732E-02
 -1.96782674246851752E-02 -2.01706187055124588E-02 -2.06751376387735025E-02
 -2.11921171699758944E-02 -2.17218568959813771E-02 -2.22646631948486898E-02
 -2.28208493570389546E-02 -2.33907357179235081E-02 -2.39746497915277398E-02
 -2.45729264054384798E-02 -2.51859078367950816E-02 -2.58139439492777387E-02
 -2.64573923309985234E-02 -2.71166184331925637E-02 -2.77919957095985916E-02
 -2.84839057564086479E-02 -2.91927384526572790E-02 -2.99188921009108655E-02
 -3.06627735681064828E-02 -3.14247984263790400E-02 -3.22053910937031909E-02
 -3.30049849741644238E-02 -3.38240225976602568E-02 -3.46629557588189821E-02
 -3.55222456549083715E-02 -3.64023630224921124E-02 -3.73037882725748005E-02
 -3.82270116239601387E-02 -3.91725332345286351E-02 -4.01408633301224560E-02
 -4.11325223307055926E-02 -4.21480409734461894E-02 -4.31879604323483351E-02
 -4.42528324340350776E-02 -4.53432193692615490E-02 -4.64596943997128350E-02
 -4.76028415596139315E-02 -4.87732558516525486E-02 -4.99715433366860889E-02
 -5.11983212166742321E-02 -5.24542179102470002E-02 -5.37398731202854349E-02
 -5.50559378928570445E-02 -5.64030746668123320E-02 -5.77819573133116632E-02
 -5.91932711645110909E-02 -6.06377130305960910E-02 -6.21159912043085308E-02
 -6.36288254520678692E-02 -6.51769469907404475E-02 -6.67610984490634857E-02
 -6.83820338126785165E-02 -7.00405183516772667E-02 -7.17373285295078572E-02
 -7.34732518920333810E-02 -7.52490869354740244E-02 -7.70656429519044339E-02
 -7.89237398509134852E-02 -8.08242079559676196E-02 -8.27678877739502356E-02
 -8.47556297362775102E-02 -8.67882939099264283E-02 -8.88667496766218368E-02
 -9.09918753783587747E-02 -9.31645579273535640E-02 -9.53856923784340699E-02
 -9.76561814617944168E-02 -9.99769350739494744E-02 -1.02348869724634514E-01
 -1.04772907937301124E-01 -1.07249977600764879E-01 -1.09781011269462547E-01
 -1.12366945409674276E-01 -1.15008719588965344E-01 -1.17707275605995434E-01
 -1.20463556557736967E-01 -1.23278505841035793E-01 -1.26153066085335414E-01
 -1.29088178013276100E-01 -1.32084779225765336E-01 -1.35143802908002014E-01
 -1.38266176452823464E-01 -1.41452819997627322E-01 -1.44704644871006566E-01
 -1.48022551945120845E-01 -1.51407429889713063E-01 -1.54860153323569810E-01
 -1.58381580859107973E-01 -1.61972553035669237E-01 -1.65633890137012157E-01
 -1.69366389888361224E-01 -1.73170825028296588E-01 -1.77047940750677729E-01
 -1.80998452011711414E-01 -1.85023040697199520E-01 -1.89122352644937791E-01
 -1.93296994517181464E-01 -1.97547530518055320E-01 -2.01874478950750447E-01
 -2.06278308609341848E-01 -2.10759435000063250E-01 -2.15318216386895078E-01
 -2.19954949656366999E-01 -2.24669865996544094E-01 -2.29463126385252292E-01
 -2.34334816882725311E-01 -2.39284943724000443E-01 -2.44313428206580086E-01
 -2.49420101369093122E-01 -2.54604698456956324E-01 -2.59866853171338508E-01
 -2.65206091698086177E-01 -2.70621826513673835E-01 -2.76113349965703636E-01
 -2.81679827625998969E-01 -2.87320291414931595E-01 -2.93033632496274732E-01
 -2.98818593942599353E-01 -3.04673763172052969E-01 -3.10597564158266504E-01
 -3.16588249416122625E-01 -3.22643891767217694E-01 -3.28762375890049530E-01
 -3.34941389661274513E-01 -3.41178415295818105E-01 -3.47470720295180224E-01
 -3.53815348214977843E-01 -3.60209109264610527E-01 -3.66648570753924263E-01
 -3.73130047403907261E-01 -3.79649591540766773E-01 -3.86202983195241989E-01
 -3.92785720131683669E-01 -3.99393007834313085E-01 -4.06019749481147552E-01
 -4.12660535939372519E-01 -4.19309635819440141E-01 -4.25960985628913158E-01
 -4.32608180071027415E-01 -4.39244462537160429E-01 -4.45862715846843838E-01
 -4.52455453293771515E-01 -4.59014810060753009E-01 -4.65532535072245957E-01
 -4.71999983358488140E-01 -4.78408109010812710E-01 -4.84747458813777010E-01
 -4.91008166645928779E-01 -4.97179948747504208E-01 -5.03252099960022625E-01
 -5.09213491049650413E-01 -5.15052567233296843E-01 -5.20757348033673684E-01
 -5.26315428596967561E-01 -5.31713982614318903E-01 -5.36939766995895518E-01
 -5.41979128454024739E-01 -5.46818012159457578E-01 -5.51441972642421341E-01
 -5.55836187117531133E-01 -5.59985471418838365E-01 -5.63874298738217927E-01
 -5.67486821366802174E-01 -5.70806895645195711E-01 -5.73818110333613185E-01
 -5.76503818617725705E-01 -5.78847173969914808E-01 -5.80831170088981441E-01
 -5.82438685139821000E-01 -5.83652530518139923E-01 -5.84455504363106781E-01
 -5.84830450036436300E-01 -5.84760319781402971E-01 -5.84228243767504818E-01
 -5.83217604716114169E-01 -5.81712118289160474E-01 -5.79695919406397198E-01
 -5.77153654636767266E-01 -5.74070580785475570E-01 -5.70432669770211787E-01
 -5.66226719847224613E-01 -5.61440473210175872E-01 -5.56062739941580730E-01
 -5.50083528247705567E-01 -5.43494180852709396E-01 -5.36287517366123456E-01
 -5.28457982369131329E-01 -5.20001798889136224E-01 -5.10917126848431935E-01
 -5.01204225981141116E-01 -4.90865622612634778E-01 -4.79906279587202389E-01
 -4.68333768513372217E-01 -4.56158443370048794E-01 -4.43393614376344392E-01
 -4.30055720895846871E-01 -4.16164501987958790E-01 -4.01743163059769093E-01
 -3.86818536905709442E-01 -3.71421237248896918E-01 -3.55585802719123156E-01
 -3.39350829019206379E-01 -3.22759086845424537E-01 -3.05857622940792884E-01
 -2.88697841474265360E-01 -2.71335562757066773E-01 -2.53831056132185096E-01
 -2.36249043708091688E-01 -2.18658671456635006E-01 -2.01133444062307098E-01
 -1.83751119800321799E-01 -1.66593561639630655E-01 -1.49746540719946641E-01
 -1.33299488345395567E-01 -1.17345192678562471E-01 -1.01979436414768337E-01
 -8.73005718753084858E-02 -7.34090301881356322E-02 -6.04067615261875412E-02
 -4.83966037925886369E-02 -3.74815776337095868E-02 -2.77641062381094421E-02
 -1.93451591024367681E-02 -1.23233194773669941E-02 -6.79377121536776582E-03
 -2.84712288325536349E-03 -5.66755884903605961E-04  1.06355659875316418E-05
  7.62692381104907059E-07  5.38993556603039409E-08  3.75439914591833840E-09
  2.57680855823701560E-10  1.74119189853674341E-11  1.15667008735704175E-12
  7.53713249055297348E-14  4.80163299067272100E-15  2.97552950813002696E-16
  1.77942497384606494E-17  1.01326786497610098E-18  5.35792773335120427E-20
  2.48627617261237480E-21  8.42570488661175786E-23 -2.93706576948121926E-25
 -4.35200003764120034E-25 -5.78786354127768476E-26 -5.84638901211731080E-27
 -5.25404722485654674E-28 -4.41906891782329162E-29 -3.55817483171105336E-30
 -2.77576426988092121E-31 -2.11266869119279390E-32 -1.57561040088140313E-33
 -1.15457076725718550E-34 -8.32689866457707380E-36  0.00000000000000000E+00
  0.00000000000000000E+00  0.00000000000000000E+00  0.00000000000000000E+00
  0.00000000000000000E+00  0.00000000000000000E+00  0.00000000000000000E+00
  0.00000000000000000E+00  0.00000000000000000E+00  0.00000000000000000E+00
  0.00000000000000000E+00  0.00000000000000000E+00  0.00000000000000000E+00
  0.00000000000000000E+00  0.00000000000000000E+00  0.00000000000000000E+00
  0.00000000000000000E+00  0.00000000000000000E+00  0.00000000000000000E+00
  0.00000000000000000E+00  0.00000000000000000E+00  0.00000000000000000E+00
  0.00000000000000000E+00  0.00000000000000000E+00  0.00000000000000000E+00
  0.00000000000000000E+00  0.00000000000000000E+00  0.00000000000000000E+00
  0.00000000000000000E+00  0.00000000000000000E+00  0.00000000000000000E+00
  0.00000000000000000E+00  0.00000000000000000E+00  0.00000000000000000E+00
  0.00000000000000000E+00  0.00000000000000000E+00  0.00000000000000000E+00
  0.00000000000000000E+00  0.00000000000000000E+00  0.00000000000000000E+00
  0.00000000000000000E+00  0.00000000000000000E+00  0.00000000000000000E+00
  0.00000000000000000E+00  0.00000000000000000E+00  0.00000000000000000E+00
  0.00000000000000000E+00  0.00000000000000000E+00  0.00000000000000000E+00
  0.00000000000000000E+00  0.00000000000000000E+00  0.00000000000000000E+00
  0.00000000000000000E+00  0.00000000000000000E+00  0.00000000000000000E+00
  0.00000000000000000E+00  0.00000000000000000E+00  0.00000000000000000E+00
  0.00000000000000000E+00  0.00000000000000000E+00  0.00000000000000000E+00
  0.00000000000000000E+00  0.00000000000000000E+00  0.00000000000000000E+00
  0.00000000000000000E+00  0.00000000000000000E+00  0.00000000000000000E+00
  0.00000000000000000E+00  0.00000000000000000E+00  0.00000000000000000E+00
  0.00000000000000000E+00  0.00000000000000000E+00  0.00000000000000000E+00
  0.00000000000000000E+00  0.00000000000000000E+00  0.00000000000000000E+00
  0.00000000000000000E+00  0.00000000000000000E+00  0.00000000000000000E+00
  0.00000000000000000E+00  0.00000000000000000E+00  0.00000000000000000E+00
  0.00000000000000000E+00  0.00000000000000000E+00  0.00000000000000000E+00
  0.00000000000000000E+00  0.00000000000000000E+00  0.00000000000000000E+00
  0.00000000000000000E+00  0.00000000000000000E+00  0.00000000000000000E+00
  0.00000000000000000E+00  0.00000000000000000E+00  0.00000000000000000E+00
  0.00000000000000000E+00  0.00000000000000000E+00  0.00000000000000000E+00
  0.00000000000000000E+00  0.00000000000000000E+00  0.00000000000000000E+00
  0.00000000000000000E+00  0.00000000000000000E+00  0.00000000000000000E+00
  0.00000000000000000E+00  0.00000000000000000E+00  0.00000000000000000E+00
  0.00000000000000000E+00  0.00000000000000000E+00  0.00000000000000000E+00
  0.00000000000000000E+00  0.00000000000000000E+00  0.00000000000000000E+00
  0.00000000000000000E+00  0.00000000000000000E+00  0.00000000000000000E+00
  0.00000000000000000E+00  0.00000000000000000E+00  0.00000000000000000E+00
  0.00000000000000000E+00  0.00000000000000000E+00  0.00000000000000000E+00
  0.00000000000000000E+00  0.00000000000000000E+00  0.00000000000000000E+00
  0.00000000000000000E+00  0.00000000000000000E+00  0.00000000000000000E+00
  0.00000000000000000E+00  0.00000000000000000E+00  0.00000000000000000E+00
  0.00000000000000000E+00  0.00000000000000000E+00  0.00000000000000000E+00
  0.00000000000000000E+00  0.00000000000000000E+00  0.00000000000000000E+00
  0.00000000000000000E+00  0.00000000000000000E+00  0.00000000000000000E+00
  0.00000000000000000E+00  0.00000000000000000E+00  0.00000000000000000E+00
  0.00000000000000000E+00  0.00000000000000000E+00  0.00000000000000000E+00
  0.00000000000000000E+00  0.00000000000000000E+00  0.00000000000000000E+00
  0.00000000000000000E+00  0.00000000000000000E+00  0.00000000000000000E+00
  0.00000000000000000E+00  0.00000000000000000E+00  0.00000000000000000E+00
  0.00000000000000000E+00  0.00000000000000000E+00  0.00000000000000000E+00
  0.00000000000000000E+00  0.00000000000000000E+00  0.00000000000000000E+00
  0.00000000000000000E+00  0.00000000000000000E+00  0.00000000000000000E+00
                       </PP_QIJL.4.4.0>
 <PP_QIJL.4.4.2 type="real" size="   999" columns="3" first_index=" 4" second_index=" 4" composite_index="10" angular_momentum="2">
 -1.77827338805109141E-16 -1.86944784510874968E-16 -1.96529636697144753E-16
 -2.06605890820264984E-16 -2.17198822576712236E-16 -2.28334883267612555E-16
 -2.40041825607503576E-16 -2.52349015938167453E-16 -2.65287270507948342E-16
 -2.78888842641731279E-16 -2.93187736036436717E-16 -3.08219815099141269E-16
 -3.24022622031534467E-16 -3.40635570321363551E-16 -3.58100326357797381E-16
 -3.76460575298139579E-16 -3.95762088816473082E-16 -4.16053222342106569E-16
 -4.37384780627453206E-16 -4.59809959944819257E-16 -4.83384886698069430E-16
 -5.08168612476536994E-16 -5.34222962763883824E-16 -5.61613122013606311E-16
 -5.90407697950449520E-16 -6.20678530737654296E-16 -6.52501366234126149E-16
 -6.85955888376018162E-16 -7.21125563821788468E-16 -7.58098445116792747E-16
 -7.96967047262019351E-16 -8.37828362998868682E-16 -8.80784756540944837E-16
 -9.25943597372811914E-16 -9.73417676817502367E-16 -1.02332592419156307E-15
 -1.07579294884202648E-15 -1.13095000564137958E-15 -1.18893512148653880E-15
 -1.24989305736251882E-15 -1.31397648926804234E-15 -1.38134550065539557E-15
 -1.45216856501474139E-15 -1.52662291083794562E-15 -1.60489446364088468E-15
 -1.68717922695758799E-15 -1.77368271682047439E-15 -1.86462137905580771E-15
 -1.96022259400119408E-15 -2.06072529971218678E-15 -2.16638102538836345E-15
 -2.27745367035499854E-15 -2.39422130003928394E-15 -2.51697557722481232E-15
 -2.64602373126691936E-15 -2.78168822851444038E-15 -2.92430845637462037E-15
 -3.07424095083998763E-15 -3.23186064744168297E-15 -3.39756170614130860E-15
 -3.57175839101379017E-15 -3.75488639541133852E-15 -3.94740349745109375E-15
 -4.14979124354908019E-15 -4.36255554891191039E-15 -4.58622859037869251E-15
 -4.82136952716806565E-15 -5.06856644675906446E-15 -5.32843739794508512E-15
 -5.60163221203736411E-15 -5.88883406758131848E-15 -6.19076099021454597E-15
 -6.50816817085818417E-15 -6.84184898746505378E-15 -7.19263819626158382E-15
 -7.56141252349702461E-15 -7.94909452175932936E-15 -8.35665324409846375E-15
 -8.78510802411844877E-15 -9.23553018258453905E-15 -9.70904584435443984E-15
 -1.02068393842749234E-14 -1.07301551066228242E-14 -1.12803019688776714E-14
 -1.18586554268749703E-14 -1.24666615936940804E-14 -1.31058411173336610E-14
 -1.37777918446736465E-14 -1.44841943308944728E-14 -1.52268149333157679E-14
 -1.60075102792236658E-14 -1.68282329354137666E-14 -1.76910349060675471E-14
 -1.85980735177872332E-14 -1.95516172127638121E-14 -2.05540500517660887E-14
 -2.16078785848311915E-14 -2.27157382762015185E-14 -2.38803990868521869E-14
 -2.51047731589363667E-14 -2.63919224246961989E-14 -2.77450652826302487E-14
 -2.91675850148148989E-14 -3.06630390062580659E-14 -3.22351667207071122E-14
 -3.38878989608698305E-14 -3.56253685072271267E-14 -3.74519202002897539E-14
 -3.93721212659907046E-14 -4.13907729118949596E-14 -4.35129230263123164E-14
 -4.57438782703453002E-14 -4.80892170940549413E-14 -5.05548038002064570E-14
 -5.31468037689788344E-14 -5.58716985462225598E-14 -5.87363017799416030E-14
 -6.17477762886080675E-14 -6.49136521946068325E-14 -6.82418460284080584E-14
 -7.17406801197031386E-14 -7.54189033609763738E-14 -7.92857131090321301E-14
 -8.33507782506611757E-14 -8.76242636474765261E-14 -9.21168553606858808E-14
 -9.68397872533841812E-14 -1.01804869097976707E-13 -1.07024516122839302E-13
 -1.12511780071657600E-13 -1.18280381910219421E-13 -1.24344746220179025E-13
 -1.30720037127707452E-13 -1.37422196205305928E-13 -1.44467982342880512E-13
 -1.51875013661310491E-13 -1.59661811573323009E-13 -1.67847847101889201E-13
 -1.76453589571996125E-13 -1.85500557797564615E-13 -1.95011373894863559E-13
 -2.05009819864499959E-13 -2.15520897038151695E-13 -2.26570888585104752E-13
 -2.38187425235895458E-13 -2.50399554375081212E-13 -2.63237812675975402E-13
 -2.76734302459059763E-13 -2.90922771965065874E-13 -3.05838699743515389E-13
 -3.21519383367782220E-13 -3.38004032698519953E-13 -3.55333867928684396E-13
 -3.73552222655265304E-13 -3.92704652235395567E-13 -4.12839047697674579E-13
 -4.34005755493346187E-13 -4.56257703386558512E-13 -4.79650532798156247E-13
 -5.04242737933529625E-13 -5.30095812045026570E-13 -5.57274401232988053E-13
 -5.85846466105120641E-13 -6.15883451695493740E-13 -6.47460466111516613E-13
 -6.80656468337520643E-13 -7.15554465662887708E-13 -7.52241721227032750E-13
 -7.90809972198490853E-13 -8.31355659131724609E-13 -8.73980167077033244E-13
 -9.18790079314871958E-13 -9.65897444107664630E-13 -1.01542005455295856E-12
 -1.06748174303607185E-12 -1.12221269079385184E-12 -1.17974975332749007E-12
 -1.24023680257784875E-12 -1.30382508768013302E-12 -1.37067361294343174E-12
 -1.44094953469164868E-12 -1.51482857902484266E-12 -1.59249548099260561E-12
 -1.67414444775948187E-12 -1.75997964516802924E-12 -1.85021570628794076E-12
 -1.94507826755055180E-12 -2.04480453297355149E-12 -2.14964387069025606E-12
 -2.25985843480000729E-12 -2.37572381855333163E-12 -2.49752974324675492E-12
 -2.62558078758612034E-12 -2.76019714751448166E-12 -2.90171543279238515E-12
 -3.05048950964222910E-12 -3.20689139284858202E-12 -3.37131216949933106E-12
 -3.54416297337122505E-12 -3.72587602091764921E-12 -3.91690569239453719E-12
 -4.11772965825765991E-12 -4.32885007989217608E-12 -4.55079487255409865E-12
 -4.78411901077019030E-12 -5.02940592196369921E-12 -5.28726895630410475E-12
 -5.55835290136503107E-12 -5.84333560420923366E-12 -6.14292967566388007E-12
 -6.45788424934295563E-12 -6.78898687540283771E-12 -7.13706548646735570E-12
 -7.50299044929610724E-12 -7.88767677333347697E-12 -8.29208636998503133E-12
 -8.71723046751246760E-12 -9.16417215481888944E-12 -9.63402900429117646E-12
 -1.01279759106110029E-11 -1.06472479897442298E-11 -1.11931436885127742E-11
 -1.17670280339876109E-11 -1.23703360199351029E-11 -1.30045762421280070E-11
 -1.36713346104161890E-11 -1.43722783792966771E-11 -1.51091602547618186E-11
 -1.58838228302466451E-11 -1.66982031530603028E-11 -1.75543375951856957E-11
 -1.84543669318443296E-11 -1.94005416950796985E-11 -2.03952278118450229E-11
 -2.14409125002358167E-11 -2.25402105153848639E-11 -2.36958706567696611E-11
 -2.49107826739875452E-11 -2.61879844617503625E-11 -2.75306696819262422E-11
 -2.89421957324382883E-11 -3.04260921460353618E-11 -3.19860694300957162E-11
 -3.36260283082089558E-11 -3.53500695365141473E-11 -3.71625040668722683E-11
 -3.90678639440634251E-11 -4.10709134998176074E-11 -4.31766614127261979E-11
 -4.53903730959099440E-11 -4.77175839675044284E-11 -5.01641132403262123E-11
 -5.27360784560085365E-11 -5.54399108706109012E-11 -5.82823713891122192E-11
 -6.12705676426414354E-11 -6.44119716150271975E-11 -6.77144383952102182E-11
 -7.11862258558477074E-11 -7.48360151656733072E-11 -7.86729326844772979E-11
 -8.27065726278221651E-11 -8.69470210991361878E-11 -9.14048814076570261E-11
 -9.60913003950801774E-11 -1.01017996479033551E-10 -1.06197288905440678E-10
 -1.11642128438057807E-10 -1.17366129951238329E-10 -1.23383606322471133E-10
 -1.29709604187030100E-10 -1.36359941762515425E-10 -1.43351248205585322E-10
 -1.50701005202725152E-10 -1.58427590874911242E-10 -1.66550325522132619E-10
 -1.75089519943317262E-10 -1.84066526430574640E-10 -1.93503791954590908E-10
 -2.03424914264256431E-10 -2.13854701124239048E-10 -2.24819232182528932E-10
 -2.36345924085746230E-10 -2.48463599246033762E-10 -2.61202557875387183E-10
 -2.74594653569057296E-10 -2.88673373058583618E-10 -3.03473920116635440E-10
 -3.19033303347276512E-10 -3.35390428690680644E-10 -3.52586196935362933E-10
 -3.70663605933487664E-10 -3.89667857935200482E-10 -4.09646472657192781E-10
 -4.30649406355292672E-10 -4.52729176544845968E-10 -4.75940993210239337E-10
 -5.00342896926857601E-10 -5.25995904228313902E-10 -5.52964159945522861E-10
 -5.81315097513007563E-10 -6.11119607635224606E-10 -6.42452215806260938E-10
 -6.75391268448199610E-10 -7.10019128704071382E-10 -7.46422382387631658E-10
 -7.84692054735881809E-10 -8.24923837955999509E-10 -8.67218330299292903E-10
 -9.11681287581455573E-10 -9.58423887704333964E-10 -1.00756300889412999E-09
 -1.05922152169249956E-09 -1.11352859610186002E-09 -1.17062002454988537E-09
 -1.23063856156235516E-09 -1.29373428089888050E-09 -1.36006495052287067E-09
 -1.42979642702790799E-09 -1.50310307032956482E-09 -1.58016817971322795E-09
 -1.66118445242074760E-09 -1.74635446520993638E-09 -1.83589118077799794E-09
 -1.93001848023211905E-09 -2.02897172286643858E-09 -2.13299833486936389E-09
 -2.24235842803228656E-09 -2.35732544985858930E-09 -2.47818686724650642E-09
 -2.60524488523813551E-09 -2.73881720262274053E-09 -2.87923780650244467E-09
 -3.02685780744988240E-09 -3.18204631712052053E-09 -3.34519137111132564E-09
 -3.51670089915110749E-09 -3.69700374502906629E-09 -3.88655073885965912E-09
 -4.08581582459094820E-09 -4.29529724481653162E-09 -4.51551878634865388E-09
 -4.74703108980471216E-09 -4.99041302633134065E-09 -5.24627314490720912E-09
 -5.51525119385374274E-09 -5.79801972060134975E-09 -6.09528575322722886E-09
 -6.40779256791207446E-09 -6.73632154725338052E-09 -7.08169413385703542E-09
 -7.44477388407900301E-09 -7.82646862705094236E-09 -8.22773273438860472E-09
 -8.64956950644767413E-09 -9.09303368087939250E-09 -9.55923406931824644E-09
 -1.00493363295009755E-08 -1.05645658795284705E-08 -1.11062109615220359E-08
 -1.16756258623314022E-08 -1.22742342993452483E-08 -1.29035329798667756E-08
 -1.35650953430134398E-08 -1.42605754936889542E-08 -1.49917123376812124E-08
 -1.57603339288177176E-08 -1.65683620390963106E-08 -1.74178169630858563E-08
 -1.83108225686051414E-08 -1.92496116063022318E-08 -2.02365312914048777E-08
 -2.12740491715921179E-08 -2.23647592956511275E-08 -2.35113886983718515E-08
 -2.47168042181152250E-08 -2.59840196634102224E-08 -2.73162033468590354E-08
 -2.87166860053911074E-08 -3.01889691264957679E-08 -3.17367337012371688E-08
 -3.33638494259254172E-08 -3.50743843754372195E-08 -3.68726151723573098E-08
 -3.87630376773524184E-08 -4.07503782274882862E-08 -4.28396054505723222E-08
 -4.50359426850409816E-08 -4.73448810364725074E-08 -4.97721931035225562E-08
 -5.23239474069127341E-08 -5.50065235580141959E-08 -5.78266282049872336E-08
 -6.07913117961990670E-08 -6.39079862028013740E-08 -6.71844432444895952E-08
 -7.06288741647269272E-08 -7.42498901040833865E-08 -7.80565436228304915E-08
 -8.20583513265598766E-08 -8.62653176513366888E-08 -9.06879598678034736E-08
 -9.53373343666878645E-08 -1.00225064291366899E-07 -1.05363368586505042E-07
 -1.10765092535316633E-07 -1.16443739861718407E-07 -1.22413506477564701E-07
 -1.28689315959395097E-07 -1.35286856842855797E-07 -1.42222621828135765E-07
 -1.49513948994486767E-07 -1.57179065126622378E-07 -1.65237131261175738E-07
 -1.73708290566938530E-07 -1.82613718678423792E-07 -1.91975676608416157E-07
 -2.01817566371609635E-07 -2.12163989458188212E-07 -2.23040808303325606E-07
 -2.34475210906036846E-07 -2.46495778758684580E-07 -2.59132558256685638E-07
 -2.72417135766654163E-07 -2.86382716540327247E-07 -3.01064207671219068E-07
 -3.16498305301019628E-07 -3.32723586293353889E-07 -3.49780604603653985E-07
 -3.67711992585592868E-07 -3.86562567486844398E-07 -4.06379443399859116E-07
 -4.27212148946937501E-07 -4.49112750993178847E-07 -4.72135984695890011E-07
 -4.96339390214835898E-07 -5.21783456424297062E-07 -5.48531771985340055E-07
 -5.76651184155051259E-07 -6.06211965728722252E-07 -6.37287990531259037E-07
 -6.69956917895349756E-07 -7.04300386586301592E-07 -7.40404218656992622E-07
 -7.78358633741054839E-07 -8.18258474318435571E-07 -8.60203442514739307E-07
 -9.04298349024488263E-07 -9.50653374778574490E-07 -9.99384346007833449E-07
 -1.05061302338808558E-06 -1.10446740598696681E-06 -1.16108205076960470E-06
 -1.22059840845898678E-06 -1.28316517658741814E-06 -1.34893867061824596E-06
 -1.41808321406192014E-06 -1.49077154855762858E-06 -1.56718526494137814E-06
 -1.64751525637346844E-06 -1.73196219465310303E-06 -1.82073703090548591E-06
 -1.91406152188714725E-06 -2.01216878321897869E-06 -2.11530387092309159E-06
 -2.22372439270998932E-06 -2.33770115053623138E-06 -2.45751881603034521E-06
 -2.58347664046627415E-06 -2.71588920104918531E-06 -2.85508718536854953E-06
 -3.00141821596790357E-06 -3.15524771708011880E-06 -3.31695982568139102E-06
 -3.48695834912691034E-06 -3.66566777174643041E-06 -3.85353431289920381E-06
 -4.05102703911491038E-06 -4.25863903308114217E-06 -4.47688862237840592E-06
 -4.70632067101137509E-06 -4.94750793694031886E-06 -5.20105249897959224E-06
 -5.46758725660142844E-06 -5.74777750636333032E-06 -6.04232259886626543E-06
 -6.35195768034981119E-06 -6.67745552323888165E-06 -7.01962845017622622E-06
 -7.37933035630513538E-06 -7.75745883480863717E-06 -8.15495741096615557E-06
 -8.57281789025557842E-06 -9.01208282630918040E-06 -9.47384811482691218E-06
 -9.95926571985997173E-06 -1.04695465392031115E-05 -1.10059634159756847E-05
 -1.15698543038305386E-05 -1.21626255936067994E-05 -1.27857556096385492E-05
 -1.34407982843476793E-05 -1.41293870201856016E-05 -1.48532387484479101E-05
 -1.56141581949676336E-05 -1.64140423631990277E-05 -1.72548852457355629E-05
 -1.81387827758636439E-05 -1.90679380313405221E-05 -2.00446667031996835E-05
 -2.10714028430342352E-05 -2.21507049028873692E-05 -2.32852620825917787E-05
 -2.44779010001487874E-05 -2.57315927015232723E-05 -2.70494600270561700E-05
 -2.84347853525628105E-05 -2.98910187240941599E-05 -3.14217864062936575E-05
 -3.30308998652849620E-05 -3.47223652080770205E-05 -3.65003931015797498E-05
 -3.83694091954804898E-05 -4.03340650744509383E-05 -4.23992497664305587E-05
 -4.45701018350729553E-05 -4.68520220858501890E-05 -4.92506869167852983E-05
 -5.17720623463344736E-05 -5.44224187525650823E-05 -5.72083463594838846E-05
 -6.01367715081585963E-05 -6.32149737521564309E-05 -6.64506038187920745E-05
 -6.98517024797474059E-05 -7.34267203767932902E-05 -7.71845388506184750E-05
 -8.11344918231596583E-05 -8.52863887863274285E-05 -8.96505389526492709E-05
 -9.42377766261054655E-05 -9.90594878543180204E-05 -1.04127638426284089E-04
 -1.09454803283014730E-04 -1.15054197411778290E-04 -1.20939708298151659E-04
 -1.27125930013653531E-04 -1.33628199020658110E-04 -1.40462631780307999E-04
 -1.47646164253309361E-04 -1.55196593387927441E-04 -1.63132620694117709E-04
 -1.71473898007579271E-04 -1.80241075552588828E-04 -1.89455852417792135E-04
 -1.99141029564699765E-04 -2.09320565494466014E-04 -2.20019634704638574E-04
 -2.31264689073963051E-04 -2.43083522320023906E-04 -2.55505337681511931E-04
 -2.68560818984249386E-04 -2.82282205257784313E-04 -2.96703369077400960E-04
 -3.11859898814804862E-04 -3.27789184989542444E-04 -3.44530510922414846E-04
 -3.62125147901772894E-04 -3.80616455083653720E-04 -4.00049984357235783E-04
 -4.20473590418102034E-04 -4.41937546303296702E-04 -4.64494664654188541E-04
 -4.88200424985711222E-04 -5.13113107253666606E-04 -5.39293932025499897E-04
 -5.66807207574250333E-04 -5.95720484230338981E-04 -6.26104716341446496E-04
 -6.58034432207024885E-04 -6.91587912370971434E-04 -7.26847376673945482E-04
 -7.63899180484702445E-04 -8.02834020549200353E-04 -8.43747150917166944E-04
 -8.86738609425925285E-04 -9.31913455243290148E-04 -9.79382017994090371E-04
 -1.02926015901848886E-03 -1.08166954533493341E-03 -1.13673793690613435E-03
 -1.19459948783315101E-03 -1.25539506213033806E-03 -1.31927256476271773E-03
 -1.38638728865725651E-03 -1.45690227843057020E-03 -1.53098871160788834E-03
 -1.60882629814153191E-03 -1.69060369907188561E-03 -1.77651896520986531E-03
 -1.86677999675713109E-03 -1.96160502481894285E-03 -2.06122311580451230E-03
 -2.16587469975106865E-03 -2.27581212365059182E-03 -2.39130023090231318E-03
 -2.51261696805968847E-03 -2.64005402008760321E-03 -2.77391747539397536E-03
 -2.91452852194995331E-03 -3.06222417586423041E-03 -3.21735804382984299E-03
 -3.38030112091660491E-03 -3.55144262523814135E-03 -3.73119087107509411E-03
 -3.91997418210179600E-03 -4.11824184641969293E-03 -4.32646511516172980E-03
 -4.54513824649436203E-03 -4.77477959690737232E-03 -5.01593276174576528E-03
 -5.26916776700345462E-03 -5.53508231446431936E-03 -5.81430308234293872E-03
 -6.10748708364455047E-03 -6.41532308453101989E-03 -6.73853308504750344E-03
 -7.07787386463159043E-03 -7.43413859489399503E-03 -7.80815852222616590E-03
 -8.20080472285556611E-03 -8.61298993303329791E-03 -9.04567045710131037E-03
 -9.49984815624618263E-03 -9.97657252080417882E-03 -1.04769428290362922E-02
 -1.10021103953428373E-02 -1.15532809109326912E-02 -1.21317168800037390E-02
 -1.27387401545259894E-02 -1.33757345707471425E-02 -1.40441486905621797E-02
 -1.47454986509021734E-02 -1.54813711242878169E-02 -1.62534263937026795E-02
 -1.70634015449139809E-02 -1.79131137793319267E-02 -1.88044638504518656E-02
 -1.97394396268585660E-02 -2.07201197846877613E-02 -2.17486776323368852E-02
 -2.28273850700906646E-02 -2.39586166871773205E-02 -2.51448539985942889E-02
 -2.63886898238360930E-02 -2.76928328094196326E-02 -2.90601120968290300E-02
 -3.04934821371921939E-02 -3.19960276536497695E-02 -3.35709687519803943E-02
 -3.52216661796026023E-02 -3.69516267325756195E-02 -3.87645088096680787E-02
 -4.06641281119484860E-02 -4.26544634856698968E-02 -4.47396629054686579E-02
 -4.69240495940679847E-02 -4.92121282737641719E-02 -5.16085915439742776E-02
 -5.41183263780207618E-02 -5.67464207311329169E-02 -5.94981702503699916E-02
 -6.23790850756972756E-02 -6.53948967199207976E-02 -6.85515650135054971E-02
 -7.18552850984767594E-02 -7.53124944536297802E-02 -7.89298799311384525E-02
 -8.27143847823484379E-02 -8.66732156480578553E-02 -9.08138494859083989E-02
 -9.51440404046361154E-02 -9.96718263718390785E-02 -1.04405535758603757E-01
 -1.09353793680781838E-01 -1.14525528092911569E-01 -1.19929975586716683E-01
 -1.25576686841789686E-01 -1.31475531671448737E-01 -1.37636703601852595E-01
 -1.44070723917237964E-01 -1.50788445098613000E-01 -1.57801053577375977E-01
 -1.65120071719126904E-01 -1.72757358946391854E-01 -1.80725111902073354E-01
 -1.89035863548064759E-01 -1.97702481085943627E-01 -2.06738162579106849E-01
 -2.16156432146395211E-01 -2.25971133589076806E-01 -2.36196422303895037E-01
 -2.46846755325377726E-01 -2.57936879330788182E-01 -2.69481816430960863E-01
 -2.81496847559803198E-01 -2.93997493264526122E-01 -3.06999491687685033E-01
 -3.20518773520931055E-01 -3.34571433699047349E-01 -3.49173699591408648E-01
 -3.64341895436550767E-01 -3.80092402754133085E-01 -3.96441616457321622E-01
 -4.13405896377618487E-01 -4.31001513903528533E-01 -4.49244593424338090E-01
 -4.68151048260830094E-01 -4.87736510756144548E-01 -5.08016256192432847E-01
 -5.29005120192630462E-01 -5.50717409261881841E-01 -5.73166804119906614E-01
 -5.96366255473796736E-01 -6.20327871886427906E-01 -6.45062799394947151E-01
 -6.70581092542207657E-01 -6.96891576496452281E-01 -7.24001699949072153E-01
 -7.51917378499951106E-01 -7.80642828264869748E-01 -8.10180389470096296E-01
 -8.40530339836463858E-01 -8.71690697599532993E-01 -9.03657014064594200E-01
 -9.36422155656211452E-01 -9.69976075492458678E-01 -1.00430557459489145E+00
 -1.03939405293773057E+00 -1.07522125064439122E+00 -1.11176297975782057E+00
 -1.14899084714379796E+00 -1.18687196923478755E+00 -1.22536867948719008E+00
 -1.26443822960791108E+00 -1.30403248580852327E+00 -1.34409762156778534E+00
 -1.38457380862719170E+00 -1.42539490821037163E+00 -1.46648816474601174E+00
 -1.50777390469553163E+00 -1.54916524341590978E+00 -1.59056780335699788E+00
 -1.63187944728685919E+00 -1.67299003065553142E+00 -1.71378117765255089E+00
 -1.75412608598436126E+00 -1.79388936589383663E+00 -1.83292691946420372E+00
 -1.87108586679162392E+00 -1.90820452617240921E+00 -1.94411245602864180E+00
 -1.97863056688620698E+00 -2.01157131231659347E+00 -2.04273896835234137E+00
 -2.07193001147848843E+00 -2.09893360588022260E+00 -2.12353221118003432E+00
 -2.14550232241477223E+00 -2.16461535447031617E+00 -2.18063868359438962E+00
 -2.19333685892880892E+00 -2.20247299722196344E+00 -2.20781037397893298E+00
 -2.20911422426619675E+00 -2.20615376616790737E+00 -2.19870445937725290E+00
 -2.18655051087631636E+00 -2.16948763866504457E+00 -2.14732610326025153E+00
 -2.11989401511030495E+00 -2.08704092410155440E+00 -2.04864169493149806E+00
 -2.00460066924575209E+00 -1.95485611203385901E+00 -1.89938493580587919E+00
 -1.83820769147985352E+00 -1.77139380965403337E+00 -1.69906706997274970E+00
 -1.62141126958169601E+00 -1.53867605417129072E+00 -1.45118286679914599E+00
 -1.35933096054505675E+00 -1.26360341107863472E+00 -1.16457305441844494E+00
 -1.06290826355805224E+00 -9.59378465276264469E-01 -8.54859285407768676E-01
 -7.50337197227871178E-01 -6.46913533538362229E-01 -5.45807708730185026E-01
 -4.48359482545873822E-01 -3.56030083234014749E-01 -2.70401994185952954E-01
 -1.93177195018859188E-01 -1.26173633275698555E-01 -7.13196374562736629E-02
 -3.06450858916710346E-02 -6.25426774723109903E-03  1.19735690031761715E-04
  8.58642583202643184E-06  6.06801419860461510E-07  4.22671979016623675E-08
  2.90098290172768638E-09  1.96024183097937800E-10  1.30218449315395625E-11
  8.48533835129370354E-13  5.40570045911493232E-14  3.34986477714012904E-15
  2.00328480264224272E-16  1.14074161301951366E-17  6.03197963366697603E-19
  2.79906112647194471E-20  9.48569723308718432E-22 -3.30656212363098440E-24
 -4.89950161689664227E-24 -6.51600333952135731E-25 -6.58189158320892025E-26
 -5.91503048041983319E-27 -4.97500807003392253E-28 -4.00580955661437410E-29
 -3.12496815505007897E-30 -2.37845210913102153E-31 -1.77382942094405486E-32
 -1.29982106895021813E-33 -9.37446073482625730E-35  0.00000000000000000E+00
  0.00000000000000000E+00  0.00000000000000000E+00  0.00000000000000000E+00
  0.00000000000000000E+00  0.00000000000000000E+00  0.00000000000000000E+00
  0.00000000000000000E+00  0.00000000000000000E+00  0.00000000000000000E+00
  0.00000000000000000E+00  0.00000000000000000E+00  0.00000000000000000E+00
  0.00000000000000000E+00  0.00000000000000000E+00  0.00000000000000000E+00
  0.00000000000000000E+00  0.00000000000000000E+00  0.00000000000000000E+00
  0.00000000000000000E+00  0.00000000000000000E+00  0.00000000000000000E+00
  0.00000000000000000E+00  0.00000000000000000E+00  0.00000000000000000E+00
  0.00000000000000000E+00  0.00000000000000000E+00  0.00000000000000000E+00
  0.00000000000000000E+00  0.00000000000000000E+00  0.00000000000000000E+00
  0.00000000000000000E+00  0.00000000000000000E+00  0.00000000000000000E+00
  0.00000000000000000E+00  0.00000000000000000E+00  0.00000000000000000E+00
  0.00000000000000000E+00  0.00000000000000000E+00  0.00000000000000000E+00
  0.00000000000000000E+00  0.00000000000000000E+00  0.00000000000000000E+00
  0.00000000000000000E+00  0.00000000000000000E+00  0.00000000000000000E+00
  0.00000000000000000E+00  0.00000000000000000E+00  0.00000000000000000E+00
  0.00000000000000000E+00  0.00000000000000000E+00  0.00000000000000000E+00
  0.00000000000000000E+00  0.00000000000000000E+00  0.00000000000000000E+00
  0.00000000000000000E+00  0.00000000000000000E+00  0.00000000000000000E+00
  0.00000000000000000E+00  0.00000000000000000E+00  0.00000000000000000E+00
  0.00000000000000000E+00  0.00000000000000000E+00  0.00000000000000000E+00
  0.00000000000000000E+00  0.00000000000000000E+00  0.00000000000000000E+00
  0.00000000000000000E+00  0.00000000000000000E+00  0.00000000000000000E+00
  0.00000000000000000E+00  0.00000000000000000E+00  0.00000000000000000E+00
  0.00000000000000000E+00  0.00000000000000000E+00  0.00000000000000000E+00
  0.00000000000000000E+00  0.00000000000000000E+00  0.00000000000000000E+00
  0.00000000000000000E+00  0.00000000000000000E+00  0.00000000000000000E+00
  0.00000000000000000E+00  0.00000000000000000E+00  0.00000000000000000E+00
  0.00000000000000000E+00  0.00000000000000000E+00  0.00000000000000000E+00
  0.00000000000000000E+00  0.00000000000000000E+00  0.00000000000000000E+00
  0.00000000000000000E+00  0.00000000000000000E+00  0.00000000000000000E+00
  0.00000000000000000E+00  0.00000000000000000E+00  0.00000000000000000E+00
  0.00000000000000000E+00  0.00000000000000000E+00  0.00000000000000000E+00
  0.00000000000000000E+00  0.00000000000000000E+00  0.00000000000000000E+00
  0.00000000000000000E+00  0.00000000000000000E+00  0.00000000000000000E+00
  0.00000000000000000E+00  0.00000000000000000E+00  0.00000000000000000E+00
  0.00000000000000000E+00  0.00000000000000000E+00  0.00000000000000000E+00
  0.00000000000000000E+00  0.00000000000000000E+00  0.00000000000000000E+00
  0.00000000000000000E+00  0.00000000000000000E+00  0.00000000000000000E+00
  0.00000000000000000E+00  0.00000000000000000E+00  0.00000000000000000E+00
  0.00000000000000000E+00  0.00000000000000000E+00  0.00000000000000000E+00
  0.00000000000000000E+00  0.00000000000000000E+00  0.00000000000000000E+00
  0.00000000000000000E+00  0.00000000000000000E+00  0.00000000000000000E+00
  0.00000000000000000E+00  0.00000000000000000E+00  0.00000000000000000E+00
  0.00000000000000000E+00  0.00000000000000000E+00  0.00000000000000000E+00
  0.00000000000000000E+00  0.00000000000000000E+00  0.00000000000000000E+00
  0.00000000000000000E+00  0.00000000000000000E+00  0.00000000000000000E+00
  0.00000000000000000E+00  0.00000000000000000E+00  0.00000000000000000E+00
  0.00000000000000000E+00  0.00000000000000000E+00  0.00000000000000000E+00
  0.00000000000000000E+00  0.00000000000000000E+00  0.00000000000000000E+00
  0.00000000000000000E+00  0.00000000000000000E+00  0.00000000000000000E+00
  0.00000000000000000E+00  0.00000000000000000E+00  0.00000000000000000E+00
  0.00000000000000000E+00  0.00000000000000000E+00  0.00000000000000000E+00
  0.00000000000000000E+00  0.00000000000000000E+00  0.00000000000000000E+00
                       </PP_QIJL.4.4.2>
                                   </PP_AUGMENTATION> 
                                   </PP_NONLOCAL> 
<PP_PSWFC> 
 <PP_CHI.1 type="real" size="   999" l="0" occupation=" 2.0000" columns="3" label= "3S">
  7.30681212211085895E-05  7.39872050406325388E-05  7.49178495113496400E-05
  7.58602000483471050E-05  7.68144038958088339E-05  7.77806101500222398E-05
  7.87589697826750158E-05  7.97496356644448670E-05  8.07527625888855821E-05
  8.17685072966142557E-05  8.27970284998018975E-05  8.38384869069727005E-05
  8.48930452481150711E-05  8.59608683001084468E-05  8.70421229124703063E-05
  8.81369780334262170E-05  8.92456047363087080E-05  9.03681762462877052E-05
  9.15048679674372053E-05  9.26558575101428896E-05  9.38213247188535941E-05
  9.50014517001826362E-05  9.61964228513622542E-05  9.74064248890560495E-05
  9.86316468785340401E-05  9.98722802632139988E-05  1.01128518894575336E-04
  1.02400559062448484E-04  1.03688599525685621E-04  1.04992841543217422E-04
  1.06313488905499632E-04  1.07650747966356130E-04  1.09004827675221913E-04
  1.10375939609791909E-04  1.11764298009080597E-04  1.13170119806896922E-04
  1.14593624665740770E-04  1.16035035011125709E-04  1.17494576066333291E-04
  1.18972475887604997E-04  1.20468965399775840E-04  1.21984278432357251E-04
  1.23518651756073270E-04  1.25072325119856301E-04  1.26645541288308898E-04
  1.28238546079635369E-04  1.29851588404051828E-04  1.31484920302678835E-04
  1.33138796986923192E-04  1.34813476878355528E-04  1.36509221649088667E-04
  1.38226296262664711E-04  1.39964969015456055E-04  1.41725511578586990E-04
  1.43508199040383414E-04  1.45313309949355023E-04  1.47141126357719745E-04
  1.48991933865474599E-04  1.50866021665021219E-04  1.52763682586353123E-04
  1.54685213142810287E-04  1.56630913577410279E-04  1.58601087909761767E-04
  1.60596043983567946E-04  1.62616093514728245E-04  1.64661552140043702E-04
  1.66732739466536291E-04  1.68829979121388086E-04  1.70953598802508149E-04
  1.73103930329736885E-04  1.75281309696692395E-04  1.77486077123270634E-04
  1.79718577108805449E-04  1.81979158485896716E-04  1.84268174474917063E-04
  1.86585982739201909E-04  1.88932945440935772E-04  1.91309429297740607E-04
  1.93715805639975940E-04  1.96152450468760358E-04  1.98619744514721497E-04
  2.01118073297486537E-04  2.03647827185920045E-04  2.06209401459119668E-04
  2.08803196368179773E-04  2.11429617198730476E-04  2.14089074334264807E-04
  2.16781983320261435E-04  2.19508764929114664E-04  2.22269845225881048E-04
  2.25065655634851898E-04  2.27896633006964745E-04  2.30763219688061809E-04
  2.33665863588007020E-04  2.36605018250673517E-04  2.39581142924809271E-04
  2.42594702635796499E-04  2.45646168258312095E-04  2.48736016589902464E-04
  2.51864730425484771E-04  2.55032798632783095E-04  2.58240716228715517E-04
  2.61488984456741049E-04  2.64778110865179577E-04  2.68108609386517893E-04
  2.71481000417711016E-04  2.74895810901495843E-04  2.78353574408726485E-04
  2.81854831221745408E-04  2.85400128418804018E-04  2.88990019959543170E-04
  2.92625066771550824E-04  2.96305836838007869E-04  3.00032905286435703E-04
  3.03806854478561744E-04  3.07628274101312939E-04  3.11497761258955656E-04
  3.15415920566394098E-04  3.19383364243641828E-04  3.23400712211482878E-04
  3.27468592188333448E-04  3.31587639788324961E-04  3.35758498620619098E-04
  3.39981820389971936E-04  3.44258264998565310E-04  3.48588500649115037E-04
  3.52973203949279526E-04  3.57413060017380227E-04  3.61908762589451959E-04
  3.66461014127640681E-04  3.71070525929962324E-04  3.75738018241444948E-04
  3.80464220366667414E-04  3.85249870783713688E-04  3.90095717259560744E-04
  3.95002516966918801E-04  3.99971036602538054E-04  4.05002052507007432E-04
  4.10096350786057630E-04  4.15254727433390643E-04  4.20477988455055104E-04
  4.25766949995384282E-04  4.31122438464519341E-04  4.36545290667536903E-04
  4.42036353935199489E-04  4.47596486256352649E-04  4.53226556411984670E-04
  4.58927444110974591E-04  4.64700040127547247E-04  4.70545246440456368E-04
  4.76463976373920619E-04  4.82457154740328670E-04  4.88525717984742368E-04
  4.94670614331216654E-04  5.00892803930958331E-04  5.07193259012352765E-04
  5.13572964032870793E-04  5.20032915832892404E-04  5.26574123791462680E-04
  5.33197609984006459E-04  5.39904409342028928E-04  5.46695569814821341E-04
  5.53572152533204280E-04  5.60535231975328079E-04  5.67585896134559578E-04
  5.74725246689482641E-04  5.81954399176031075E-04  5.89274483161793435E-04
  5.96686642422505627E-04  6.04192035120765377E-04  6.11791833986995767E-04
  6.19487226502679947E-04  6.27279415085906520E-04  6.35169617279245720E-04
  6.43159065939987438E-04  6.51249009432777162E-04  6.59440711824667313E-04
  6.67735453082628303E-04  6.76134529273540686E-04  6.84639252766703634E-04
  6.93250952438892042E-04  7.01970973881988294E-04  7.10800679613230531E-04
  7.19741449288103228E-04  7.28794679915903691E-04  7.37961786078025891E-04
  7.47244200148980387E-04  7.56643372520203147E-04  7.66160771826674509E-04
  7.75797885176388404E-04  7.85556218382712926E-04  7.95437296199663830E-04
  8.05442662560146684E-04  8.15573880817190662E-04  8.25832533988216577E-04
  8.36220225002381134E-04  8.46738576951024807E-04  8.57389233341276382E-04
  8.68173858352844175E-04  8.79094137098037970E-04  8.90151775885062412E-04
  9.01348502484617233E-04  9.12686066399855567E-04  9.24166239139736687E-04
  9.35790814495814148E-04  9.47561608822510395E-04  9.59480461320908417E-04
  9.71549234326120727E-04  9.83769813598267106E-04  9.96144108617115108E-04
  1.00867405288042745E-03  1.02136160420605426E-03  1.03420874503783460E-03
  1.04721748275533812E-03  1.06038984998750520E-03  1.07372790493023514E-03
  1.08723373166795816E-03  1.10090944049926311E-03  1.11475716826661426E-03
  1.12877907869021591E-03  1.14297736270607990E-03  1.15735423880833571E-03
  1.17191195339585497E-03  1.18665278112323040E-03  1.20157902525616905E-03
  1.21669301803136159E-03  1.23199712102086290E-03  1.24749372550107102E-03
  1.26318525282633734E-03  1.27907415480727621E-03  1.29516291409383956E-03
  1.31145404456319589E-03  1.32795009171249897E-03  1.34465363305658948E-03
  1.36156727853070192E-03  1.37869367089823612E-03  1.39603548616364895E-03
  1.41359543399054892E-03  1.43137625812504352E-03  1.44938073682440867E-03
  1.46761168329115560E-03  1.48607194611254730E-03  1.50476440970564681E-03
  1.52369199476796394E-03  1.54285765873376840E-03  1.56226439623613272E-03
  1.58191523957480198E-03  1.60181325918992701E-03  1.62196156414177160E-03
  1.64236330259644398E-03  1.66302166231773406E-03  1.68393987116514389E-03
  1.70512119759817023E-03  1.72656895118693580E-03  1.74828648312923881E-03
  1.77027718677410140E-03  1.79254449815190869E-03  1.81509189651120166E-03
  1.83792290486223101E-03  1.86104109052734269E-03  1.88445006569827578E-03
  1.90815348800048149E-03  1.93215506106452222E-03  1.95645853510466664E-03
  1.98106770750475746E-03  2.00598642341143609E-03  2.03121857633484183E-03
  2.05676810875684516E-03  2.08263901274694267E-03  2.10883533058589100E-03
  2.13536115539717485E-03  2.16222063178642251E-03  2.18941795648885723E-03
  2.21695737902488036E-03  2.24484320236391453E-03  2.27307978359656947E-03
  2.30167153461527906E-03  2.33062292280347434E-03  2.35993847173343553E-03
  2.38962276187291642E-03  2.41968043130063410E-03  2.45011617643077408E-03
  2.48093475274658790E-03  2.51214097554321647E-03  2.54373972067985623E-03
  2.57573592534136300E-03  2.60813458880945282E-03  2.64094077324356904E-03
  2.67415960447158320E-03  2.70779627279043407E-03  2.74185603377680555E-03
  2.77634420910802997E-03  2.81126618739327167E-03  2.84662742501518148E-03
  2.88243344698211950E-03  2.91868984779108335E-03  2.95540229230148877E-03
  2.99257651661992202E-03  3.03021832899601478E-03  3.06833361072958053E-03
  3.10692831708913415E-03  3.14600847824197125E-03  3.18558020019591792E-03
  3.22564966575291821E-03  3.26622313547461456E-03  3.30730694866002888E-03
  3.34890752433556404E-03  3.39103136225740818E-03  3.43368504392655349E-03
  3.47687523361656006E-03  3.52060867941422035E-03  3.56489221427331183E-03
  3.60973275708156979E-03  3.65513731374106842E-03  3.70111297826217732E-03
  3.74766693387123661E-03  3.79480645413217453E-03  3.84253890408217365E-03
  3.89087174138162510E-03  3.93981251747852097E-03  3.98936887878744567E-03
  4.03954856788340047E-03  4.09035942471059222E-03  4.14180938780640828E-03
  4.19390649554076626E-03  4.24665888737099737E-03  4.30007480511251147E-03
  4.35416259422539195E-03  4.40893070511714190E-03  4.46438769446179384E-03
  4.52054222653555226E-03  4.57740307456921437E-03  4.63497912211757214E-03
  4.69327936444595764E-03  4.75231290993423719E-03  4.81208898149837298E-03
  4.87261691802985328E-03  4.93390617585317062E-03  4.99596633020156413E-03
  5.05880707671130594E-03  5.12243823293469756E-03  5.18686973987205185E-03
  5.25211166352290790E-03  5.31817419645665146E-03  5.38506765940288158E-03
  5.45280250286166342E-03  5.52138930873401039E-03  5.59083879197278932E-03
  5.66116180225429821E-03  5.73236932567083770E-03  5.80447248644444698E-03
  5.87748254866214247E-03  5.95141091803289782E-03  6.02626914366661322E-03
  6.10206891987539850E-03  6.17882208799739891E-03  6.25654063824346469E-03
  6.33523671156696177E-03  6.41492260155696655E-03  6.49561075635520478E-03
  6.57731378059693388E-03  6.66004443737617212E-03  6.74381565023549588E-03
  6.82864050518072752E-03  6.91453225272087128E-03  7.00150430993351502E-03
  7.08957026255611304E-03  7.17874386710341469E-03  7.26903905301134329E-03
  7.36046992480772575E-03  7.45305076431012573E-03  7.54679603285114860E-03
  7.64172037353160177E-03  7.73783861350172981E-03  7.83516576627104125E-03
  7.93371703404690924E-03  8.03350781010241620E-03  8.13455368117379195E-03
  8.23687042988770039E-03  8.34047403721891942E-03  8.44538068497861956E-03
  8.55160675833371506E-03  8.65916884835767585E-03  8.76808375461306418E-03
  8.87836848776639258E-03  8.99004027223545242E-03  9.10311654886974964E-03
  9.21761497766426276E-03  9.33355344050704888E-03  9.45095004396105491E-03
  9.56982312208055734E-03  9.69019123926267469E-03  9.81207319313438103E-03
  9.93548801747539193E-03  1.00604549851774534E-02  1.01869936112403917E-02
  1.03151236558054211E-02  1.04448651272261734E-02  1.05762382851778049E-02
  1.07092636438048030E-02  1.08439619749078047E-02  1.09803543111699937E-02
  1.11184619494235463E-02  1.12583064539565451E-02  1.13999096598609156E-02
  1.15432936764218556E-02  1.16884808905492552E-02  1.18354939702515812E-02
  1.19843558681527931E-02  1.21350898250527917E-02  1.22877193735318399E-02
  1.24422683415996091E-02  1.25987608563892916E-02  1.27572213478973160E-02
  1.29176745527692979E-02  1.30801455181326406E-02  1.32446596054764405E-02
  1.34112424945792338E-02  1.35799201874850888E-02  1.37507190125287261E-02
  1.39236656284101295E-02  1.40987870283193102E-02  1.42761105441117364E-02
  1.44556638505351377E-02  1.46374749695081224E-02  1.48215722744513903E-02
  1.50079844946719720E-02  1.51967407198012605E-02  1.53878704042873932E-02
  1.55814033719425780E-02  1.57773698205460611E-02  1.59758003265033435E-02
  1.61767258495622915E-02  1.63801777375868068E-02  1.65861877313886776E-02
  1.67947879696183217E-02  1.70060109937150462E-02  1.72198897529175117E-02
  1.74364576093351126E-02  1.76557483430808820E-02  1.78777961574666834E-02
  1.81026356842613617E-02  1.83303019890125249E-02  1.85608305764327110E-02
  1.87942573958506005E-02  1.90306188467280618E-02  1.92699517842436566E-02
  1.95122935249433839E-02  1.97576818524594529E-02  2.00061550232976705E-02
  2.02577517726943504E-02  2.05125113205433737E-02  2.07704733773941622E-02
  2.10316781505214198E-02  2.12961663500672652E-02  2.15639791952566030E-02
  2.18351584206864756E-02  2.21097462826901452E-02  2.23877855657767591E-02
  2.26693195891472590E-02  2.29543922132873709E-02  2.32430478466385745E-02
  2.35353314523475202E-02  2.38312885550950974E-02  2.41309652480056272E-02
  2.44344081996370824E-02  2.47416646610531914E-02  2.50527824729780378E-02
  2.53678100730342533E-02  2.56867965030652470E-02  2.60097914165425756E-02
  2.63368450860590360E-02  2.66680084109084253E-02  2.70033329247526821E-02
  2.73428708033772346E-02  2.76866748725353579E-02  2.80347986158823101E-02
  2.83872961830000242E-02  2.87442223975132756E-02  2.91056327652978696E-02
  2.94715834827818345E-02  2.98421314453403662E-02  3.02173342557851485E-02
  3.05972502329490137E-02  3.09819384203665719E-02  3.13714585950515892E-02
  3.17658712763718779E-02  3.21652377350224242E-02  3.25696200020974339E-02
  3.29790808782621583E-02  3.33936839430249086E-02  3.38134935641103418E-02
  3.42385749069343825E-02  3.46689939441815267E-02  3.51048174654852857E-02
  3.55461130872122902E-02  3.59929492623506722E-02  3.64453952905033768E-02
  3.69035213279869725E-02  3.73673983980364818E-02  3.78370984011167574E-02
  3.83126941253410097E-02  3.87942592569967964E-02  3.92818683911802038E-02
  3.97755970425383021E-02  4.02755216561206039E-02  4.07817196183396721E-02
  4.12942692680413337E-02  4.18132499076847089E-02  4.23387418146324926E-02
  4.28708262525513972E-02  4.34095854829233477E-02  4.39551027766671085E-02
  4.45074624258710097E-02  4.50667497556361540E-02  4.56330511360306598E-02
  4.62064539941545865E-02  4.67870468263155287E-02  4.73749192103146075E-02
  4.79701618178428879E-02  4.85728664269874655E-02  4.91831259348474090E-02
  4.98010343702586789E-02  5.04266869066277226E-02  5.10601798748730948E-02
  5.17016107764745741E-02  5.23510782966287308E-02  5.30086823175103528E-02
  5.36745239316388650E-02  5.43487054553482285E-02  5.50313304423599089E-02
  5.57225036974569599E-02  5.64223312902583998E-02  5.71309205690921501E-02
  5.78483801749648877E-02  5.85748200556274190E-02  5.93103514797333406E-02
  6.00550870510892301E-02  6.08091407229942177E-02  6.15726278126665638E-02
  6.23456650157548226E-02  6.31283704209311819E-02  6.39208635245638451E-02
  6.47232652454658303E-02  6.55356979397169193E-02  6.63582854155553570E-02
  6.71911529483358860E-02  6.80344272955504120E-02  6.88882367119070804E-02
  6.97527109644639209E-02  7.06279813478123686E-02  7.15141806993060819E-02
  7.24114434143302010E-02  7.33199054616057583E-02  7.42397043985236482E-02
  7.51709793865027592E-02  7.61138712063656880E-02  7.70685222737262365E-02
  7.80350766543812385E-02  7.90136800797005961E-02  8.00044799620072133E-02
  8.10076254099396237E-02  8.20232672437889443E-02  8.30515580108017459E-02
  8.40926520004395689E-02  8.51467052595860641E-02  8.62138756076916701E-02
  8.72943226518455573E-02  8.83882078017640405E-02  8.94956942846844433E-02
  9.06169471601518534E-02  9.17521333346874995E-02  9.29014215763246803E-02
  9.40649825289998492E-02  9.52429887267835784E-02  9.64356146079378973E-02
  9.76430365287834917E-02  9.88654327773614838E-02  1.00102983586872613E-01
  1.01355871148876328E-01  1.02624279626231829E-01  1.03908395165761350E-01
  1.05208405910616837E-01  1.06524502012328021E-01  1.07856875642511382E-01
  1.09205721004216910E-01  1.10571234342889180E-01  1.11953613956918760E-01
  1.13353060207757622E-01  1.14769775529573223E-01  1.16203964438412299E-01
  1.17655833540846799E-01  1.19125591542071183E-01  1.20613449253420379E-01
  1.22119619599275780E-01  1.23644317623325617E-01  1.25187760494144706E-01
  1.26750167510056772E-01  1.28331760103241821E-01  1.29932761843048611E-01
  1.31553398438471719E-01  1.33193897739750239E-01  1.34854489739043515E-01
  1.36535406570138657E-01  1.38236882507141279E-01  1.39959153962099986E-01
  1.41702459481512860E-01  1.43467039741662861E-01  1.45253137542725397E-01
  1.47060997801591598E-01  1.48890867543346100E-01  1.50742995891337744E-01
  1.52617634055778301E-01  1.54515035320802269E-01  1.56435455029918041E-01
  1.58379150569778610E-01  1.60346381352195894E-01  1.62337408794323040E-01
  1.64352496296921752E-01  1.66391909220633488E-01  1.68455914860166034E-01
  1.70544782416307689E-01  1.72658782965674718E-01  1.74798189428096024E-01
  1.76963276531536651E-01  1.79154320774454728E-01  1.81371600385486914E-01
  1.83615395280350396E-01  1.85885987015846771E-01  1.88183658740850385E-01
  1.90508695144156748E-01  1.92861382399064946E-01  1.95242008104562770E-01
  1.97650861222977370E-01  2.00088232013952511E-01  2.02554411964605552E-01
  2.05049693715715131E-01  2.07574370983783174E-01  2.10128738478811250E-01
  2.12713091817625627E-01  2.15327727432579219E-01  2.17972942475453901E-01
  2.20649034716380615E-01  2.23356302437588528E-01  2.26095044321788535E-01
  2.28865559334991087E-01  2.31668146603550534E-01  2.34503105285222918E-01
  2.37370734434017044E-01  2.40271332858611741E-01  2.43205198974105974E-01
  2.46172630646860513E-01  2.49173925032183746E-01  2.52209378404605555E-01
  2.55279285980477610E-01  2.58383941732628852E-01  2.61523638196798691E-01
  2.64698666269562233E-01  2.67909314997453130E-01  2.71155871356982880E-01
  2.74438620025247437E-01  2.77757843140801097E-01  2.81113820054473385E-01
  2.84506827069792911E-01  2.87937137172675162E-01  2.91405019750024030E-01
  2.94910740296884688E-01  2.98454560111781508E-01  3.02036735979862248E-01
  3.05657519843464287E-01  3.09317158459708863E-01  3.13015893044719662E-01
  3.16753958904056443E-01  3.20531585048945633E-01  3.24348993797879293E-01
  3.28206400363151629E-01  3.32104012421886419E-01  3.36042029671110909E-01
  3.40020643366416020E-01  3.44040035843743708E-01  3.48100380023828482E-01
  3.52201838898821562E-01  3.56344565000615510E-01  3.60528699850384771E-01
  3.64754373388852970E-01  3.69021703386794464E-01  3.73330794835273982E-01
  3.77681739315128717E-01  3.82074614345191910E-01  3.86509482708762342E-01
  3.90986391757821294E-01  3.95505372694500257E-01  4.00066439829312337E-01
  4.04669589815655095E-01  4.09314800860110628E-01  4.14002031908065948E-01
  4.18731221804195697E-01  4.23502288427355267E-01  4.28315127799442974E-01
  4.33169613167816603E-01  4.38065594060860208E-01  4.43002895316319090E-01
  4.47981316082045611E-01  4.53000628788823800E-01  4.58060578094972692E-01
  4.63160879802454628E-01  4.68301219744262642E-01  4.73481252642887984E-01
  4.78700600939723220E-01  4.83958853595299054E-01  4.89255564860308911E-01
  4.94590253017429426E-01  4.99962399094010967E-01  5.05371445545780396E-01
  5.10816794911766237E-01  5.16297808440745021E-01  5.21813804689584604E-01
  5.27364058093957033E-01  5.32947797511994725E-01  5.38564204741562635E-01
  5.44212413011943896E-01  5.49891505450846640E-01  5.55600513527784501E-01
  5.61338415475017727E-01  5.67104134687362538E-01  5.72896538102374397E-01
  5.78714434562567548E-01  5.84556573161497783E-01  5.90421641575740841E-01
  5.96308264384978193E-01  6.02215001382632065E-01  6.08140345879705113E-01
  6.14082723004711450E-01  6.20040488002840506E-01  6.26011924537749342E-01
  6.31995242999651818E-01  6.37988578823659891E-01  6.43989990822626091E-01
  6.49997459539057743E-01  6.56008885620983695E-01  6.62022088227008365E-01
  6.68034803466126759E-01  6.74044682878244816E-01  6.80049291961732916E-01
  6.86046108754711725E-01  6.92032522477194600E-01  6.98005832241610613E-01
  7.03963245839652307E-01  7.09901878613851678E-01  7.15818752422737181E-01
  7.21710794708744330E-01  7.27574837678674147E-01  7.33407617606911866E-01
  7.39205774272050475E-01  7.44965850538014007E-01  7.50684292091273409E-01
  7.56357447346167278E-01  7.61981567530800041E-01  7.67552806966423362E-01
  7.73067223553605021E-01  7.78520779478904856E-01  7.83909342156122291E-01
  7.89228685416529019E-01  7.94474490962796098E-01  7.99642350101569255E-01
  8.04727765769860048E-01  8.09726154870550663E-01  8.14632850932395125E-01
  8.19443107109886881E-01  8.24152099538281169E-01  8.28754931058869659E-01
  8.33246635329303986E-01  8.37622181333356641E-01  8.41876478303944631E-01
  8.46004381072589573E-01  8.50000695857626276E-01  8.53860186502029550E-01
  8.57577581171172110E-01  8.61147579518999784E-01  8.64564860329424145E-01
  8.67824089637842078E-01  8.70919929335487564E-01  8.73847046256819859E-01
  8.76600121747354022E-01  8.79173861706195825E-01  8.81563007094055884E-01
  8.83762344893644913E-01  8.85766719505095668E-01  8.87571044554359201E-01
  8.89170315087421503E-01  8.90559620117580497E-01  8.91734155486987534E-01
  8.92689236997084246E-01  8.93420313755516116E-01  8.93922981679513007E-01
  8.94192997087615016E-01  8.94226290302969185E-01  8.94018979182246265E-01
  8.93567382474497518E-01  8.92868032904060582E-01  8.91917689860923790E-01
  8.90713351570514011E-01  8.89252266603483554E-01  8.87531944574163179E-01
  8.85550165863714489E-01  8.83304990191488670E-01  8.80794763845344053E-01
  8.78018125368818847E-01  8.74974009490294247E-01  8.71661649066698963E-01
  8.68080574802127303E-01  8.64230612490086703E-01  8.60111877517250600E-01
  8.55724766356745103E-01  8.51069944770451614E-01  8.46148332432867467E-01
  8.40961083684038768E-01  8.35509564116379111E-01  8.29795322700171756E-01
  8.23820059155720097E-01  8.17585586286872612E-01  8.11093787001600508E-01
  8.04346565760929444E-01  7.97345794218452530E-01  7.90093250839503991E-01
  7.82590554321962339E-01  7.74839090681316733E-01  7.66839933915181127E-01
  7.58593760213207680E-01  7.50100755748366654E-01  7.41360518162300086E-01
  7.32371951944673860E-01  7.23133158005330956E-01  7.13641317846941958E-01
  7.03893594282861690E-01  6.93897395148057039E-01  6.83666852180072726E-01
  6.73216294409420324E-01  6.62560123525152034E-01  6.51712787573734298E-01
  6.40688755018102962E-01  6.29502489217624972E-01  6.18168423384756971E-01
  6.06700936070487695E-01  5.95114327227315609E-01  5.83422794884761786E-01
  5.71640412524657360E-01  5.59781107106484210E-01  5.47858637860695330E-01
  5.35886575842221879E-01  5.23878284277814354E-01  5.11846899730513227E-01
  4.99805314107786780E-01  4.87766157528547628E-01  4.75741782063036689E-01
  4.63744246359812540E-01  4.51785301170154086E-01  4.39876375777769280E-01
  4.28028565339482858E-01  4.16252619140412949E-01  4.04558929765226838E-01
  3.92957523185163526E-01  3.81458049758870266E-01  3.70069776143483242E-01
  3.58801578110885089E-01  3.47661934262771921E-01  3.36658920636806913E-01
  3.25800206195038522E-01  3.15093049184568874E-01  3.04544294359456180E-01
  2.94160371051851000E-01  2.83947292079361813E-01  2.73910653474797539E-01
  2.64055635023480617E-01  2.54387001592507822E-01  2.44909105235419894E-01
  2.35625888054608656E-01  2.26540885804121295E-01  2.17657232213426699E-01
  2.08977664011328473E-01  2.00504526629614849E-01  1.92239780564667145E-01
  1.84185008374259801E-01  1.76341422285845706E-01  1.68709872391659910E-01
  1.61290855404992717E-01  1.54084523951019736E-01  1.47090696364567591E-01
  1.40308866966254192E-01  1.33738216787453706E-01  1.27377624713605919E-01
  1.21225679014473967E-01  1.15280689229072864E-01  1.09540698372187884E-01
  1.04003495428590095E-01  9.86666281003823475E-02  9.35274157722769534E-02
  8.85829626590508984E-02  8.38301710989883264E-02  7.92657549567716002E-02
  7.48862530990682534E-02  7.06880429064880161E-02  6.66673537845922926E-02
  6.28202806355905724E-02  5.91427972566488450E-02  5.56307696282098071E-02
  5.22799690568144237E-02  4.90860851377859370E-02  4.60447385039951182E-02
  4.31514933279814605E-02  4.04018695458573593E-02  3.77913547727619925E-02
  3.53154158810830635E-02  3.29695102142464266E-02  3.07490964106094528E-02
  2.86496448138029020E-02  2.66666474478270965E-02  2.47956275372284672E-02
  2.30321485548100544E-02  2.13718227815248400E-02  1.98103193654439076E-02
  1.83433718689960494E-02  1.69667852959963436E-02  1.56764425923298298E-02
  1.44683106164951829E-02  1.33384455785420172E-02  1.22829979486181792E-02
  1.12982168382585284E-02  1.03804538574049643E-02  9.52616645725362643E-03
  8.73192076784610506E-03  7.99439394153665314E-03  7.31037601556436007E-03
  6.67677130866821140E-03  6.09059936827132265E-03  5.54899548620199894E-03
  5.04921080222232085E-03  4.58861201578741884E-03  4.16468072745414340E-03
  3.77501243219906029E-03  3.41731518758533375E-03  3.08940798024208299E-03
  2.78921881448385926E-03  2.51478254710619511E-03  2.26423849245335675E-03
  2.03582782176316363E-03  1.82789078056716948E-03  1.63886374755991193E-03
  1.46727615786330706E-03  1.31174731300782630E-03  1.17098309923813551E-03
  1.04377263502698661E-03  9.28984867833226391E-04  8.25565138123995857E-04
  7.32531729480829391E-04  6.48972421501391671E-04  5.74041061001521612E-04
  5.06954166009445013E-04  4.46987575854711119E-04  3.93473159452714465E-04
  3.45795592683119303E-04  3.03389214565438867E-04  2.65734970756564273E-04
  2.32357451741677687E-04  2.02822031968331076E-04  1.76732115091111962E-04
  1.53726489456484266E-04  1.33476796969770120E-04  1.15685117552866897E-04
  1.00081670525894079E-04  8.64226334313340170E-05  7.44880780674740168E-05
  6.40800228103406081E-05  5.50205996804163660E-05  4.71503340524624776E-05
  4.03265344127579360E-05  3.44217891437142230E-05  2.93225669625723339E-05
  2.49279171972076123E-05  2.11482660408849547E-05  1.79043046301387718E-05
  1.51259646062525635E-05  1.27514767464461864E-05  1.07265081919611947E-05
  9.00337378109141405E-06  7.54031701227134946E-06  6.30085621189352465E-06
  5.25319155980863052E-06  4.36966872888124791E-06  3.62629501993542607E-06
  3.00230401654642751E-06  2.47976494214781492E-06  2.04323307175318973E-06
  1.67943772937720784E-06  1.37700458730419465E-06  1.12620917226850980E-06
  9.18758674159210123E-07  7.47599343066769910E-07  6.06746948597634681E-07
                              </PP_CHI.1>
 <PP_CHI.2 type="real" size="   999" l="0" occupation=" 0.0000" columns="3" label= "0S">
 -4.53091657397803691E-05 -4.58790848876794246E-05 -4.64561727360500700E-05
 -4.70405194560471161E-05 -4.76322163530391157E-05 -4.82313558808747974E-05
 -4.88380316563293208E-05 -4.94523384737320610E-05 -5.00743723197783356E-05
 -5.07042303885277756E-05 -5.13420110965908270E-05 -5.19878140985066746E-05
 -5.26417403023144993E-05 -5.33038918853204815E-05 -5.39743723100634165E-05
 -5.46532863404806843E-05 -5.53407400582780077E-05 -5.60368408795049595E-05
 -5.67416975713388384E-05 -5.74554202690799923E-05 -5.81781204933603838E-05
 -5.89099111675690768E-05 -5.96509066354967667E-05 -6.04012226792022462E-05
 -6.11609765371037752E-05 -6.19302869222974970E-05 -6.27092740411067952E-05
 -6.34980596118647279E-05 -6.42967668839327766E-05 -6.51055206569590419E-05
 -6.59244473003781751E-05 -6.67536747731570305E-05 -6.75933326437884788E-05
 -6.84435521105367274E-05 -6.93044660219375373E-05 -7.01762088975558157E-05
 -7.10589169490047725E-05 -7.19527281012292155E-05 -7.28577820140565216E-05
 -7.37742201040191871E-05 -7.47021855664509898E-05 -7.56418233978618863E-05
 -7.65932804185939071E-05 -7.75567052957621290E-05 -7.85322485664844794E-05
 -7.95200626614031634E-05 -8.05203019285024988E-05 -8.15331226572261119E-05
 -8.25586831028973859E-05 -8.35971435114475371E-05 -8.46486661444538951E-05
 -8.57134153044940392E-05 -8.67915573608184579E-05 -8.78832607753458553E-05
 -8.89886961289860617E-05 -9.01080361482931518E-05 -9.12414557324548419E-05
 -9.23891319806207674E-05 -9.35512442195745214E-05 -9.47279740317542087E-05
 -9.59195052836246345E-05 -9.71260241544072525E-05 -9.83477191651708409E-05
 -9.95847812082882583E-05 -1.00837403577264432E-04 -1.02105781996938476E-04
 -1.03390114654066200E-04 -1.04690602228287098E-04 -1.06007447923481214E-04
 -1.07340857499520648E-04 -1.08691039304419169E-04 -1.10058204306887376E-04
 -1.11442566129297543E-04 -1.12844341081062285E-04 -1.14263748192433451E-04
 -1.15701009248725750E-04 -1.17156348824972204E-04 -1.18629994321013945E-04
 -1.20122175997031428E-04 -1.21633127009524269E-04 -1.23163083447741934E-04
 -1.24712284370573389E-04 -1.26280971843900457E-04 -1.27869390978421478E-04
 -1.29477789967950694E-04 -1.31106420128198481E-04 -1.32755535936040798E-04
 -1.34425395069281408E-04 -1.36116258446914568E-04 -1.37828390269894901E-04
 -1.39562058062419106E-04 -1.41317532713727421E-04 -1.43095088520430608E-04
 -1.44895003229369111E-04 -1.46717558081013515E-04 -1.48563037853407278E-04
 -1.50431730906664237E-04 -1.52323929228026690E-04 -1.54239928477488712E-04
 -1.56180028033993623E-04 -1.58144531042212980E-04 -1.60133744459913874E-04
 -1.62147979105921737E-04 -1.64187549708686440E-04 -1.66252774955460595E-04
 -1.68343977542094198E-04 -1.70461484223457263E-04 -1.72605625864495881E-04
 -1.74776737491931370E-04 -1.76975158346609566E-04 -1.79201231936506955E-04
 -1.81455306090406049E-04 -1.83737733012243791E-04 -1.86048869336144160E-04
 -1.88389076182146381E-04 -1.90758719212626756E-04 -1.93158168689436791E-04
 -1.95587799531758748E-04 -1.98047991374686007E-04 -2.00539128628542780E-04
 -2.03061600538951398E-04 -2.05615801247650533E-04 -2.08202129854081016E-04
 -2.10820990477750508E-04 -2.13472792321374612E-04 -2.16157949734816396E-04
 -2.18876882279832075E-04 -2.21630014795628539E-04 -2.24417777465244612E-04
 -2.27240605882769113E-04 -2.30098941121405014E-04 -2.32993229802388595E-04
 -2.35923924164774653E-04 -2.38891482136101605E-04 -2.41896367403943250E-04
 -2.44939049488363013E-04 -2.48020003815278009E-04 -2.51139711790745914E-04
 -2.54298660876185398E-04 -2.57497344664546610E-04 -2.60736262957435955E-04
 -2.64015921843210476E-04 -2.67336833776058791E-04 -2.70699517656072960E-04
 -2.74104498910328364E-04 -2.77552309574986985E-04 -2.81043488378425997E-04
 -2.84578580825418318E-04 -2.88158139282372638E-04 -2.91782723063638402E-04
 -2.95452898518908124E-04 -2.99169239121704596E-04 -3.02932325558993127E-04
 -3.06742745821917448E-04 -3.10601095297673700E-04 -3.14507976862544037E-04
 -3.18464000976099537E-04 -3.22469785776586626E-04 -3.26525957177515398E-04
 -3.30633148965460075E-04 -3.34792002899095720E-04 -3.39003168809472416E-04
 -3.43267304701554317E-04 -3.47585076857043001E-04 -3.51957159938481585E-04
 -3.56384237094677992E-04 -3.60867000067448338E-04 -3.65406149299707882E-04
 -3.70002394044919333E-04 -3.74656452477920108E-04 -3.79369051807136658E-04
 -3.84140928388218778E-04 -3.88972827839103707E-04 -3.93865505156514679E-04
 -3.98819724833943861E-04 -4.03836260981102696E-04 -4.08915897444888407E-04
 -4.14059427931859749E-04 -4.19267656132265242E-04 -4.24541395845617962E-04
 -4.29881471107868387E-04 -4.35288716320157470E-04 -4.40763976379203394E-04
 -4.46308106809321285E-04 -4.51921973896107299E-04 -4.57606454821801257E-04
 -4.63362437802357775E-04 -4.69190822226234336E-04 -4.75092518794926761E-04
 -4.81068449665279861E-04 -4.87119548593579522E-04 -4.93246761081466431E-04
 -4.99451044523667887E-04 -5.05733368357613039E-04 -5.12094714214908616E-04
 -5.18536076074736026E-04 -5.25058460419162770E-04 -5.31662886390422453E-04
 -5.38350385950167273E-04 -5.45122004040715018E-04 -5.51978798748343894E-04
 -5.58921841468625340E-04 -5.65952217073838388E-04 -5.73071024082503545E-04
 -5.80279374831035844E-04 -5.87578395647554274E-04 -5.94969227027896796E-04
 -6.02453023813826209E-04 -6.10030955373501134E-04 -6.17704205784197252E-04
 -6.25473974017337901E-04 -6.33341474125855811E-04 -6.41307935433895956E-04
 -6.49374602728925560E-04 -6.57542736456247548E-04 -6.65813612915965069E-04
 -6.74188524462419718E-04 -6.82668779706149136E-04 -6.91255703718379570E-04
 -6.99950638238080514E-04 -7.08754941881649413E-04 -7.17669990355204301E-04
 -7.26697176669579030E-04 -7.35837911357990521E-04 -7.45093622696477121E-04
 -7.54465756927080971E-04 -7.63955778483861223E-04 -7.73565170221735400E-04
 -7.83295433648210264E-04 -7.93148089158025827E-04 -8.03124676270743835E-04
 -8.13226753871340363E-04 -8.23455900453800562E-04 -8.33813714367819220E-04
 -8.44301814068562119E-04 -8.54921838369599786E-04 -8.65675446698999833E-04
 -8.76564319358668557E-04 -8.87590157786939172E-04 -8.98754684824461334E-04
 -9.10059644983444321E-04 -9.21506804720288774E-04 -9.33097952711643870E-04
 -9.44834900133938497E-04 -9.56719480946437270E-04 -9.68753552177844830E-04
 -9.80938994216532878E-04 -9.93277711104413076E-04 -1.00577163083448960E-03
 -1.01842270565218876E-03 -1.03123291236046667E-03 -1.04420425262874558E-03
 -1.05733875330574277E-03 -1.07063846673625539E-03 -1.08410547108190865E-03
 -1.09774187064594787E-03 -1.11154979620212212E-03 -1.12553140532770622E-03
 -1.13968888274070326E-03 -1.15402444064131491E-03 -1.16854031905767940E-03
 -1.18323878619598947E-03 -1.19812213879499116E-03 -1.21319270248496222E-03
 -1.22845283215120764E-03 -1.24390491230212284E-03 -1.25955135744188927E-03
 -1.27539461244788105E-03 -1.29143715295277576E-03 -1.30768148573155328E-03
 -1.32413014909325117E-03 -1.34078571327781002E-03 -1.35765078085772566E-03
 -1.37472798714493379E-03 -1.39202000060270116E-03 -1.40952952326273769E-03
 -1.42725929114758255E-03 -1.44521207469828204E-03 -1.46339067920743721E-03
 -1.48179794525775291E-03 -1.50043674916606052E-03 -1.51931000343296600E-03
 -1.53842065719812164E-03 -1.55777169670128315E-03 -1.57736614574911435E-03
 -1.59720706618791562E-03 -1.61729755838229262E-03 -1.63764076169981509E-03
 -1.65823985500187089E-03 -1.67909805714057218E-03 -1.70021862746206264E-03
 -1.72160486631602679E-03 -1.74326011557173356E-03 -1.76518775914049925E-03
 -1.78739122350476888E-03 -1.80987397825384862E-03 -1.83263953662641112E-03
 -1.85569145605977265E-03 -1.87903333874619148E-03 -1.90266883219606178E-03
 -1.92660162980829537E-03 -1.95083547144782711E-03 -1.97537414403042583E-03
 -2.00022148211489613E-03 -2.02538136850266733E-03 -2.05085773484504777E-03
 -2.07665456225800083E-03 -2.10277588194480135E-03 -2.12922577582644323E-03
 -2.15600837718004116E-03 -2.18312787128524793E-03 -2.21058849607885279E-03
 -2.23839454281761149E-03 -2.26655035674942860E-03 -2.29506033779302296E-03
 -2.32392894122613247E-03 -2.35316067838242573E-03 -2.38276011735719627E-03
 -2.41273188372190858E-03 -2.44308066124783712E-03 -2.47381119263878407E-03
 -2.50492828027302009E-03 -2.53643678695461647E-03 -2.56834163667426629E-03
 -2.60064781537966026E-03 -2.63336037175562060E-03 -2.66648441801405891E-03
 -2.70002513069388843E-03 -2.73398775147107613E-03 -2.76837758797887461E-03
 -2.80320001463843114E-03 -2.83846047349986400E-03 -2.87416447509396180E-03
 -2.91031759929464466E-03 -2.94692549619230944E-03 -2.98399388697822600E-03
 -3.02152856483999714E-03 -3.05953539586849375E-03 -3.09802031997613711E-03
 -3.13698935182678360E-03 -3.17644858177739374E-03 -3.21640417683157756E-03
 -3.25686238160519722E-03 -3.29782951930416863E-03 -3.33931199271464895E-03
 -3.38131628520565476E-03 -3.42384896174449671E-03 -3.46691666992492240E-03
 -3.51052614100830175E-03 -3.55468419097805868E-03 -3.59939772160728418E-03
 -3.64467372154003580E-03 -3.69051926738614205E-03 -3.73694152483000988E-03
 -3.78394774975342272E-03 -3.83154528937240495E-03 -3.87974158338876950E-03
 -3.92854416515598867E-03 -3.97796066285993535E-03 -4.02799880071459237E-03
 -4.07866640017291639E-03 -4.12997138115293698E-03 -4.18192176327955318E-03
 -4.23452566714197041E-03 -4.28779131556710283E-03 -4.34172703490913556E-03
 -4.39634125635540197E-03 -4.45164251724892730E-03 -4.50763946242759526E-03
 -4.56434084558051106E-03 -4.62175553062139401E-03 -4.67989249307947455E-03
 -4.73876082150819552E-03 -4.79836971891155380E-03 -4.85872850418875638E-03
 -4.91984661359715775E-03 -4.98173360223389591E-03 -5.04439914553616708E-03
 -5.10785304080082526E-03 -5.17210520872314530E-03 -5.23716569495521946E-03
 -5.30304467168425837E-03 -5.36975243923087323E-03 -5.43729942766780876E-03
 -5.50569619845931238E-03 -5.57495344612129323E-03 -5.64508199990273844E-03
 -5.71609282548866515E-03 -5.78799702672452669E-03 -5.86080584736291526E-03
 -5.93453067283246632E-03 -6.00918303202923644E-03 -6.08477459913120931E-03
 -6.16131719543579898E-03 -6.23882279122092709E-03 -6.31730350762998473E-03
 -6.39677161858072992E-03 -6.47723955269884945E-03 -6.55871989527611905E-03
 -6.64122539025379689E-03 -6.72476894223128507E-03 -6.80936361850076072E-03
 -6.89502265110778639E-03 -6.98175943893830121E-03 -7.06958754983271365E-03
 -7.15852072272687209E-03 -7.24857286982070765E-03 -7.33975807877480010E-03
 -7.43209061493517106E-03 -7.52558492358672195E-03 -7.62025563223584380E-03
 -7.71611755292228238E-03 -7.81318568456095854E-03 -7.91147521531408715E-03
 -8.01100152499377785E-03 -8.11178018749585464E-03 -8.21382697326504194E-03
 -8.31715785179224995E-03 -8.42178899414398364E-03 -8.52773677552475656E-03
 -8.63501777787261879E-03 -8.74364879248850507E-03 -8.85364682269959916E-03
 -8.96502908655753133E-03 -9.07781301957154806E-03 -9.19201627747726589E-03
 -9.30765673904180441E-03 -9.42475250890500472E-03 -9.54332192045843387E-03
 -9.66338353876134912E-03 -9.78495616349527031E-03 -9.90805883195717413E-03
 -1.00327108220916849E-02 -1.01589316555634537E-02 -1.02867411008694710E-02
 -1.04161591764926949E-02 -1.05472061540967769E-02 -1.06799025617635036E-02
 -1.08142691872720690E-02 -1.09503270814226405E-02 -1.10880975614029362E-02
 -1.12276022142002510E-02 -1.13688629000578290E-02 -1.15119017559778547E-02
 -1.16567411992705046E-02 -1.18034039311505200E-02 -1.19519129403812732E-02
 -1.21022915069679687E-02 -1.22545632058998506E-02 -1.24087519109424508E-02
 -1.25648817984806843E-02 -1.27229773514136724E-02 -1.28830633631014917E-02
 -1.30451649413653829E-02 -1.32093075125417538E-02 -1.33755168255908097E-02
 -1.35438189562607121E-02 -1.37142403113081866E-02 -1.38868076327764538E-02
 -1.40615480023310556E-02 -1.42384888456548800E-02 -1.44176579369027832E-02
 -1.45990834032175502E-02 -1.47827937293073530E-02 -1.49688177620855897E-02
 -1.51571847153752128E-02 -1.53479241746770963E-02 -1.55410661020046418E-02
 -1.57366408407846672E-02 -1.59346791208266302E-02 -1.61352120633604761E-02
 -1.63382711861446983E-02 -1.65438884086451313E-02 -1.67520960572867667E-02
 -1.69629268707784248E-02 -1.71764140055123207E-02 -1.73925910410395561E-02
 -1.76114919856227917E-02 -1.78331512818671531E-02 -1.80576038124310549E-02
 -1.82848849058179670E-02 -1.85150303422506428E-02 -1.87480763596290685E-02
 -1.89840596595735114E-02 -1.92230174135545884E-02 -1.94649872691110698E-02
 -1.97100073561574905E-02 -1.99581162933829721E-02 -2.02093531947424923E-02
 -2.04637576760431511E-02 -2.07213698616255451E-02 -2.09822303911437677E-02
 -2.12463804264441426E-02 -2.15138616585453003E-02 -2.17847163147214216E-02
 -2.20589871656898598E-02 -2.23367175329060412E-02 -2.26179512959664118E-02
 -2.29027329001219096E-02 -2.31911073639047421E-02 -2.34831202868690178E-02
 -2.37788178574482208E-02 -2.40782468609321600E-02 -2.43814546875641865E-02
 -2.46884893407622180E-02 -2.49993994454655206E-02 -2.53142342566089959E-02
 -2.56330436677283148E-02 -2.59558782196976714E-02 -2.62827891096030532E-02
 -2.66138281997534178E-02 -2.69490480268325325E-02 -2.72885018111942088E-02
 -2.76322434663033231E-02 -2.79803276083263434E-02 -2.83328095658729219E-02
 -2.86897453898928290E-02 -2.90511918637308998E-02 -2.94172065133417801E-02
 -2.97878476176702579E-02 -3.01631742191977859E-02 -3.05432461346605184E-02
 -3.09281239659405967E-02 -3.13178691111354879E-02 -3.17125437758088435E-02
 -3.21122109844249326E-02 -3.25169345919725170E-02 -3.29267792957810418E-02
 -3.33418106475319512E-02 -3.37620950654715507E-02 -3.41876998468269300E-02
 -3.46186931804308012E-02 -3.50551441595590499E-02 -3.54971227949847645E-02
 -3.59447000282537149E-02 -3.63979477451865999E-02 -3.68569387896103134E-02
 -3.73217469773255567E-02 -3.77924471103143755E-02 -3.82691149911918577E-02
 -3.87518274379088923E-02 -3.92406622987088796E-02 -3.97356984673459049E-02
 -4.02370158985669926E-02 -4.07446956238665808E-02 -4.12588197675167051E-02
 -4.17794715628795194E-02 -4.23067353690068440E-02 -4.28406966875347905E-02
 -4.33814421798748712E-02 -4.39290596847143194E-02 -4.44836382358232002E-02
 -4.50452680801829153E-02 -4.56140406964362990E-02 -4.61900488136672213E-02
 -4.67733864305179131E-02 -4.73641488346483799E-02 -4.79624326225436895E-02
 -4.85683357196798685E-02 -4.91819574010482069E-02 -4.98033983120512794E-02
 -5.04327604897738396E-02 -5.10701473846345080E-02 -5.17156638824275636E-02
 -5.23694163267598989E-02 -5.30315125418896263E-02 -5.37020618559732113E-02
 -5.43811751247286965E-02 -5.50689647555189579E-02 -5.57655447318644304E-02
 -5.64710306383896660E-02 -5.71855396862097562E-02 -5.79091907387633553E-02
 -5.86421043380985635E-02 -5.93844027316158402E-02 -6.01362098992732352E-02
 -6.08976515812613070E-02 -6.16688553061496419E-02 -6.24499504195106178E-02
 -6.32410681130238794E-02 -6.40423414540670782E-02 -6.48539054157907663E-02
 -6.56758969076857713E-02 -6.65084548066411513E-02 -6.73517199884951789E-02
 -6.82058353600779321E-02 -6.90709458917480867E-02 -6.99471986504190679E-02
 -7.08347428330744766E-02 -7.17337298007683644E-02 -7.26443131131046110E-02
 -7.35666485631911726E-02 -7.45008942130605395E-02 -7.54472104295473706E-02
 -7.64057599206127980E-02 -7.73767077721029678E-02 -7.83602214849256212E-02
 -7.93564710126315326E-02 -8.03656287993772395E-02 -8.13878698182511490E-02
 -8.24233716099375124E-02 -8.34723143216888064E-02 -8.45348807465804847E-02
 -8.56112563630109513E-02 -8.67016293744093947E-02 -8.78061907491118065E-02
 -8.89251342603579326E-02 -9.00586565263604144E-02 -9.12069570503878518E-02
 -9.23702382608050654E-02 -9.35487055510001719E-02 -9.47425673191311518E-02
 -9.59520350076078360E-02 -9.71773231422271566E-02 -9.84186493708656684E-02
 -9.96762345016291296E-02 -1.00950302540348827E-01 -1.02241080727305839E-01
 -1.03548799573049549E-01 -1.04873692893178175E-01 -1.06215997841922025E-01
 -1.07575954944370028E-01 -1.08953808127162155E-01 -1.10349804747458521E-01
 -1.11764195619976872E-01 -1.13197235041879507E-01 -1.14649180815271853E-01
 -1.16120294267054072E-01 -1.17610840265853597E-01 -1.19121087235741357E-01
 -1.20651307166410454E-01 -1.22201775619482311E-01 -1.23772771730566694E-01
 -1.25364578206690030E-01 -1.26977481318667651E-01 -1.28611770887963384E-01
 -1.30267740267563603E-01 -1.31945686316339156E-01 -1.33645909366346127E-01
 -1.35368713182469791E-01 -1.37114404913778576E-01 -1.38883295035911791E-01
 -1.40675697283776241E-01 -1.42491928573771381E-01 -1.44332308914731505E-01
 -1.46197161306687556E-01 -1.48086811626513826E-01 -1.50001588499453276E-01
 -1.51941823155449990E-01 -1.53907849269145858E-01 -1.55900002782323993E-01
 -1.57918621707499568E-01 -1.59964045911275526E-01 -1.62036616875991940E-01
 -1.64136677438098538E-01 -1.66264571501583053E-01 -1.68420643724683045E-01
 -1.70605239177980511E-01 -1.72818702971889782E-01 -1.75061379851381871E-01
 -1.77333613755694924E-01 -1.79635747340602780E-01 -1.81968121460695298E-01
 -1.84331074608937190E-01 -1.86724942310629360E-01 -1.89150056468699562E-01
 -1.91606744657079997E-01 -1.94095329358716762E-01 -1.96616127144561864E-01
 -1.99169447789663501E-01 -2.01755593322258897E-01 -2.04374857001524884E-01
 -2.07027522219370125E-01 -2.09713861321404071E-01 -2.12434134341913744E-01
 -2.15188587647392987E-01 -2.17977452482871870E-01 -2.20800943414913048E-01
 -2.23659256664861222E-01 -2.26552568325521425E-01 -2.29481032454069450E-01
 -2.32444779033625065E-01 -2.35443911795465838E-01 -2.38478505893434611E-01
 -2.41548605421656792E-01 -2.44654220766166219E-01 -2.47795325780574949E-01
 -2.50971854775371594E-01 -2.54183699309920241E-01 -2.57430704775630403E-01
 -2.60712666758210088E-01 -2.64029327166292016E-01 -2.67380370113058263E-01
 -2.70765417536894315E-01 -2.74184024546337390E-01 -2.77635674473948602E-01
 -2.81119773622941271E-01 -2.84635645689688133E-01 -2.88182525844511872E-01
 -2.91759554452216130E-01 -2.95365770413077988E-01 -2.99000104104193032E-01
 -3.02661369900177613E-01 -3.06348258251361805E-01 -3.10059327296718923E-01
 -3.13792993987866919E-01 -3.17547524699555661E-01 -3.21321025301148699E-01
 -3.25111430662654521E-01 -3.28916493567968315E-01 -3.32733773007030165E-01
 -3.36560621817720118E-01 -3.40394173647419529E-01 -3.44231329203253555E-01
 -3.48068741759263389E-01 -3.51902801887880534E-01 -3.55729621382371186E-01
 -3.59545016336217937E-01 -3.63344489344739674E-01 -3.67123210793796118E-01
 -3.70875999199869022E-01 -3.74597300565590541E-01 -3.78281166714464101E-01
 -3.81921232568490310E-01 -3.85510692332826421E-01 -3.89042274551469280E-01
 -3.92508215998610188E-01 -3.95900234371134696E-01 -3.99209499748723884E-01
 -4.02426604789363762E-01 -4.05541533629650286E-01 -4.08543629461361635E-01
 -4.11421560758155558E-01 -4.14163286129135111E-01 -4.16756017779361498E-01
 -4.19186183561322201E-01 -4.21439387605824556E-01 -4.23500369525925957E-01
 -4.25352962193327744E-01 -4.26980048093270670E-01 -4.28363514271371482E-01
 -4.29484205894150151E-01 -4.30321878454290596E-01 -4.30855148661974385E-01
 -4.31061444075103106E-01 -4.30916951533833581E-01 -4.30396564478823795E-01
 -4.29473829247891570E-01 -4.28120890462581616E-01 -4.26308435634494443E-01
 -4.24005639141473989E-01 -4.21180105745136812E-01 -4.17797813845128763E-01
 -4.13823058691152823E-01 -4.09218395801520030E-01 -4.03944584866791800E-01
 -3.97960534449291858E-01 -3.91223247823728304E-01 -3.83687770341138157E-01
 -3.75307138737852264E-01 -3.66032332853244324E-01 -3.55812230264797191E-01
 -3.44593564396440510E-01 -3.32320886706301666E-01 -3.18936533612960371E-01
 -3.04380598874949337E-01 -2.88590912196570348E-01 -2.71503024894114431E-01
 -2.53050203520044370E-01 -2.33163432408531268E-01 -2.11771426173803151E-01
 -1.88800653262702400E-01 -1.64175371734426506E-01 -1.37817678513265485E-01
 -1.09647573434716608E-01 -7.95830394795581236E-02 -4.75401406567510579E-02
 -1.34331390800614073E-02  2.28253671514241120E-02  6.13242835907878356E-02
  1.02153834855776324E-01  1.45405354013928179E-01  1.91171044084721242E-01
  2.39543709757764151E-01  2.90616457389796967E-01  3.44482361318285857E-01
  4.01234094517286199E-01  4.60963521624350836E-01  5.23761252387819010E-01
  5.89716153624255668E-01  6.58914817838840872E-01  7.31440986749972377E-01
  8.07374928076209808E-01  8.86792764092195207E-01  9.69765750643525770E-01
  1.05635950553236713E+00  1.14663318544926018E+00  1.24063861093570416E+00
  1.33841933922058365E+00  1.44000968518411887E+00  1.54543369116006057E+00
  1.65470404684571881E+00  1.76782096116452414E+00  1.88477098855179515E+00
  2.00552581289312570E+00  2.13004099313037498E+00  2.25825467541547598E+00
  2.39008627763015991E+00  2.52543515309925937E+00  2.66417924140389184E+00
  2.80617371534710758E+00  2.95124963433223542E+00  3.09921261567832573E+00
  3.24984153670896703E+00  3.40288728179951860E+00  3.55807154994173569E+00
  3.71508573976707535E+00  3.87358993034316912E+00  4.03321197740039494E+00
  4.19354674593206589E+00  4.35415550131484608E+00  4.51456548218355813E+00
  4.67426967923124259E+00  4.83272684485284998E+00  4.98936175906583035E+00
  5.14356577738625376E+00  5.29469768625995840E+00  5.44208489111505322E+00
  5.58502496128190451E+00  5.72278755462498978E+00  5.85461674280544742E+00
  5.97973375558441411E+00  6.09734015939393892E+00  6.20662148105392486E+00
  6.30676018992016729E+00  6.39702890948864322E+00  6.47675931782749803E+00
  6.54528728465365806E+00  6.60195531258970192E+00  6.64611610108464834E+00
  6.67713637174356034E+00  6.69440095723936057E+00  6.69731715392742544E+00
  6.68531933604907547E+00  6.65787382688430629E+00  6.61448401932884789E+00
  6.55469573543730810E+00  6.47810281037984392E+00  6.38435288311981264E+00
  6.27315337134896467E+00  6.14427760380735677E+00  5.99757107817552448E+00
  5.83295780701152111E+00  5.65044670889898626E+00  5.45013799585804737E+00
  5.23222950154099120E+00  4.99702288813935969E+00  4.74492966303133645E+00
  4.47647692911683670E+00  4.19231278558945331E+00  3.89321128866436883E+00
  3.58007687461254998E+00  3.25394814046197567E+00  2.91600087104214811E+00
  2.56755019481924718E+00  2.21005174536673632E+00  1.84510170052078104E+00
  1.47443556749891047E+00  1.09992557973154814E+00  7.23576570126318264E-01
  3.47520186216652149E-01 -2.59926845783717761E-02 -3.94601406230290830E-01
 -7.55847120782198734E-01 -1.10718641854140576E+00 -1.44600724583877915E+00
 -1.76964712695759152E+00 -2.07541375466635758E+00 -2.36060797795230570E+00
 -2.62254918600023146E+00 -2.85860305175197649E+00 -3.06621155856240346E+00
 -3.24292518853302569E+00 -3.38643710114382479E+00 -3.49461907591351739E+00
 -3.56555893320419237E+00 -3.59759908329423572E+00 -3.58937578598609086E+00
 -3.53985863198784845E+00 -3.44838968401555057E+00 -3.31472164113744228E+00
 -3.13905431570363458E+00 -2.92206863991993693E+00 -2.66495735065898964E+00
 -2.36945143866423980E+00 -2.03784139439797052E+00 -1.67299224019666659E+00
 -1.27835131017805148E+00 -8.57947728789372865E-01 -4.16382549485856623E-01
  4.11914495835389374E-02  5.09101252201601406E-01  9.81197216754988943E-01
  1.45090952594213474E+00  1.91131801405146939E+00  2.35523570082604827E+00
  2.77530610458366445E+00  3.16411410614759347E+00  3.51430978883708400E+00
  3.81874428941023325E+00  4.07061626324696579E+00  4.26362709886936031E+00
  4.39214251895693852E+00  4.45135768655415109E+00  4.43746240804577052E+00
  4.34780250336157170E+00  4.18103291633352114E+00  3.93725768467193049E+00
  3.61815150297799182E+00  3.22705731948719343E+00  2.76905423592664057E+00
  2.25098995962571902E+00  1.68147221822060300E+00  1.07081391997279263E+00
  4.30927455209951127E-01 -2.24835588271418640E-01 -8.81901861358945771E-01
 -1.52475194933594449E+00 -2.13725367043705550E+00 -2.70305027130814901E+00
 -3.20599849808704729E+00 -3.63064897550371146E+00 -3.96275861426308085E+00
 -4.18982196855047029E+00 -4.30160568347224181E+00 -4.29066753170740611E+00
 -4.15283918609083358E+00 -3.88764997587717387E+00 -3.49866760971046009E+00
 -2.99373140761047862E+00 -2.38505415833341816E+00 -1.68917048864821329E+00
 -9.26712756776385316E-01 -1.22000086172250083E-01  6.97567692411726226E-01
  1.50231172408244085E+00  2.26126281583121891E+00  2.94331808475475043E+00
  3.51853516173502090E+00  3.95952167506371389E+00  4.24286594667103323E+00
  4.35054383286371937E+00  4.27122725625971000E+00  4.00141305947264048E+00
  3.54628752121503243E+00  2.92024293754326569E+00  2.14696907652209257E+00
  1.25905477767925666E+00  2.97053920159285056E-01 -6.92004480896766250E-01
 -1.65665054869930195E+00 -2.54350367634734109E+00 -3.30020928195478547E+00
 -3.87865075442635909E+00 -4.23826435960279913E+00 -4.34924894116246730E+00
 -4.19543506750379525E+00 -3.77656393333413654E+00 -3.10972879202272035E+00
 -2.22975442347054820E+00 -1.18833560330882748E+00 -5.18247240344213503E-02
  1.10234935414408319E+00  2.19053786090257496E+00  3.12878617046138752E+00
  3.83945852174107083E+00  4.25810480394468005E+00  4.33999981254591649E+00
  4.06571964592672508E+00  3.44510466528610815E+00  2.51900578129442954E+00
  1.35832962304827798E+00  6.00913698118411138E-02 -1.25955360054126198E+00
 -2.47501122567828702E+00 -3.46304897728107575E+00 -4.11571912139088969E+00
 -4.35313376958252363E+00 -4.13463663425667605E+00 -3.46681867590789405E+00
 -2.40701307339529746E+00 -1.06117405556895239E+00  4.24393490019230990E-01
  1.87728174507743106E+00  3.11820742010162721E+00  3.98336553756771927E+00
  4.34733720092850096E+00  4.14338287604729771E+00  3.37789721980930180E+00
                              </PP_CHI.2>
 <PP_CHI.3 type="real" size="   999" l="1" occupation=" 4.0000" columns="3" label= "3P">
  3.29686142487122842E-09  3.38032186903904528E-09  3.46589512440204136E-09
  3.55363467702985253E-09  3.64359536699840926E-09  3.73583342266673915E-09
  3.83040649582153842E-09  3.92737369771140403E-09  4.02679563599328084E-09
  4.12873445261425701E-09  4.23325386265224820E-09  4.34041919414001674E-09
  4.45029742889732291E-09  4.56295724439672949E-09  4.67846905668927683E-09
  4.79690506441676733E-09  4.91833929393829679E-09  5.04284764559911737E-09
  5.17050794117081469E-09  5.30139997249249493E-09  5.43560555134320797E-09
  5.57320856057700876E-09  5.71429500655246538E-09  5.85895307288941647E-09
  6.00727317558663097E-09  6.15934801953470067E-09  6.31527265645964269E-09
  6.47514454433330309E-09  6.63906360828775865E-09  6.80713230307180237E-09
  6.97945567708842681E-09  7.15614143805355579E-09  7.33730002031681428E-09
  7.52304465388661475E-09  7.71349143520261860E-09  7.90875939969970956E-09
  8.10897059620906326E-09  8.31425016324261934E-09  8.52472640720869445E-09
  8.74053088260773486E-09  8.96179847425802989E-09  9.18866748160319743E-09
  9.42127970515379044E-09  9.65978053511721472E-09  9.90431904227140885E-09
  1.01550480711387877E-08  1.04121243355191330E-08  1.06757085164407677E-08
  1.09459653625914150E-08  1.12230637932915366E-08  1.15071770040742767E-08
  1.17984825749383936E-08  1.20971625813414685E-08  1.24034037080029872E-08
  1.27173973655884063E-08  1.30393398103469303E-08  1.33694322667780866E-08
  1.37078810534035806E-08  1.40548977117230200E-08  1.44106991384343144E-08
  1.47755077210010136E-08  1.51495514766517595E-08  1.55330641948984577E-08
  1.59262855836622381E-08  1.63294614190988212E-08  1.67428436992163965E-08
  1.71666908013826868E-08  1.76012676438191080E-08  1.80468458511832429E-08
  1.85037039243431757E-08  1.89721274144493766E-08  1.94524091014135300E-08
  1.99448491769054573E-08  2.04497554319825803E-08  2.09674434494694447E-08
  2.14982368012070164E-08  2.20424672502956582E-08  2.26004749584578313E-08
  2.31726086986501019E-08  2.37592260730576774E-08  2.43606937366071548E-08
  2.49773876261378291E-08  2.56096931953743834E-08  2.62580056558478347E-08
  2.69227302239157559E-08  2.76042823740353110E-08  2.83030880984483965E-08
  2.90195841734405351E-08  2.97542184323401081E-08  3.05074500454288727E-08
  3.12797498069379435E-08  3.20716004293095065E-08  3.28834968449077449E-08
  3.37159465153674409E-08  3.45694697487740919E-08  3.54446000248729593E-08
  3.63418843285113242E-08  3.72618834915215913E-08  3.82051725432592571E-08
  3.91723410700150696E-08  4.01639935835249770E-08  4.11807498988098274E-08
  4.22232455215796044E-08  4.32921320454448699E-08  4.43880775591841674E-08
  4.55117670643204653E-08  4.66639029032694717E-08  4.78452051983261787E-08
  4.90564123017644524E-08  5.02982812573312084E-08  5.15715882734226071E-08
  5.28771292082395849E-08  5.42157200672247142E-08  5.55881975130917839E-08
  5.69954193887671187E-08  5.84382652535685362E-08  5.99176369329583359E-08
  6.14344590822132198E-08  6.29896797643633096E-08  6.45842710427622547E-08
  6.62192295886575135E-08  6.78955773041422034E-08  6.96143619608762828E-08
  7.13766578549776045E-08  7.31835664784915616E-08  7.50362172078581570E-08
  7.69357680098089727E-08  7.88834061651331190E-08  8.08803490107655661E-08
  8.29278447006620836E-08  8.50271729859344784E-08  8.71796460147363253E-08
  8.93866091523972706E-08  9.16494418223192264E-08  9.39695583681596661E-08
  9.63484089378421927E-08  9.87874803899438767E-08  1.01288297223029961E-07
  1.03852422528513584E-07  1.06481458967637395E-07  1.09177049773188262E-07
  1.11940879776568893E-07  1.14774676460871404E-07  1.17680211040608867E-07
  1.20659299568779998E-07  1.23713804071960553E-07  1.26845633714127590E-07
  1.30056745989947906E-07  1.33349147948273623E-07  1.36724897446610879E-07
  1.40186104437346367E-07  1.43734932286532348E-07  1.47373599126059580E-07
  1.51104379240059063E-07  1.54929604486400429E-07  1.58851665754177623E-07
  1.62873014458087412E-07  1.66996164070641417E-07  1.71223691693164796E-07
  1.75558239666564302E-07  1.80002517222875249E-07  1.84559302178613774E-07
  1.89231442670999964E-07  1.94021858938131555E-07  1.98933545144222861E-07
  2.03969571251051961E-07  2.09133084936779196E-07  2.14427313563344847E-07
  2.19855566193669710E-07  2.25421235659920692E-07  2.31127800684137043E-07
  2.36978828052535927E-07  2.42977974844865104E-07  2.49128990720189178E-07
  2.55435720260540401E-07  2.61902105373901885E-07  2.68532187758017913E-07
  2.75330111426579077E-07  2.82300125299356383E-07  2.89446585857904656E-07
  2.96773959868496912E-07  3.04286827173985767E-07  3.11989883556344450E-07
  3.19887943671672024E-07  3.27985944059496459E-07  3.36288946228263035E-07
  3.44802139818923782E-07  3.53530845848621145E-07  3.62480520036480843E-07
  3.71656756213597270E-07  3.81065289819346637E-07  3.90712001486202088E-07
  4.00602920715303950E-07  4.10744229645075225E-07  4.21142266915238037E-07
  4.31803531628651852E-07  4.42734687413437049E-07  4.53942566587939324E-07
  4.65434174431125218E-07  4.77216693561083997E-07  4.89297488424371779E-07
  5.01684109898999219E-07  5.14384300013947045E-07  5.27405996788154804E-07
  5.40757339192006926E-07  5.54446672234422975E-07  5.68482552178716817E-07
  5.82873751890504933E-07  5.97629266320992740E-07  6.12758318129065986E-07
  6.28270363445713971E-07  6.44175097784364676E-07  6.60482462100850793E-07
  6.77202649006778305E-07  6.94346109140183358E-07  7.11923557697469293E-07
  7.29945981130685141E-07  7.48424644014355871E-07  7.67371096086141901E-07
  7.86797179465727264E-07  8.06715036056462852E-07  8.27137115134364145E-07
  8.48076181129238565E-07  8.69545321602781013E-07  8.91557955428634688E-07
  9.14127841179535565E-07  9.37269085726757542E-07  9.60996153057269708E-07
  9.85323873314082575E-07  1.01026745206545826E-06  1.03584247980876520E-06
  1.06206494171491121E-06  1.08895122761946598E-06  1.11651814226669783E-06
  1.14478291581293712E-06  1.17376321459583311E-06  1.20347715217621559E-06
  1.23394330065949340E-06  1.26518070230364126E-06  1.29720888142103676E-06
  1.33004785658159964E-06  1.36371815312482413E-06  1.39824081598856956E-06
  1.43363742286259647E-06  1.46993009767508220E-06  1.50714152442053026E-06
  1.54529496133774220E-06  1.58441425544668363E-06  1.62452385745334337E-06
  1.66564883703191705E-06  1.70781489849382383E-06  1.75104839685340121E-06
  1.79537635430026956E-06  1.84082647708870048E-06  1.88742717285452434E-06
  1.93520756837039146E-06  1.98419752775051992E-06  2.03442767111625279E-06
  2.08592939373414295E-06  2.13873488563850421E-06  2.19287715175066264E-06
  2.24839003250755462E-06  2.30530822501247961E-06  2.36366730472128784E-06
  2.42350374767754028E-06  2.48485495331050416E-06  2.54775926781028795E-06
  2.61225600809467419E-06  2.67838548638265658E-06  2.74618903539004152E-06
  2.81570903416282212E-06  2.88698893456452961E-06  2.96007328843405009E-06
  3.03500777543093785E-06  3.11183923158558110E-06  3.19061567857208680E-06
  3.27138635372218503E-06  3.35420174079885918E-06  3.43911360154901110E-06
  3.52617500805483541E-06  3.61544037590407783E-06  3.70696549820001649E-06
  3.80080758043230578E-06  3.89702527623054619E-06  3.99567872402290042E-06
  4.09682958462264212E-06  4.20054107976619752E-06  4.30687803162662887E-06
  4.41590690332742195E-06  4.52769584048176865E-06  4.64231471378330464E-06
  4.75983516267503784E-06  4.88033064012358197E-06  5.00387645852682020E-06
  5.13054983678362087E-06  5.26042994855497796E-06  5.39359797174686184E-06
  5.53013713924553954E-06  5.67013279093718169E-06  5.81367242704424726E-06
  5.96084576281189246E-06  6.11174478457871165E-06  6.26646380726667959E-06
  6.42509953332636561E-06  6.58775111317420319E-06  6.75452020715949250E-06
  6.92551104910000385E-06  7.10083051142573664E-06  7.28058817197165583E-06
  7.46489638246107655E-06  7.65387033872245248E-06  7.84762815268352393E-06
  8.04629092618775995E-06  8.24998282667916537E-06  8.45883116480291543E-06
  8.67296647396999465E-06  8.89252259193591242E-06  9.11763674444412738E-06
  9.34844963098669510E-06  9.58510551273560028E-06  9.82775230269964258E-06
  1.00765416581633614E-05  1.03316290754655979E-05  1.05931739871770200E-05
  1.08613398617372670E-05  1.11362943056138858E-05  1.14182091680470048E-05
  1.17072606484451439E-05  1.20036294064991064E-05  1.23075006750830282E-05
  1.26190643760127457E-05  1.29385152387341009E-05  1.32660529220151806E-05
  1.36018821387184148E-05  1.39462127837307343E-05  1.42992600651313798E-05
  1.46612446386794998E-05  1.50323927457055332E-05  1.54129363544922716E-05
  1.58031133052342417E-05  1.62031674586656684E-05  1.66133488484499049E-05
  1.70339138374257253E-05  1.74651252778075908E-05  1.79072526754404902E-05
  1.83605723582113465E-05  1.88253676487227111E-05  1.93019290413362225E-05
  1.97905543836963815E-05  2.02915490628482975E-05  2.08052261960651352E-05
  2.13319068265049052E-05  2.18719201238184846E-05  2.24256035898340042E-05
  2.29933032694464597E-05  2.35753739668436375E-05  2.41721794672038865E-05
  2.47840927640038337E-05  2.54114962920778087E-05  2.60547821665750268E-05
  2.67143524279629069E-05  2.73906192932301824E-05  2.80840054134462017E-05
  2.87949441378371342E-05  2.95238797845443481E-05  3.02712679182331603E-05
  3.10375756347261659E-05  3.18232818528381168E-05  3.26288776135943726E-05
  3.34548663870204709E-05  3.43017643866931586E-05  3.51701008922499755E-05
  3.60604185800584355E-05  3.69732738622505515E-05  3.79092372343353383E-05
  3.88688936316048731E-05  3.98528427945572916E-05  4.08616996435641469E-05
  4.18960946630157820E-05  4.29566742951847924E-05  4.40441013440526097E-05
  4.51590553893514501E-05  4.63022332110800706E-05  4.74743492247571038E-05
  4.86761359276847771E-05  4.99083443564998010E-05  5.11717445562978840E-05
  5.24671260616237905E-05  5.37952983896266559E-05  5.51570915456886057E-05
  5.65533565418409041E-05  5.79849659282916560E-05  5.94528143383961602E-05
  6.09578190474086235E-05  6.25009205453648444E-05  6.40830831244516066E-05
  6.57052954812294723E-05  6.73685713340840700E-05  6.90739500562897638E-05
  7.08224973250815281E-05  7.26153057871373192E-05  7.44534957408875633E-05
  7.63382158360747208E-05  7.82706437909997256E-05  8.02519871279014748E-05
  8.22834839269270254E-05  8.43664035991621730E-05  8.65020476792031619E-05
  8.86917506377631374E-05  9.09368807148188481E-05  9.32388407738159294E-05
  9.55990691774642032E-05  9.80190406856682383E-05  1.00500267376150642E-04
  1.03044299588341966E-04  1.05652726891123110E-04  1.08327179075022262E-04
  1.11069327169483566E-04  1.13880884485838887E-04  1.16763607686632345E-04
  1.19719297881960360E-04  1.22749801753509977E-04  1.25857012706992412E-04
  1.29042872053688866E-04  1.32309370221841245E-04  1.35658547998640777E-04
  1.39092497803585004E-04  1.42613364993994079E-04  1.46223349203496292E-04
  1.49924705714313006E-04  1.53719746864195187E-04  1.57610843488883236E-04
  1.61600426400984994E-04  1.65690987906189953E-04  1.69885083357757021E-04
  1.74185332750241925E-04  1.78594422353450165E-04  1.83115106387627655E-04
  1.87750208740928361E-04  1.92502624730219563E-04  1.97375322906317258E-04
  2.02371346904767923E-04  2.07493817343320738E-04  2.12745933767267362E-04
  2.18130976643847501E-04  2.23652309406957757E-04  2.29313380553424769E-04
  2.35117725792138811E-04  2.41068970247376084E-04  2.47170830717668869E-04
  2.53427117991619484E-04  2.59841739222086126E-04  2.66418700360206118E-04
  2.73162108650756982E-04  2.80076175190395915E-04  2.87165217550350109E-04
  2.94433662465178286E-04  3.01886048589256712E-04  3.09527029322688191E-04
  3.17361375708371152E-04  3.25393979402012717E-04  3.33629855716912206E-04
  3.42074146745383794E-04  3.50732124558740467E-04  3.59609194487800639E-04
  3.68710898485932151E-04  3.78042918576699063E-04  3.87611080388220765E-04
  3.97421356776417290E-04  4.07479871539351897E-04  4.17792903224952676E-04
  4.28366889034439069E-04  4.39208428823842335E-04  4.50324289206067562E-04
  4.61721407756001821E-04  4.73406897321234895E-04  4.85388050441029671E-04
  4.97672343876226649E-04  5.10267443252855981E-04  5.23181207822275072E-04
  5.36421695340734785E-04  5.49997167071341014E-04  5.63916092911453731E-04
  5.78187156648633815E-04  5.92819261348332695E-04  6.07821534876590861E-04
  6.23203335561090324E-04  6.38974257993991891E-04  6.55144138980067771E-04
  6.71723063633723446E-04  6.88721371628594320E-04  7.06149663603488124E-04
  7.24018807728534657E-04  7.42339946435496660E-04  7.61124503316298971E-04
  7.80384190193913422E-04  8.00131014369856257E-04  8.20377286052638346E-04
  8.41135625971626221E-04  8.62418973180869219E-04  8.84240593057559554E-04
  9.06614085499906448E-04  9.29553393329308748E-04  9.53072810901839720E-04
  9.77186992934166426E-04  1.00191096354914711E-03  1.02726012554647957E-03
  1.05325026990389474E-03  1.07989758551452057E-03  1.10721866916617070E-03
  1.13523053576844858E-03  1.16395062883369667E-03  1.19339683121795341E-03
  1.22358747612823552E-03  1.25454135840259609E-03  1.28627774606955960E-03
  1.31881639219370763E-03  1.35217754701430579E-03  1.38638197038405643E-03
  1.42145094451520530E-03  1.45740628704038849E-03  1.49427036439580218E-03
  1.53206610553440793E-03  1.57081701597709266E-03  1.61054719220986840E-03
  1.65128133643537554E-03  1.69304477168713942E-03  1.73586345731521850E-03
  1.77976400485207261E-03  1.82477369426767397E-03  1.87092049062308392E-03
  1.91823306113190367E-03  1.96674079263925048E-03  2.01647380952806694E-03
  2.06746299206281986E-03  2.11973999518086289E-03  2.17333726774190548E-03
  2.22828807224633579E-03  2.28462650503328786E-03  2.34238751696960994E-03
  2.40160693464115498E-03  2.46232148205796381E-03  2.52456880288524834E-03
  2.58838748321223991E-03  2.65381707487128164E-03  2.72089811931973099E-03
  2.78967217209754193E-03  2.86018182787361628E-03  2.93247074609428657E-03
  3.00658367724753080E-03  3.08256648975682767E-03  3.16046619751876806E-03
  3.24033098809884583E-03  3.32221025160010742E-03  3.40615461021960986E-03
  3.49221594850790363E-03  3.58044744434705443E-03  3.67090360066295611E-03
  3.76364027788800510E-03  3.85871472719045289E-03  3.95618562448705070E-03
  4.05611310525585706E-03  4.15855880016639725E-03  4.26358587154459547E-03
  4.37125905069020004E-03  4.48164467606471453E-03  4.59481073236808497E-03
  4.71082689052269073E-03  4.82976454858346452E-03  4.95169687359318933E-03
  5.07669884440236502E-03  5.20484729547316186E-03  5.33622096168740161E-03
  5.47090052417862401E-03  5.60896865720855557E-03  5.75051007610862062E-03
  5.89561158630722611E-03  6.04436213346389029E-03  6.19685285473141854E-03
  6.35317713116754969E-03  6.51343064131765844E-03  6.67771141599034831E-03
  6.84611989424778467E-03  7.01875898063292029E-03  7.19573410365578932E-03
  7.37715327556112254E-03  7.56312715339975319E-03  7.75376910142621702E-03
  7.94919525484503488E-03  8.14952458492824300E-03  8.35487896552662354E-03
  8.56538324099712263E-03  8.78116529556883900E-03  9.00235612416988747E-03
  9.22908990473727577E-03  9.46150407203177890E-03  9.69973939297957138E-03
  9.94394004356211579E-03  1.01942536872754903E-02  1.04508315551800294E-02
  1.07138285275606773E-02  1.09834032172180171E-02  1.12597180544094806E-02
  1.15429393734595206E-02  1.18332375010570447E-02  1.21307868462575200E-02
  1.24357659922064989E-02  1.27483577896003574E-02  1.30687494518991094E-02
  1.33971326523050858E-02  1.37337036225201516E-02  1.40786632532928606E-02
  1.44322171967656045E-02  1.47945759706302783E-02  1.51659550640997186E-02
  1.55465750457000357E-02  1.59366616728872333E-02  1.63364460034898205E-02
  1.67461645089765944E-02  1.71660591895467680E-02  1.75963776910370365E-02
  1.80373734236376967E-02  1.84893056824069688E-02  1.89524397695697150E-02
  1.94270471185838227E-02  1.99134054199536469E-02  2.04117987487667553E-02
  2.09225176939260397E-02  2.14458594890453019E-02  2.19821281449721628E-02
  2.25316345838972448E-02  2.30946967750038264E-02  2.36716398716071766E-02
  2.42627963497267750E-02  2.48685061480291951E-02  2.54891168090730785E-02
  2.61249836217810477E-02  2.67764697650566680E-02  2.74439464524568050E-02
  2.81277930778227603E-02  2.88283973617645441E-02  2.95461554988846326E-02
  3.02814723056179617E-02  3.10347613685566237E-02  3.18064451931159148E-02
  3.25969553523888164E-02  3.34067326360242625E-02  3.42362271989535422E-02
  3.50858987097759575E-02  3.59562164986026028E-02  3.68476597041430959E-02
  3.77607174198055645E-02  3.86958888385659158E-02  3.96536833963455904E-02
  4.06346209136212236E-02  4.16392317349723734E-02  4.26680568662542448E-02
  4.37216481090648146E-02  4.48005681921545690E-02  4.59053908994068935E-02
  4.70367011939953686E-02  4.81950953383010819E-02  4.93811810091494552E-02
  5.05955774079017290E-02  5.18389153649091647E-02  5.31118374378126284E-02
  5.44149980031404246E-02  5.57490633406290056E-02  5.71147117096602319E-02
  5.85126334171764129E-02  5.99435308764022096E-02  6.14081186556703559E-02
  6.29071235166074466E-02  6.44412844409017471E-02  6.60113526448368182E-02
  6.76180915807346322E-02  6.92622769244103376E-02  7.09446965476984437E-02
  7.26661504750659298E-02  7.44274508232826565E-02  7.62294217230713028E-02
  7.80728992216118689E-02  7.99587311647253635E-02  8.18877770575087427E-02
  8.38609079021425674E-02  8.58790060115363768E-02  8.79429647974220158E-02
  9.00536885314487529E-02  9.22120920777739356E-02  9.44191005955854895E-02
  9.66756492099298814E-02  9.89826826491584238E-02  1.01341154847241918E-01
  1.03752028509138977E-01  1.06216274637339694E-01  1.08734872017641010E-01
  1.11308806662142240E-01  1.13939071207385778E-01  1.16626664265509772E-01
  1.19372589726195993E-01  1.22177856007141830E-01  1.25043475250719488E-01
  1.27970462464420343E-01  1.30959834602621006E-01  1.34012609587145060E-01
  1.37129805264035620E-01  1.40312438293900416E-01  1.43561522973132322E-01
  1.46878069983263665E-01  1.50263085065663743E-01  1.53717567618748580E-01
  1.57242509214835902E-01  1.60838892033749736E-01  1.64507687210254522E-01
  1.68249853092384882E-01  1.72066333407729644E-01  1.75958055334732466E-01
  1.79925927476083880E-01  1.83970837731306985E-01  1.88093651065674605E-01
  1.92295207172649224E-01  1.96576318027106123E-01  2.00937765326680590E-01
  2.05380297818685609E-01  2.09904628510179991E-01  2.14511431758893700E-01
  2.19201340242891896E-01  2.23974941807053352E-01  2.28832776184666381E-01
  2.33775331592683266E-01  2.38803041199467769E-01  2.43916279464177349E-01
  2.49115358347275689E-01  2.54400523392064537E-01  2.59771949677546410E-01
  2.65229737643414287E-01  2.70773908788476902E-01  2.76404401244398690E-01
  2.82121065227261103E-01  2.87923658370113467E-01  2.93811840940429947E-01
  2.99785170947166280E-01  3.05843099142972363E-01  3.11984963928036763E-01
  3.18209986163018821E-01  3.24517263899590958E-01  3.30905767038237764E-01
  3.37374331924162607E-01  3.43921655893445199E-01  3.50546291782971642E-01
  3.57246642418991511E-01  3.64020955100788024E-01  3.70867316097532151E-01
  3.77783645178047967E-01  3.84767690194968259E-01  3.91817021746618255E-01
  3.98929027941867798E-01  4.06100909295176116E-01  4.13329673781115847E-01
  4.20612132079766776E-01  4.27944893046548425E-01  4.35324359442271602E-01
  4.42746723961441824E-01  4.50207965599127513E-01  4.57703846398988867E-01
  4.65229908627343980E-01  4.72781472420411075E-01  4.80353633954062775E-01
  4.87941264187585488E-01  4.95539008234963940E-01  5.03141285419141049E-01
  5.10742290066446780E-01  5.18335993099952375E-01  5.25916144491823778E-01
  5.33476276635876157E-01  5.41009708702244407E-01  5.48509552035519321E-01
  5.55968716658970741E-01  5.63379918946096292E-01  5.70735690519459826E-01
  5.78028388434975948E-01  5.85250206707149445E-01  5.92393189227315986E-01
  5.99449244122571168E-01  6.06410159597676968E-01  6.13267621295770171E-01
  6.20013231205999049E-01  6.26638528137203110E-01  6.33135009766342960E-01
  6.39494156258403557E-01  6.45707455440907463E-01  6.51766429500795885E-01
  6.57662663154218508E-01  6.63387833220559830E-01  6.68933739510771730E-01
  6.74292336916641144E-01  6.79455768561949225E-01  6.84416399848502111E-01
  6.89166853199689289E-01  6.93700043271526456E-01  6.98009212366655474E-01
  7.02087965747471010E-01  7.05930306505974325E-01  7.09530669607687736E-01
  7.12883954681084342E-01  7.15985557078986479E-01  7.18831396691334334E-01
  7.21417943940540485E-01  7.23742242341776310E-01  7.25801926961518906E-01
  7.27595238059170701E-01  7.29121029149258026E-01  7.30378768676508749E-01
  7.31368534453977981E-01  7.32090999976454437E-01  7.32547411688907912E-01
  7.32739556264161984E-01  7.32669716926865999E-01  7.32340617853925568E-01
  7.31755355686770970E-01  7.30917317210233675E-01  7.29830082288611126E-01
  7.28497311204108100E-01  7.26922615618775581E-01  7.25109412480959281E-01
  7.23060760322995821E-01  7.20779177552721584E-01  7.18266442536942717E-01
  7.15523375487918556E-01  7.12549602430247231E-01  7.09343301827629946E-01
  7.05900934793360801E-01  7.02216960203456919E-01  6.98283536559486162E-01
  6.94091231381695040E-01  6.89639473043903051E-01  6.84934133258935707E-01
  6.79981369784599998E-01  6.74787520012757214E-01  6.69359089981034105E-01
  6.63702743397424189E-01  6.57825290672078733E-01  6.51733677981101267E-01
  6.45434976387689652E-01  6.38936371044302120E-01  6.32245150497620645E-01
  6.25368696116144762E-01  6.18314471658342635E-01  6.11090012997322241E-01
  6.03702918016089551E-01  5.96160836685418860E-01  5.88471461333666013E-01
  5.80642517120360302E-01  5.72681752718611103E-01  5.64596931210598840E-01
  5.56395821200783014E-01  5.48086188149211173E-01  5.39675785925992413E-01
  5.31172348586851251E-01  5.22583582368320032E-01  5.13917157901610966E-01
  5.05180702640179113E-01  4.96381793499035884E-01  4.87527949701187679E-01
  4.78626625826424290E-01  4.69685205057632726E-01  4.60710992619491999E-01
  4.51711209404392189E-01  4.42692985780406334E-01  4.33663355576310028E-01
  4.24629250238914124E-01  4.15597493158260112E-01  4.06574794156707886E-01
  3.97567744138394852E-01  3.88582809896160619E-01  3.79626329073603663E-01
  3.70704505280029906E-01  3.61823403358739637E-01  3.52988944808537264E-01
  3.44206903357552607E-01  3.35482900691466801E-01  3.26822402338360241E-01
  3.18230713713110791E-01  3.09712976325019096E-01  3.01274164153073565E-01
  2.92919080193937476E-01  2.84652353188404539E-01  2.76478434532622441E-01
  2.68401595380955704E-01  2.60425923947786464E-01  2.52555323015956901E-01
  2.44793507659861631E-01  2.37144003191418540E-01  2.29610143337315054E-01
  2.22195068655925781E-01  2.14901725202291144E-01  2.07732863449399424E-01
  2.00691037473766543E-01  1.93778604412986888E-01  1.86997724202492110E-01
  1.80350359598255211E-01  1.73838276491539989E-01  1.67463044521231119E-01
  1.61226037988234872E-01  1.55128437075649689E-01  1.49171229377622006E-01
  1.43355211738720401E-01  1.37680992404614955E-01  1.32148993483693050E-01
  1.26759453718121445E-01  1.21512431561625958E-01  1.16407808560063469E-01
  1.11445293029604695E-01  1.06624424026070655E-01  1.01944575597744599E-01
  9.74049613126891090E-02  9.30046390504059295E-02  8.87425160464454382E-02
  8.46173541774171839E-02  8.06277754727438012E-02  7.67722678384149954E-02
  7.30491909770177583E-02  6.94567824873763978E-02  6.59931641263010599E-02
  6.26563482141693218E-02  5.94442441653924708E-02  5.63546651245053903E-02
  5.33853346879915869E-02  5.05338936899640129E-02  4.77979070326836897E-02
  4.51748705409144094E-02  4.26622178191717744E-02  4.02573270911697687E-02
  3.79575280009482527E-02  3.57601083554853899E-02  3.36623207889944417E-02
  3.16613893296248047E-02  2.97545158499075701E-02  2.79388863829904445E-02
  2.62116772875132381E-02  2.45700612448531246E-02  2.30112130734366239E-02
  2.15323153458440615E-02  2.01305637955180271E-02  1.88031725010431999E-02
  1.75473788371416466E-02  1.63604481827661283E-02  1.52396783779180350E-02
  1.41824039220906552E-02  1.31859999085249639E-02  1.22478856897394253E-02
  1.13655282712380751E-02  1.05364454317092657E-02  9.75820856724252811E-03
  9.02844526158593300E-03  8.34484158399675241E-03  7.70514411716265342E-03
  7.10716171900982116E-03  6.54876702323977430E-03  6.02789768439480553E-03
  5.54255737415141041E-03  5.09081653636989703E-03  4.67081290918624180E-03
  4.28075182312106887E-03  3.91890628478998564E-03  3.58361685633776109E-03
  3.27329134117770827E-03  2.98640428700324301E-03  2.72149631734763548E-03
  2.47717330320322343E-03  2.25210538637409322E-03  2.04502586632944244E-03
  1.85472996235021064E-03  1.68007346272070466E-03  1.51997127261732385E-03
  1.37339587218547349E-03  1.23937569612564717E-03  1.11699344597496458E-03
  1.00538434508716024E-03  9.03734347228056316E-04  8.11278308838978284E-04
  7.27298134347027564E-04  6.51120903611608431E-04  5.82116990122463979E-04
  5.19698178069022713E-04  4.63315785889474162E-04  4.12458803385734065E-04
  3.66652048959448555E-04  3.25454352990222316E-04  2.88456772842328305E-04
  2.55280844454796165E-04  2.25576874944673553E-04  1.99022280137239123E-04
  1.75319970433386000E-04  1.54196787934989823E-04  1.35401997276732576E-04
  1.18705832159086413E-04  1.03898099143997266E-04  9.07868398635913059E-05
                              </PP_CHI.3>
 <PP_CHI.4 type="real" size="   999" l="1" occupation=" 0.0000" columns="3" label= "0P">
  9.17794405652670060E-09  9.41028481537583441E-09  9.64850730848115166E-09
  9.89276043265130631E-09  1.01431968540354975E-08  1.03999731035447206E-08
  1.06632496746887062E-08  1.09331911238895012E-08  1.12099661733346054E-08
  1.14937478164339422E-08  1.17847134259461898E-08  1.20830448648425649E-08
  1.23889285999771447E-08  1.27025558186346408E-08  1.30241225480286812E-08
  1.33538297778251195E-08  1.36918835857672165E-08  1.40384952664808090E-08
  1.43938814635403270E-08  1.47582643048782154E-08  1.51318715416218456E-08
  1.55149366904454898E-08  1.59076991795258498E-08  1.63104044981923523E-08
  1.67233043503660312E-08  1.71466568118825631E-08  1.75807264917980518E-08
  1.80257846977782438E-08  1.84821096056746888E-08  1.89499864333936617E-08
  1.94297076191664816E-08  1.99215730043330641E-08  2.04258900207522428E-08
  2.09429738829568113E-08  2.14731477851729006E-08  2.20167431033265999E-08
  2.25740996021648834E-08  2.31455656476193698E-08  2.37314984245463060E-08
  2.43322641599790041E-08  2.49482383520311571E-08  2.55798060045956922E-08
  2.62273618679843897E-08  2.68913106856596003E-08  2.75720674472123413E-08
  2.82700576477437461E-08  2.89857175538136607E-08  2.97194944761210991E-08
  3.04718470490879588E-08  3.12432455175205732E-08  3.20341720305274870E-08
  3.28451209428786883E-08  3.36765991239929368E-08  3.45291262747477673E-08
  3.54032352523092856E-08  3.62994724031849941E-08  3.72183979047080165E-08
  3.81605861151661866E-08  3.91266259327942720E-08  4.01171211638547484E-08
  4.11326909000356920E-08  4.21739699054033221E-08  4.32416090131500629E-08
  4.43362755323860939E-08  4.54586536652293975E-08  4.66094449344534905E-08
  4.77893686219623603E-08  4.89991622183646699E-08  5.02395818839289156E-08
  5.15114029212081911E-08  5.28154202596289805E-08  5.41524489523479265E-08
  5.55233246856859071E-08  5.69289043014589024E-08  5.83700663325323308E-08
  5.98477115519316495E-08  6.13627635358539061E-08  6.29161692409334760E-08
  6.45088995961203243E-08  6.61419501095415845E-08  6.78163414907253577E-08
  6.95331202885775903E-08  7.12933595455088128E-08  7.30981594681194335E-08
  7.49486481148647866E-08  7.68459821011269058E-08  7.87913473221368690E-08
  8.07859596941972237E-08  8.28310659146678596E-08  8.49279442411924463E-08
  8.70779052906496084E-08  8.92822928583309031E-08  9.15424847578556068E-08
  9.38598936823476569E-08  9.62359680874144010E-08  9.86721930964772747E-08
  1.01170091429021961E-07  1.03731224352344923E-07  1.06357192657395875E-07
  1.09049637659324140E-07  1.11810242223350542E-07  1.14640731816613272E-07
  1.17542875586639461E-07  1.20518487467117376E-07  1.23569427311663205E-07
  1.26697602056287615E-07  1.29904966911293294E-07  1.33193526583340813E-07
  1.36565336528453989E-07  1.40022504236745983E-07  1.43567190549664963E-07
  1.47201611010590283E-07  1.50928037249616125E-07  1.54748798403390905E-07
  1.58666282570902552E-07  1.62682938306112322E-07  1.66801276148381042E-07
  1.71023870191634152E-07  1.75353359693247922E-07  1.79792450723674554E-07
  1.84343917857812463E-07  1.89010605909206430E-07  1.93795431708146991E-07
  1.98701385924776854E-07  2.03731534938352619E-07  2.08889022753828895E-07
  2.14177072966957668E-07  2.19598990779134651E-07  2.25158165063254938E-07
  2.30858070481864289E-07  2.36702269658924182E-07  2.42694415406568019E-07
  2.48838253008215703E-07  2.55137622559497975E-07  2.61596461368429355E-07
  2.68218806416344022E-07  2.75008796881135498E-07  2.81970676724372617E-07
  2.89108797343898503E-07  2.96427620293591265E-07  3.03931720071966607E-07
  3.11625786981382966E-07  3.19514630059620896E-07  3.27603180085671443E-07
  3.35896492661630740E-07  3.44399751372597601E-07  3.53118271026571321E-07
  3.62057500976367081E-07  3.71223028525620033E-07  3.80620582421022885E-07
  3.90256036432958743E-07  4.00135413026785265E-07  4.10264887127052310E-07
  4.20650789977008249E-07  4.31299613095819679E-07  4.42218012335961894E-07
  4.53412812043314583E-07  4.64891009322584964E-07  4.76659778410696547E-07
  4.88726475160904265E-07  5.01098641640404660E-07  5.13784010844355238E-07
  5.26790511529212178E-07  5.40126273168430000E-07  5.53799631033626395E-07
  5.67819131404349848E-07  5.82193536909759406E-07  5.96931832005503187E-07
  6.12043228589268040E-07  6.27537171758466204E-07  6.43423345713694117E-07
  6.59711679811615772E-07  6.76412354771092866E-07  6.93535809036409386E-07
  7.11092745301599106E-07  7.29094137199910838E-07  7.47551236162627868E-07
  7.66475578451518660E-07  7.85878992369313025E-07  8.05773605652711038E-07
  8.26171853052533715E-07  8.47086484105778640E-07  8.68530571104410644E-07
  8.90517517265893703E-07  9.13061065110541926E-07  9.36175305050959750E-07
  9.59874684198909147E-07  9.84174015395114516E-07  1.00908848646767564E-06
  1.03463366972482374E-06  1.06082553168804766E-06  1.08768044307149771E-06
  1.11521518901414362E-06  1.14344697957086123E-06  1.17239346046914739E-06
  1.20207272413812444E-06  1.23250332101673179E-06  1.26370427114817402E-06
  1.29569507606793106E-06  1.32849573099260513E-06  1.36212673731747235E-06
  1.39660911543021675E-06  1.43196441784922613E-06  1.46821474269434476E-06
  1.50538274749870929E-06  1.54349166337015621E-06  1.58256530951120317E-06
  1.62262810810651888E-06  1.66370509958729159E-06  1.70582195828203896E-06
  1.74900500846354160E-06  1.79328124080205716E-06  1.83867832923499989E-06
  1.88522464826369556E-06  1.93294929068795383E-06  1.98188208578961147E-06
  2.03205361797639709E-06  2.08349524589768853E-06  2.13623912204423271E-06
  2.19031821284397475E-06  2.24576631926665663E-06  2.30261809794993611E-06
  2.36090908286031044E-06  2.42067570750247904E-06  2.48195532769069180E-06
  2.54478624489678326E-06  2.60920773018905333E-06  2.67526004877723527E-06
  2.74298448517881562E-06  2.81242336902224936E-06  2.88362010150368283E-06
  2.95661918251299334E-06  3.03146623844682072E-06  3.10820805072547644E-06
  3.18689258503187812E-06  3.26756902129047007E-06  3.35028778440507495E-06
  3.43510057577490938E-06  3.52206040560839239E-06  3.61122162605477564E-06
  3.70263996517457386E-06  3.79637256177005637E-06  3.89247800109705868E-06
  3.99101635148115295E-06  4.09204920186047200E-06  4.19563970027904031E-06
  4.30185259335430682E-06  4.41075426674389662E-06  4.52241278663666099E-06
  4.63689794229410590E-06  4.75428128966832143E-06  4.87463619612455990E-06
  4.99803788629556690E-06  5.12456348909638307E-06  5.25429208592996320E-06
  5.38730476011225429E-06  5.52368464754885029E-06  5.66351698869429964E-06
  5.80688918182647787E-06  5.95389083766977222E-06  6.10461383540074343E-06
  6.25915238007158253E-06  6.41760306148680525E-06  6.58006491457069639E-06
  6.74663948126250852E-06  6.91743087397833376E-06  7.09254584067974194E-06
  7.27209383158891699E-06  7.45618706759299470E-06  7.64494061037945974E-06
  7.83847243434711257E-06  8.03690350033706201E-06  8.24035783123022180E-06
  8.44896258945785227E-06  8.66284815647469767E-06  8.88214821424307456E-06
  9.10699982877998353E-06  9.33754353581854217E-06  9.57392342863773259E-06
  9.81628724811548346E-06  1.00647864750606737E-05  1.03195764248826306E-05
  1.05808163446562756E-05  1.08486695126446500E-05  1.11233033403401275E-05
  1.14048894770881648E-05  1.16936039173597204E-05  1.19896271107382687E-05
  1.22931440746906652E-05  1.26043445101928021E-05  1.29234229202810878E-05
  1.32505787316046687E-05  1.35860164190546010E-05  1.39299456335466006E-05
  1.42825813330383530E-05  1.46441439168629620E-05  1.50148593634616940E-05
  1.53949593716034018E-05  1.57846815051772865E-05  1.61842693416507786E-05
  1.65939726242845976E-05  1.70140474181997481E-05  1.74447562703949285E-05
  1.78863683738131710E-05  1.83391597355610296E-05  1.88034133493849793E-05
  1.92794193725125091E-05  1.97674753069690921E-05  2.02678861854832252E-05
  2.07809647620969231E-05  2.13070317075993328E-05  2.18464158099061675E-05
  2.23994541795104071E-05  2.29664924601321926E-05  2.35478850446987766E-05
  2.41439952967911469E-05  2.47551957776927459E-05  2.53818684791860005E-05
  2.60244050622377970E-05  2.66832071017260868E-05  2.73586863373582824E-05
  2.80512649309396500E-05  2.87613757301518572E-05  2.94894625390044648E-05
  3.02359803951324895E-05  3.10013958541076348E-05  3.17861872809454280E-05
  3.25908451489869793E-05  3.34158723463444501E-05  3.42617844900986444E-05
  3.51291102484466925E-05  3.60183916710022579E-05  3.69301845274496224E-05
  3.78650586547677468E-05  3.88235983132394043E-05  3.98064025514661580E-05
  4.08140855806183358E-05  4.18472771581544331E-05  4.29066229812445456E-05
  4.39927850901523549E-05  4.51064422818145571E-05  4.62482905338905130E-05
  4.74190434395322120E-05  4.86194326531563264E-05  4.98502083474917373E-05
  5.11121396821871777E-05  5.24060152842731344E-05  5.37326437407765998E-05
  5.50928541037955222E-05  5.64874964083490408E-05  5.79174422033253838E-05
  5.93835850958571778E-05  6.08868413094678851E-05  6.24281502563304959E-05
  6.40084751240027372E-05  6.56288034769974350E-05  6.72901478735682363E-05
  6.89935464980913501E-05  7.07400638094403877E-05  7.25307912057560213E-05
  7.43668477060245836E-05  7.62493806488908878E-05  7.81795664091437472E-05
  8.01586111323105159E-05  8.21877514878310606E-05  8.42682554412723826E-05
  8.64014230460617385E-05  8.85885872552432671E-05  9.08311147537478435E-05
  9.31304068117088291E-05  9.54879001593424262E-05  9.79050678839468280E-05
  1.00383420349571900E-04  1.02924506139935321E-04  1.05529913025169072E-04
  1.08201268952999482E-04  1.10940243064973346E-04  1.13748546738375150E-04
  1.16627934654459398E-04  1.19580205893688875E-04  1.22607205058637009E-04
  1.25710823425271342E-04  1.28893000123315408E-04  1.32155723346437528E-04
  1.35501031593013093E-04  1.38931014938221113E-04  1.42447816338285978E-04
  1.46053632967657664E-04  1.49750717589958599E-04  1.53541379963566428E-04
  1.57427988282687724E-04  1.61412970654820970E-04  1.65498816615531686E-04
  1.69688078681468790E-04  1.73983373942602175E-04  1.78387385694641818E-04
  1.82902865112683101E-04  1.87532632967086832E-04  1.92279581382675055E-04
  1.97146675642326984E-04  2.02136956036091389E-04  2.07253539756955185E-04
  2.12499622844463477E-04  2.17878482177357005E-04  2.23393477516500795E-04
  2.29048053599337269E-04  2.34845742287173207E-04  2.40790164766628377E-04
  2.46885033806592473E-04  2.53134156072117652E-04  2.59541434496628740E-04
  2.66110870713965404E-04  2.72846567551713291E-04  2.79752731587402828E-04
  2.86833675769122365E-04  2.94093822102178587E-04  3.01537704403452989E-04
  3.09169971125164314E-04  3.16995388249750420E-04  3.25018842257688830E-04
  3.33245343170053055E-04  3.41680027667691077E-04  3.50328162288941845E-04
  3.59195146707862038E-04  3.68286517094962448E-04  3.77607949562545583E-04
  3.87165263696728811E-04  3.96964426178341345E-04  4.07011554494924460E-04
  4.17312920746084823E-04  4.27874955544550837E-04  4.38704252015336869E-04
  4.49807569895423968E-04  4.61191839736506360E-04  4.72864167213352192E-04
  4.84831837540432428E-04  4.97102319999481691E-04  5.09683272580788919E-04
  5.22582546741053098E-04  5.35808192280674378E-04  5.49368462343473893E-04
  5.63271818541910096E-04  5.77526936210853606E-04  5.92142709793183901E-04
  6.07128258360421780E-04  6.22492931271816704E-04  6.38246313975241830E-04
  6.54398233953503100E-04  6.70958766819602535E-04  6.87938242564681149E-04
  7.05347251962388827E-04  7.23196653133629705E-04  7.41497578275518107E-04
  7.60261440558776449E-04  7.79499941197548405E-04  7.99225076696057470E-04
  8.19449146276379336E-04  8.40184759491751179E-04  8.61444844030156585E-04
  8.83242653712685882E-04  9.05591776691580161E-04  9.28506143852818387E-04
  9.52000037428303450E-04  9.76088099822782699E-04  1.00078534266072718E-03
  1.02610715605866497E-03  1.05206931812837205E-03  1.07868800471662917E-03
  1.10597979938735469E-03  1.13396170365196347E-03  1.16265114745406524E-03
  1.19206599991465690E-03  1.22222458034420222E-03  1.25314566952806753E-03
  1.28484852129191968E-03  1.31735287435395918E-03  1.35067896447083795E-03
  1.38484753688453447E-03  1.41987985907726872E-03  1.45579773384203401E-03
  1.49262351267636035E-03  1.53038010950701416E-03  1.56909101475365240E-03
  1.60878030973960156E-03  1.64947268145804941E-03  1.69119343770215698E-03
  1.73396852256783971E-03  1.77782453233811337E-03  1.82278873175806613E-03
  1.86888907070981440E-03  1.91615420129691077E-03  1.96461349534791160E-03
  2.01429706234911195E-03  2.06523576781650776E-03  2.11746125211735537E-03
  2.17100594975203499E-03  2.22590310910684335E-03  2.28218681268895981E-03
  2.33989199785476993E-03  2.39905447804302169E-03  2.45971096452472435E-03
  2.52189908868170540E-03  2.58565742482605877E-03  2.65102551357308033E-03
  2.71804388578043496E-03  2.78675408706657119E-03  2.85719870292165017E-03
  2.92942138442466330E-03  3.00346687458037751E-03  3.07938103529048837E-03
  3.15721087497301866E-03  3.23700457684493502E-03  3.31881152788273586E-03
  3.40268234847636818E-03  3.48866892279163596E-03  3.57682442985767001E-03
  3.66720337539448282E-03  3.75986162439796538E-03  3.85485643449841320E-03
  3.95224649010973966E-03  4.05209193738672972E-03  4.15445442000769369E-03
  4.25939711580050791E-03  4.36698477423028662E-03  4.47728375476698272E-03
  4.59036206615166462E-03  4.70628940658068904E-03  4.82513720482694031E-03
  4.94697866231789008E-03  5.07188879619025444E-03  5.19994448334160000E-03
  5.33122450549941215E-03  5.46580959532808920E-03  5.60378248359528000E-03
  5.74522794741879131E-03  5.89023285961516596E-03  6.03888623917269232E-03
  6.19127930286975277E-03  6.34750551806165936E-03  6.50766065665827394E-03
  6.67184285031479241E-03  6.84015264685916904E-03  7.01269306797874890E-03
  7.18956966818981753E-03  7.37089059511306620E-03  7.55676665107906514E-03
  7.74731135608688545E-03  7.94264101213998722E-03  8.14287476898273473E-03
  8.34813469126259415E-03  8.55854582714003775E-03  8.77423627837163427E-03
  8.99533727188986561E-03  9.22198323290235496E-03  9.45431185953559544E-03
  9.69246419904607089E-03  9.93658472562134257E-03  1.01868214197956934E-02
  1.04433258495017067E-02  1.07062532527810415E-02  1.09757626221757901E-02
  1.12520167908229784E-02  1.15351825202721983E-02  1.18254305900475348E-02
  1.21229358889735125E-02  1.24278775082843126E-02  1.27404388365339391E-02
  1.30608076563261330E-02  1.33891762428785394E-02  1.37257414644386955E-02
  1.40707048845641561E-02  1.44242728662810557E-02  1.47866566781320891E-02
  1.51580726021231845E-02  1.55387420435795700E-02  1.59288916429142675E-02
  1.63287533893175657E-02  1.67385647363670030E-02  1.71585687195598344E-02
  1.75890140757653662E-02  1.80301553645930215E-02  1.84822530916672854E-02
  1.89455738338016287E-02  1.94203903660550639E-02  1.99069817906558089E-02
  2.04056336677724826E-02  2.09166381481044328E-02  2.14402941072666664E-02
  2.19769072819339002E-02  2.25267904077059052E-02  2.30902633586513202E-02
  2.36676532884817006E-02  2.42592947733017393E-02  2.48655299558737039E-02
  2.54867086913327795E-02  2.61231886942751221E-02  2.67753356871424306E-02
  2.74435235498090707E-02  2.81281344702809209E-02  2.88295590963931897E-02
  2.95481966883981567E-02  3.02844552723155781E-02  3.10387517939089280E-02
  3.18115122731443337E-02  3.26031719589718327E-02  3.34141754842611077E-02
  3.42449770207049267E-02  3.50960404334981838E-02  3.59678394355746472E-02
  3.68608577411812591E-02  3.77755892185414818E-02  3.87125380413496575E-02
  3.96722188388175662E-02  4.06551568439751376E-02  4.16618880399084457E-02
  4.26929593035956859E-02  4.37489285469793224E-02  4.48303648548898578E-02
  4.59378486194101932E-02  4.70719716702481875E-02  4.82333374006462742E-02
  4.94225608883454917E-02  5.06402690110715065E-02  5.18871005559928683E-02
  5.31637063225593107E-02  5.44707492180964842E-02  5.58089043454946393E-02
  5.71788590822878903E-02  5.85813131503856929E-02  6.00169786756620388E-02
  6.14865802365784017E-02  6.29908549009565027E-02  6.45305522499683842E-02
  6.61064343883650957E-02  6.77192759399042193E-02  6.93698640268738259E-02
  7.10589982325655206E-02  7.27874905454639759E-02  7.45561652838725442E-02
  7.63658589996103199E-02  7.82174203593513084E-02  8.01117100020939943E-02
  8.20496003711693733E-02  8.40319755191178547E-02  8.60597308836708180E-02
  8.81337730329716934E-02  9.02550193780981003E-02  9.24243978508136194E-02
  9.46428465444080352E-02  9.69113133153377965E-02  9.92307553432939249E-02
  1.01602138647183801E-01  1.04026437554394877E-01  1.06504634120571845E-01
  1.09037717497022096E-01  1.11626683242676453E-01  1.14272532577438496E-01
  1.16976271573554710E-01  1.19738910281503699E-01  1.22561461786714357E-01
  1.25444941193267240E-01  1.28390364530531376E-01  1.31398747578505420E-01
  1.34471104607448849E-01  1.37608447027148556E-01  1.40811781940994779E-01
  1.44082110599782071E-01  1.47420426749944600E-01  1.50827714870685692E-01
  1.54304948294206878E-01  1.57853087203004838E-01  1.61473076497935575E-01
  1.65165843530450246E-01  1.68932295692134860E-01  1.72773317854396563E-01
  1.76689769650827055E-01  1.80682482594465038E-01  1.84752257021864152E-01
  1.88899858855507946E-01  1.93126016175825643E-01  1.97431415593638859E-01
  2.01816698413575357E-01  2.06282456578551765E-01  2.10829228385106454E-01
  2.15457493958899127E-01  2.20167670479359423E-01  2.24960107142022220E-01
  2.29835079846645585E-01  2.34792785598849946E-01  2.39833336612485154E-01
  2.44956754099588003E-01  2.50162961734247402E-01  2.55451778776308258E-01
  2.60822912840346144E-01  2.66275952294901364E-01  2.71810358276445285E-01
  2.77425456302119955E-01  2.83120427464820912E-01  2.88894299193703963E-01
  2.94745935562732597E-01  3.00674027129342492E-01  3.06677080284936288E-01
  3.12753406098443376E-01  3.18901108633624752E-01  3.25118072720536555E-01
  3.31401951160990138E-01  3.37750151347504579E-01  3.44159821274878319E-01
  3.50627834923084358E-01  3.57150776989869967E-01  3.63724926951184913E-01
  3.70346242427191830E-01  3.77010341831441165E-01  3.83712486280562259E-01
  3.90447560741690958E-01  3.97210054394719736E-01  4.03994040186456405E-01
  4.10793153553759449E-01  4.17600570292790574E-01  4.24408983551768759E-01
  4.31210579924742543E-01  4.37997014624286307E-01  4.44759385711441024E-01
  4.51488207361729177E-01  4.58173382146760955E-01  4.64804172311622021E-01
  4.71369170029114548E-01  4.77856266612990299E-01  4.84252620673381151E-01
  4.90544625199048567E-01  4.96717873552376343E-01  5.02757124364797692E-01
  5.08646265322047264E-01  5.14368275830645594E-01  5.19905188559243614E-01
  5.25238049850683675E-01  5.30346879003442573E-01  5.35210626423662128E-01
  5.39807130652218303E-01  5.44113074274385045E-01  5.48103938723097706E-01
  5.51753957990789856E-01  5.55036071268325659E-01  5.57921874534156759E-01
  5.60381571120959876E-01  5.62383921291868760E-01  5.63896190863308555E-01
  5.64884098916481503E-01  5.65311764645103465E-01  5.65141653392678300E-01
  5.64334521937606137E-01  5.62849363091194155E-01  5.60643349679841752E-01
  5.57671777988330786E-01  5.53888010748055160E-01  5.49243419760264140E-01
  5.43687328250912150E-01  5.37166953060281505E-01  5.29627346777234997E-01
  5.21011339933889372E-01  5.11259483383377122E-01  5.00309990989052489E-01
  4.88098682759394498E-01  4.74558928568638960E-01  4.59621592607852070E-01
  4.43214978716491070E-01  4.25264776747881379E-01  4.05694010126376958E-01
  3.84422984756263242E-01  3.61369239444971346E-01  3.36447498004340595E-01
  3.09569623194297872E-01  2.80644572672620773E-01  2.49578357113464766E-01
  2.16274000655055282E-01  1.80631503834218915E-01  1.42547809155559008E-01
  1.01916769446911595E-01  5.86291191415207469E-02  1.25724486214235688E-02
 -3.63688182504183985E-02 -8.83134432890166493E-02 -1.43383389724052596E-01
 -2.01703834407896354E-01 -2.63403176393874672E-01 -3.28613041787554294E-01
 -3.97468284775308822E-01 -4.70106984732160171E-01 -5.46670439304772215E-01
 -6.27303153353181098E-01 -7.12152823615700536E-01 -8.01370318933546155E-01
 -8.95109655833065010E-01 -9.93527969211747242E-01 -1.09678547780793179E+00
 -1.20504544404867620E+00 -1.31847412776474759E+00 -1.43724073313072243E+00
 -1.56151734802962450E+00 -1.69147887484936255E+00 -1.82730295148669764E+00
 -1.96916986107301017E+00 -2.11726242861284542E+00 -2.27176590234592979E+00
 -2.43286781722277690E+00 -2.60075783738477773E+00 -2.77562757396991788E+00
 -2.95767037391701315E+00 -3.14708107470638065E+00 -3.34405571914617772E+00
 -3.54879122338544795E+00 -3.76148499029893424E+00 -3.98233445923997254E+00
 -4.21153658189163416E+00 -4.44928721255620552E+00 -4.69578039970931371E+00
 -4.95120756400398765E+00 -5.21575654614484030E+00 -5.48961050616640822E+00
 -5.77294665365098325E+00 -6.06593478632091188E+00 -6.36873561225585494E+00
 -6.68149882873747281E+00 -7.00436092844418212E+00 -7.33744270143904753E+00
 -7.68084639915266276E+00 -8.03465252442893885E+00 -8.39891620983129528E+00
 -8.77366314455184870E+00 -9.15888500894832269E+00 -9.55453437479046030E+00
 -9.96051902891100482E+00 -1.03766956783922826E+01 -1.08028629986450078E+01
 -1.12387700747953971E+01 -1.16842808491459618E+01 -1.21393411980702712E+01
 -1.26038830368292931E+01 -1.30778220187847722E+01 -1.35610567040436418E+01
 -1.40534677047484706E+01 -1.45549168068050925E+01 -1.50652460686893566E+01
 -1.55842768981947959E+01 -1.61118091081576225E+01 -1.66476199523843498E+01
 -1.71914631432034426E+01 -1.77430678522683536E+01 -1.83021376964607256E+01
 -1.88683497109704454E+01 -1.94413533118724686E+01 -2.00207692507773771E+01
 -2.06061885643729248E+01 -2.11971715219692776E+01 -2.17932465744487125E+01
 -2.23939093083026570E+01 -2.29986214087510490E+01 -2.36068096362549475E+01
 -2.42178648210582850E+01 -2.48311408807239182E+01 -2.54459538660195896E+01
 -2.60615810407578472E+01 -2.66772600016794783E+01 -2.72921878447700337E+01
 -2.79055203847878417E+01 -2.85163714351696207E+01 -2.91238121558718746E+01
 -2.97268704770956589E+01 -3.03245306072453111E+01 -3.09157326338708778E+01
 -3.14993722267466758E+01 -3.20743004526453745E+01 -3.26393237117660391E+01
 -3.31932038061794827E+01 -3.37346581510470784E+01 -3.42623601397641693E+01
 -3.47749396746067561E+01 -3.52709838747085342E+01 -3.57490379735988526E+01
 -3.62076064190140698E+01 -3.66451541878805145E+01 -3.70601083297051943E+01
 -3.74508597518944981E+01 -3.78157652607703483E+01 -3.81531498722694309E+01
 -3.84613094064893986E+01 -3.87385133803790325E+01 -3.89830082129548501E+01
 -3.91930207574530911E+01 -3.93667621747922709E+01 -3.95024321626152570E+01
 -3.95982235539948917E+01 -3.96523272996141287E+01 -3.96629378468598475E+01
 -3.96282589287899683E+01 -3.95465097753311454E+01 -3.94159317583304016E+01
 -3.92347954812017576E+01 -3.90014083228648616E+01 -3.87141224444505028E+01
 -3.83713432658319604E+01 -3.79715384175107644E+01 -3.75132471713325444E+01
 -3.69950903511807567E+01 -3.64157807231298207E+01 -3.57741338613042572E+01
 -3.50690794827731409E+01 -3.42996732414752969E+01 -3.34651089674347233E+01
 -3.25647313333983561E+01 -3.15980489264648448E+01 -3.05647476972655383E+01
 -2.94647047537653606E+01 -2.82980024607472345E+01 -2.70649427995190095E+01
 -2.57660619352818934E+01 -2.44021449319402954E+01 -2.29742405458585743E+01
 -2.14836760211927036E+01 -1.99320717999230830E+01 -1.83213560495747174E+01
 -1.66537789008560289E+01 -1.49319262760644147E+01 -1.31587331771379006E+01
 -1.13374962896877438E+01 -9.47188574628331281E+00 -7.56595587875813713E+00
 -5.62415477530328545E+00 -3.65133244394562206E+00 -1.65274736991600513E+00
  3.65928760275223253E-01  2.39860840942762366E+00  4.43878787015936727E+00
  6.47954954393479898E+00  8.51356709969575753E+00  1.05331138045518333E+01
  1.25300743288584489E+01  1.44959603360170011E+01  1.64219301730521501E+01
  1.82988129809631381E+01  2.01171375435121682E+01  2.18671661889116251E+01
  2.35389340502137507E+01  2.51222939764336104E+01  2.66069673668264635E+01
  2.79826011746090764E+01  2.92388312929386558E+01  3.03653524944139477E+01
  3.13519950449025586E+01  3.21888080523426083E+01  3.28661495405499480E+01
  3.33747831566508637E+01  3.37059813277363460E+01  3.38516345701656860E+01
  3.38043665439610521E+01  3.35576543088320065E+01  3.31059530914256257E+01
  3.24448247145288917E+01  3.15710686663693814E+01  3.04828546031755501E+01
  2.91798548818309911E+01  2.76633755132703705E+01  2.59364837132060515E+01
  2.40041300074020718E+01  2.18732626271692396E+01  1.95529317109108902E+01
  1.70543806139527021E+01  1.43911214269264978E+01  1.15789916188099014E+01
  8.63618856138389646E+00  5.58327856523936017E+00  2.44317697228060382E+00
 -7.58904184528149339E-01 -3.99554441640638425E+00 -7.23724227201524961E+00
 -1.04525852690769128E+01 -1.36084651671833239E+01 -1.66703411026505677E+01
 -1.96025525949103354E+01 -2.23686838074351542E+01 -2.49319796785398218E+01
 -2.72558136179422803E+01 -2.93042053975843899E+01 -3.10423866428991317E+01
 -3.24374099553285049E+01 -3.34587961741780191E+01 -3.40792126269587072E+01
 -3.42751734396943988E+01 -3.40277511068239278E+01 -3.33232865869832295E+01
 -3.21540832375402275E+01 -3.05190679782162988E+01 -2.84244012433094788E+01
 -2.58840156139846052E+01 -2.29200615978898590E+01 -1.95632379336682867E+01
 -1.58529831419256695E+01 -1.18375049280454157E+01 -7.57362457669813605E+00
                              </PP_CHI.4>
                             </PP_PSWFC> 
<PP_FULL_WFC number_of_wfc=" 4">
 <PP_AEWFC.1 type="real" size="   999" l="0" columns="3" label= "3S">
  6.49007099020623246E-04  6.57106854769152668E-04  6.65307601029904629E-04
  6.73610594504876585E-04  6.82017107366757126E-04  6.90528427773887208E-04
  6.99145859954733158E-04  7.07870723975829357E-04  7.16704356341403732E-04
  7.25648110341321761E-04  7.34703355893928114E-04  7.43871479704460406E-04
  7.53153885876303632E-04  7.62551995983592351E-04  7.72067248897772163E-04
  7.81701101444919185E-04  7.91455028677938866E-04  8.01330523636858971E-04
  8.11329097863819002E-04  8.21452281841001243E-04  8.31701624785652371E-04
  8.42078695023917444E-04  8.52585080530658202E-04  8.63222388756013244E-04
  8.73992246947273262E-04  8.84896302722706094E-04  8.95936223896332418E-04
  9.07113698847122614E-04  9.18430437061788915E-04  9.29888168934277942E-04
  9.41488646269984342E-04  9.53233642709929601E-04  9.65124953544350831E-04
  9.77164396388278522E-04  9.89353811367379423E-04  1.00169506111517101E-03
  1.01419003150096231E-03  1.02684063154382136E-03  1.03964879379503427E-03
  1.05261647483886108E-03  1.06574565516091998E-03  1.07903833987644691E-03
  1.09249655876228393E-03  1.10612236657013597E-03  1.11991784356268369E-03
  1.13388509542860084E-03  1.14802625402367830E-03  1.16234347733971521E-03
  1.17683895001400554E-03  1.19151488364688881E-03  1.20637351696247191E-03
  1.22141711643638400E-03  1.23664797625565185E-03  1.25206841905365989E-03
  1.26768079588299078E-03  1.28348748687264857E-03  1.29949090134445972E-03
  1.31569347832176452E-03  1.33209768680965209E-03  1.34870602617115777E-03
  1.36552102653514753E-03  1.38254524908616510E-03  1.39978128655161025E-03
  1.41723176345231170E-03  1.43489933662593341E-03  1.45278669547753707E-03
  1.47089656250402379E-03  1.48923169357750916E-03  1.50779487844010583E-03
  1.52658894105015897E-03  1.54561674001866406E-03  1.56488116904569775E-03
  1.58438515727528850E-03  1.60413166983853898E-03  1.62412370812290590E-03
  1.64436431040772854E-03  1.66485655208821318E-03  1.68560354633255052E-03
  1.70660844436049445E-03  1.72787443601019660E-03  1.74940475017290793E-03
  1.77120265520240810E-03  1.79327145951587753E-03  1.81561451190997525E-03
  1.83823520218905057E-03  1.86113696157734292E-03  1.88432326319996121E-03
  1.90779762267612434E-03  1.93156359849816061E-03  1.95562479263923289E-03
  1.97998485105794044E-03  2.00464746415066845E-03  2.02961636738156889E-03
  2.05489534175892124E-03  2.08048821435662720E-03  2.10639885893487873E-03
  2.13263119643285204E-03  2.15918919552512056E-03  2.18607687324339633E-03
  2.21329829550278396E-03  2.24085757766793276E-03  2.26875888518786838E-03
  2.29700643416467804E-03  2.32560449191852175E-03  2.35455737763635032E-03
  2.38386946298305927E-03  2.41354517268499826E-03  2.44358898516839479E-03
  2.47400543321093895E-03  2.50479910457089387E-03  2.53597464260846804E-03
  2.56753674695911049E-03  2.59949017420015808E-03  2.63183973851201063E-03
  2.66459031233515003E-03  2.69774682706299665E-03  2.73131427373767043E-03
  2.76529770374375500E-03  2.79970222950521111E-03  2.83453302519021165E-03
  2.86979532744041426E-03  2.90549443609752333E-03  2.94163571493590405E-03
  2.97822459240233402E-03  3.01526656236009291E-03  3.05276718485091676E-03
  3.09073208686250558E-03  3.12916696310114751E-03  3.16807757677257809E-03
  3.20746976037111862E-03  3.24734941647618694E-03  3.28772251855720182E-03
  3.32859511179032065E-03  3.36997331388131207E-03  3.41186331589648281E-03
  3.45427138310219588E-03  3.49720385581298379E-03  3.54066715024835710E-03
  3.58466775939832692E-03  3.62921225389769035E-03  3.67430728290913094E-03
  3.71995957501505435E-03  3.76617593911877761E-03  3.81296326535451521E-03
  3.86032852600626340E-03  3.90827877643580828E-03  3.95682115601985254E-03
  4.00596288909637298E-03  4.05571128592021896E-03  4.10607374362801248E-03
  4.15705774721242260E-03  4.20867087050580402E-03  4.26092077717332880E-03
  4.31381522171559503E-03  4.36736205048078065E-03  4.42156920268641992E-03
  4.47644471145076332E-03  4.53199670483386916E-03  4.58823340688839509E-03
  4.64516313872015158E-03  4.70279431955847489E-03  4.76113546783618266E-03
  4.82019520227960907E-03  4.87998224300866933E-03  4.94050541264676093E-03
  5.00177363744067072E-03  5.06379594839045325E-03  5.12658148238938002E-03
  5.19013948337392755E-03  5.25447930348387805E-03  5.31961040423250403E-03
  5.38554235768592352E-03  5.45228484765270492E-03  5.51984767088551428E-03
  5.58824073829198697E-03  5.65747407615567119E-03  5.72755782736711523E-03
  5.79850225266491034E-03  5.87031773188414346E-03  5.94301476521860023E-03
  6.01660397449432262E-03  6.09109610445162254E-03  6.16650202403716281E-03
  6.24283272770287910E-03  6.32009933671605698E-03  6.39831310048587145E-03
  6.47748539789624010E-03  6.55762773864749550E-03  6.63875176460180984E-03
  6.72086925114869036E-03  6.80399210858082665E-03  6.88813238347550216E-03
  6.97330226007769009E-03  7.05951406170440658E-03  7.14678025216150536E-03
  7.23511343716186969E-03  7.32452636574473879E-03  7.41503193172428094E-03
  7.50664317514208260E-03  7.59937328371418971E-03  7.69323559429779119E-03
  7.78824359437848418E-03  7.88441092354692785E-03  7.98175137498439990E-03
  8.08027889698059026E-03  8.18000759443722816E-03  8.28095173037619522E-03
  8.38312572748495417E-03  8.48654416964182874E-03  8.59122180345094251E-03
  8.69717353981241600E-03  8.80441445546295380E-03  8.91295979454436761E-03
  9.02282497018998958E-03  9.13402556608013810E-03  9.24657733804905811E-03
  9.36049621567026750E-03  9.47579830384550487E-03  9.59249988443191225E-03
  9.71061741782496338E-03  9.83016754459752756E-03  9.95116708710837468E-03
  1.00736330511265910E-02  1.01975826274759811E-02  1.03230331936453347E-02
  1.04500023154564803E-02  1.05785077486750794E-02  1.07085674406840227E-02
  1.08401995321076462E-02  1.09734223584790902E-02  1.11082544518813879E-02
  1.12447145426060185E-02  1.13828215608077175E-02  1.15225946381555394E-02
  1.16640531094957360E-02  1.18072165144975406E-02  1.19521045993180499E-02
  1.20987373182446529E-02  1.22471348353561001E-02  1.23973175261631163E-02
  1.25493059792595833E-02  1.27031209979629450E-02  1.28587836019491680E-02
  1.30163150288942365E-02  1.31757367360871673E-02  1.33370704020718961E-02
  1.35003379282356110E-02  1.36655614404452373E-02  1.38327632906149814E-02
  1.40019660583234704E-02  1.41731925523717796E-02  1.43464658123624786E-02
  1.45218091102582159E-02  1.46992459519113307E-02  1.48788000786185971E-02
  1.50604954686097102E-02  1.52443563385716175E-02  1.54304071451216111E-02
  1.56186725862703241E-02  1.58091776028886459E-02  1.60019473801118195E-02
  1.61970073487688465E-02  1.63943831867627808E-02  1.65941008204238405E-02
  1.67961864258701597E-02  1.70006664303022775E-02  1.72075675132968425E-02
  1.74169166080765624E-02  1.76287409027191880E-02  1.78430678413716813E-02
  1.80599251254185099E-02  1.82793407145970012E-02  1.85013428281118573E-02
  1.87259599456933885E-02  1.89532208086044679E-02  1.91831544206384867E-02
  1.94157900490567401E-02  1.96511572254698987E-02  1.98892857467026854E-02
  2.01302056755973020E-02  2.03739473417521542E-02  2.06205413422347397E-02
  2.08700185422349659E-02  2.11224100756461156E-02  2.13777473456034477E-02
  2.16360620249692742E-02  2.18973860567409848E-02  2.21617516543929916E-02
  2.24291913021713446E-02  2.26997377553084002E-02  2.29734240401551874E-02
  2.32502834542530484E-02  2.35303495663322891E-02  2.38136562162219977E-02
  2.41002375146710315E-02  2.43901278431007153E-02  2.46833618532653967E-02
  2.49799744668156090E-02  2.52800008747631963E-02  2.55834765368644738E-02
  2.58904371808972682E-02  2.62009188018306229E-02  2.65149576608823580E-02
  2.68325902844797973E-02  2.71538534631027596E-02  2.74787842500059110E-02
  2.78074199598146964E-02  2.81397981670042131E-02  2.84759567042517613E-02
  2.88159336606520905E-02  2.91597673797935712E-02  2.95074964576911014E-02
  2.98591597405834658E-02  3.02147963225768770E-02  3.05744455431332558E-02
  3.09381469843969317E-02  3.13059404683582246E-02  3.16778660538559395E-02
  3.20539640334029166E-02  3.24342749298328209E-02  3.28188394927622779E-02
  3.32076986948626821E-02  3.36008937279454814E-02  3.39984659988453453E-02
  3.44004571250976082E-02  3.48069089304047646E-02  3.52178634398844781E-02
  3.56333628750973505E-02  3.60534496488494893E-02  3.64781663597577646E-02
  3.69075557865735579E-02  3.73416608822592158E-02  3.77805247678084308E-02
  3.82241907258068919E-02  3.86727021937286058E-02  3.91261027569544256E-02
  3.95844361415087290E-02  4.00477462065064183E-02  4.05160769363026793E-02
  4.09894724323364157E-02  4.14679769046648536E-02  4.19516346631773202E-02
  4.24404901084797226E-02  4.29345877224417902E-02  4.34339720583996267E-02
  4.39386877310039212E-02  4.44487794057046581E-02  4.49642917878656789E-02
  4.54852696114997068E-02  4.60117576276127399E-02  4.65438005921484793E-02
  4.70814432535242022E-02  4.76247303397477756E-02  4.81737065451058113E-02
  4.87284165164127286E-02  4.92889048388102796E-02  4.98552160211097398E-02
  5.04273944806623645E-02  5.10054845277484736E-02  5.15895303494745897E-02
  5.21795759931666589E-02  5.27756653492485323E-02  5.33778421335942763E-02
  5.39861498693412906E-02  5.46006318681531849E-02  5.52213312109212165E-02
  5.58482907278909368E-02  5.64815529782010731E-02  5.71211602288221668E-02
  5.77671544328824255E-02  5.84195772073672695E-02  5.90784698101796193E-02
  5.97438731165476009E-02  6.04158275947650758E-02  6.10943732812526466E-02
  6.17795497549229466E-02  6.24713961108388713E-02  6.31699509331488385E-02
  6.38752522672837858E-02  6.45873375914026160E-02  6.53062437870699924E-02
  6.60320071091522742E-02  6.67646631549160402E-02  6.75042468323136802E-02
  6.82507923274410927E-02  6.90043330711507669E-02  6.97649017048057041E-02
  7.05325300451570963E-02  7.13072490483299959E-02  7.20890887729010166E-02
  7.28780783420514694E-02  7.36742459047796810E-02  7.44776185961555787E-02
  7.52882224966008318E-02  7.61060825901778565E-02  7.69312227218706818E-02
  7.77636655538411076E-02  7.86034325206427659E-02  7.94505437833758210E-02
  8.03050181827658638E-02  8.11668731911489860E-02  8.20361248633466739E-02
  8.29127877864127838E-02  8.37968750282351849E-02  8.46883980849758855E-02
  8.55873668273313265E-02  8.64937894455966721E-02  8.74076723935161837E-02
  8.83290203309036043E-02  8.92578360650152086E-02  9.01941204906591409E-02
  9.11378725290235558E-02  9.20890890652086014E-02  9.30477648844444255E-02
  9.40138926069802316E-02  9.49874626216282297E-02  9.59684630179466619E-02
  9.69568795170470676E-02  9.79526954010103007E-02  9.89558914408970869E-02
  9.99664458233386621E-02  1.00984334075693238E-01  1.02009528989755432E-01
  1.03042000544005016E-01  1.04081715824382914E-01  1.05128638943582195E-01
  1.06182730958842272E-01  1.07243949788236287E-01  1.08312250125440518E-01
  1.09387583352976922E-01  1.10469897453919511E-01  1.11559136922056809E-01
  1.12655242670502795E-01  1.13758151938750496E-01  1.14867798198161841E-01
  1.15984111055890168E-01  1.17107016157230737E-01  1.18236435086398126E-01
  1.19372285265727685E-01  1.20514479853301909E-01  1.21662927639002105E-01
  1.22817532938987894E-01  1.23978195488607973E-01  1.25144810333747969E-01
  1.26317267720620519E-01  1.27495452984006635E-01  1.28679246433958616E-01
  1.29868523240973893E-01  1.31063153319655096E-01  1.32263001210870257E-01
  1.33467925962429540E-01  1.34677781008299247E-01  1.35892414046371840E-01
  1.37111666914816216E-01  1.38335375467034533E-01  1.39563369445251079E-01
  1.40795472352765155E-01  1.42031501324900028E-01  1.43271266998682978E-01
  1.44514573381295031E-01  1.45761217717330249E-01  1.47010990354909388E-01
  1.48263674610693286E-01  1.49519046633847685E-01  1.50776875269010430E-01
  1.52036921918318496E-01  1.53298940402555262E-01  1.54562676821479811E-01
  1.55827869413406955E-01  1.57094248414107851E-01  1.58361535915105711E-01
  1.59629445721446578E-01  1.60897683209027226E-01  1.62165945181566712E-01
  1.63433919727315358E-01  1.64701286075594672E-01  1.65967714453270992E-01
  1.67232865941267600E-01  1.68496392331225264E-01  1.69757935982428554E-01
  1.71017129679115920E-01  1.72273596488302649E-01  1.73526949618245274E-01
  1.74776792277686666E-01  1.76022717536024109E-01  1.77264308184547470E-01
  1.78501136598905097E-01  1.79732764602954925E-01  1.80958743334170752E-01
  1.82178613110774879E-01  1.83391903300778925E-01  1.84598132193118269E-01
  1.85796806871074194E-01  1.86987423088184473E-01  1.88169465146848153E-01
  1.89342405779843043E-01  1.90505706034972716E-01  1.91658815163078033E-01
  1.92801170509645348E-01  1.93932197410260160E-01  1.95051309090155917E-01
  1.96157906568120127E-01  1.97251378565026225E-01  1.98331101417266009E-01
  1.99396438995370601E-01  2.00446742628110158E-01  2.01481351032376077E-01
  2.02499590249153899E-01  2.03500773585907790E-01  2.04484201565701157E-01
  2.05449161883391518E-01  2.06394929369243307E-01  2.07320765960310904E-01
  2.08225920679957072E-01  2.09109629625873927E-01  2.09971115966989086E-01
  2.10809589949644410E-01  2.11624248913444141E-01  2.12414277317180017E-01
  2.13178846775246150E-01  2.13917116104969662E-01  2.14628231385285723E-01
  2.15311326027201488E-01  2.15965520856493981E-01  2.16589924209101614E-01
  2.17183632039673724E-01  2.17745728043750475E-01  2.18275283794055919E-01
  2.18771358891390544E-01  2.19233001130620664E-01  2.19659246682266190E-01
  2.20049120290197714E-01  2.20401635485957564E-01  2.20715794820227990E-01
  2.20990590111973695E-01  2.21225002715792735E-01  2.21418003808013325E-01
  2.21568554692079672E-01  2.21675607123773738E-01  2.21738103656822616E-01
  2.21754978009445158E-01  2.21725155452393186E-01  2.21647553219044252E-01
  2.21521080938104242E-01  2.21344641089478267E-01  2.21117129483863278E-01
  2.20837435766629481E-01  2.20504443946540452E-01  2.20117032949859404E-01
  2.19674077200393919E-01  2.19174447226018476E-01  2.18617010292213670E-01
  2.18000631063150874E-01  2.17324172290844470E-01  2.16586495532881701E-01
  2.15786461899233617E-01  2.14922932828634616E-01  2.13994770895006320E-01
  2.13000840644388040E-01  2.11940009462816659E-01  2.10811148475584409E-01
  2.09613133478279867E-01  2.08344845900000353E-01  2.07005173799096914E-01
  2.05593012891792631E-01  2.04107267613984789E-01  2.02546852216514195E-01
  2.00910691894157889E-01  1.99197723948562305E-01  1.97406898985306056E-01
  1.95537182145241545E-01  1.93587554370225762E-01  1.91557013703312157E-01
  1.89444576623427424E-01  1.87249279414518216E-01  1.84970179569097060E-01
  1.82606357226074156E-01  1.80156916642701642E-01  1.77620987700407185E-01
  1.74997727444234114E-01  1.72286321655542057E-01  1.69485986457545562E-01
  1.66595969953247797E-01  1.63615553895255617E-01  1.60544055386809492E-01
  1.57380828613367774E-01  1.54125266603993422E-01  1.50776803021701683E-01
  1.47334913981864934E-01  1.43799119897668054E-01  1.40168987351543678E-01
  1.36444130991414697E-01  1.32624215450493244E-01  1.28708957289290382E-01
  1.24698126958397520E-01  1.20591550780516379E-01  1.16389112950102624E-01
  1.12090757548912220E-01  1.07696490575622458E-01  1.03206381987616655E-01
  9.86205677529125163E-02  9.39392519101166501E-02  8.91627086341929276E-02
  8.42912843057164185E-02  7.93253995812066154E-02  7.42655514620074869E-02
  6.91123153591013673E-02  6.38663471511339703E-02  5.85283852328256221E-02
  5.30992525508560201E-02  4.75798586241944210E-02  4.19712015457701232E-02
  3.62743699622301852E-02  3.04905450284513047E-02  2.46210023336240411E-02
  1.86671137952039816E-02  1.26303495171610960E-02  6.51227960886266530E-03
  3.14575960830035099E-04 -5.96098602651251846E-03 -1.23125257650342386E-02
 -1.87380558561012316E-02 -2.52354805269118972E-02 -3.18025941301903689E-02
 -3.84370797115611493E-02 -4.51365076489919914E-02 -5.18983343688176682E-02
 -5.87199011429086065E-02 -6.55984329716638309E-02 -7.25310375575813487E-02
 -7.95147043742465004E-02 -8.65463038356614756E-02 -9.36225865709194166E-02
 -1.00740182809306203E-01 -1.07895601880967140E-01 -1.15085231838362473E-01
 -1.22305339203772900E-01 -1.29552068848163698E-01 -1.36821444006762771E-01
 -1.44109366436712349E-01 -1.51411616722176873E-01 -1.58723854732304381E-01
 -1.66041620237511928E-01 -1.73360333688863721E-01 -1.80675297166174365E-01
 -1.87981695499993828E-01 -1.95274597572398650E-01 -2.02548957801480217E-01
 -2.09799617814231898E-01 -2.17021308312368599E-01 -2.24208651135381271E-01
 -2.31356161524901072E-01 -2.38458250594171028E-01 -2.45509228006138502E-01
 -2.52503304863371802E-01 -2.59434596812644525E-01 -2.66297127366707576E-01
 -2.73084831445348120E-01 -2.79791559137466617E-01 -2.86411079685467529E-01
 -2.92937085692832999E-01 -2.99363197555301275E-01 -3.05682968115602416E-01
 -3.11889887541253630E-01 -3.17977388424404317E-01 -3.23938851102274217E-01
 -3.29767609196200018E-01 -3.35456955366833010E-01 -3.41000147282531751E-01
 -3.46390413797588670E-01 -3.51620961336340909E-01 -3.56684980478187308E-01
 -3.61575652739247300E-01 -3.66286157545121338E-01 -3.70809679388850510E-01
 -3.75139415167768997E-01 -3.79268581692495610E-01 -3.83190423360901256E-01
 -3.86898219989459835E-01 -3.90385294794012461E-01 -3.93645022511586784E-01
 -3.96670837654562958E-01 -3.99456242888142077E-01 -4.01994817521741654E-01
 -4.04280226104670237E-01 -4.06306227116128960E-01 -4.08066681739359449E-01
 -4.09555562709503440E-01 -4.10766963224538650E-01 -4.11695105908456704E-01
 -4.12334351815677291E-01 -4.12679209465534547E-01 -4.12724343895536583E-01
 -4.12464585721972810E-01 -4.11894940196338211E-01 -4.11010596245944271E-01
 -4.09806935486997703E-01 -4.08279541198299678E-01 -4.06424207243758717E-01
 -4.04236946931830265E-01 -4.01714001799835518E-01 -3.98851850311085887E-01
 -3.95647216452661821E-01 -3.92097078221617878E-01 -3.88198675987295017E-01
 -3.83949520717310477E-01 -3.79347402054688976E-01 -3.74390396233445277E-01
 -3.69076873819791484E-01 -3.63405507265951888E-01 -3.57375278263373730E-01
 -3.50985484881905396E-01 -3.44235748481247716E-01 -3.37126020380742464E-01
 -3.29656588273225470E-01 -3.21828082368390445E-01 -3.13641481250738818E-01
 -3.05098117436838512E-01 -2.96199682616241633E-01 -2.86948232559996186E-01
 -2.77346191680318099E-01 -2.67396357224540637E-01 -2.57101903086013828E-01
 -2.46466383213774093E-01 -2.35493734604508509E-01 -2.24188279857541944E-01
 -2.12554729273782328E-01 -2.00598182480015652E-01 -1.88324129559363534E-01
 -1.75738451668662893E-01 -1.62847421123412911E-01 -1.49657700931053267E-01
 -1.36176343753477286E-01 -1.22410790279987816E-01 -1.08368866992406915E-01
 -9.40587833045904986E-02 -7.94891280594757638E-02 -6.46688653677398168E-02
 -4.96073297733657659E-02 -3.43142207328653651E-02 -1.87995963965586939E-02
 -3.07386668227365746E-03  1.28522143660132968E-02  2.89675569395651290E-02
  4.52607445485718532E-02  6.17200438273771967E-02  7.83334150571893678E-02
  9.50885233987249778E-02  1.11972750823606915E-01  1.28973208730188749E-01
  1.46076751221109302E-01  1.63269989020940615E-01  1.80539304006546802E-01
  1.97870864317190226E-01  2.15250640007860511E-01  2.32664419205366568E-01
  2.50097824723156892E-01  2.67536331087611379E-01  2.84965281926117309E-01
  3.02369907665391235E-01  3.19735343487746293E-01  3.37046647493168428E-01
  3.54288819016475520E-01  3.71446817051564737E-01  3.88505578738677693E-01
  4.05450037876079472E-01  4.22265143424075340E-01  4.38935877977081834E-01
  4.55447276188099826E-01  4.71784443139113940E-01  4.87932572660388142E-01
  5.03876965610672523E-01  5.19603048138749801E-01  5.35096389953750640E-01
  5.50342722637423232E-01  5.65327958034438027E-01  5.80038206754564190E-01
  5.94459796824451714E-01  6.08579292518478199E-01  6.22383513391180587E-01
  6.35859553524715682E-01  6.48994800993553445E-01  6.61776957536029165E-01
  6.74194058408986829E-01  6.86234492388215545E-01  6.97887021864053048E-01
  7.09140802969154826E-01  7.19985405664103295E-01  7.30410833696865658E-01
  7.40407544344045765E-01  7.49966467835703754E-01  7.59079026361196618E-01
  7.67737152550940216E-01  7.75933307328238842E-01  7.83660497026060554E-01
  7.90912289665883117E-01  7.97682830299165091E-01  8.03966855316571860E-01
  8.09759705635523130E-01  8.15057338682879329E-01  8.19856339096296405E-01
  8.24153928075227804E-01  8.27947971320745602E-01  8.31236985510780402E-01
  8.34020143265697289E-01  8.36297276567502079E-01  8.38068878604350864E-01
  8.39336104020365514E-01  8.40100767559061712E-01  8.40365341096814156E-01
  8.40132949070787838E-01  8.39407362313518646E-01  8.38192990313835429E-01
  8.36494871931045880E-01  8.34318664596194859E-01  8.31670632040744429E-01
  8.28557630599186967E-01  8.24987094137847543E-01  8.20967017667438737E-01
  8.16505939701807959E-01  8.11612923429704813E-01  8.06297536770328782E-01
  8.00569831386837572E-01  7.94440320734951189E-01  7.87919957226215661E-01
  7.81020108586739870E-01  7.73752533493923034E-01  7.66129356580113496E-01
  7.58163042882777582E-01  7.49866371826467759E-01  7.41252410821364283E-01
  7.32334488561858787E-01  7.23126168107522505E-01  7.13641219827271023E-01
  7.03893594285677549E-01  6.93897395148260099E-01  6.83666852180087159E-01
  6.73216294409421323E-01  6.62560123525152145E-01  6.51712787573734298E-01
  6.40688755018102962E-01  6.29502489217624972E-01  6.18168423384756971E-01
  6.06700936070487695E-01  5.95114327227315609E-01  5.83422794884761786E-01
  5.71640412524657360E-01  5.59781107106484210E-01  5.47858637860695330E-01
  5.35886575842221879E-01  5.23878284277814354E-01  5.11846899730513227E-01
  4.99805314107786780E-01  4.87766157528547628E-01  4.75741782063036689E-01
  4.63744246359812540E-01  4.51785301170154086E-01  4.39876375777769280E-01
  4.28028565339482858E-01  4.16252619140412949E-01  4.04558929765226838E-01
  3.92957523185163526E-01  3.81458049758870266E-01  3.70069776143483242E-01
  3.58801578110885089E-01  3.47661934262771921E-01  3.36658920636806913E-01
  3.25800206195038522E-01  3.15093049184568874E-01  3.04544294359456180E-01
  2.94160371051851000E-01  2.83947292079361813E-01  2.73910653474797539E-01
  2.64055635023480617E-01  2.54387001592507822E-01  2.44909105235419894E-01
  2.35625888054608656E-01  2.26540885804121295E-01  2.17657232213426699E-01
  2.08977664011328473E-01  2.00504526629614849E-01  1.92239780564667145E-01
  1.84185008374259801E-01  1.76341422285845706E-01  1.68709872391659910E-01
  1.61290855404992717E-01  1.54084523951019736E-01  1.47090696364567591E-01
  1.40308866966254192E-01  1.33738216787453706E-01  1.27377624713605919E-01
  1.21225679014473967E-01  1.15280689229072864E-01  1.09540698372187884E-01
  1.04003495428590095E-01  9.86666281003823475E-02  9.35274157722769534E-02
  8.85829626590508984E-02  8.38301710989883264E-02  7.92657549567716002E-02
  7.48862530990682534E-02  7.06880429064880161E-02  6.66673537845922926E-02
  6.28202806355905724E-02  5.91427972566488450E-02  5.56307696282098071E-02
  5.22799690568144237E-02  4.90860851377859370E-02  4.60447385039951182E-02
  4.31514933279814605E-02  4.04018695458573593E-02  3.77913547727619925E-02
  3.53154158810830635E-02  3.29695102142464266E-02  3.07490964106094528E-02
  2.86496448138029020E-02  2.66666474478270965E-02  2.47956275372284672E-02
  2.30321485548100544E-02  2.13718227815248400E-02  1.98103193654439076E-02
  1.83433718689960494E-02  1.69667852959963436E-02  1.56764425923298298E-02
  1.44683106164951829E-02  1.33384455785420172E-02  1.22829979486181792E-02
  1.12982168382585284E-02  1.03804538574049643E-02  9.52616645725362643E-03
  8.73192076784610506E-03  7.99439394153665314E-03  7.31037601556436007E-03
  6.67677130866821140E-03  6.09059936827132265E-03  5.54899548620199894E-03
  5.04921080222232085E-03  4.58861201578741884E-03  4.16468072745414340E-03
  3.77501243219906029E-03  3.41731518758533375E-03  3.08940798024208299E-03
  2.78921881448385926E-03  2.51478254710619511E-03  2.26423849245335675E-03
  2.03582782176316363E-03  1.82789078056716948E-03  1.63886374755991193E-03
  1.46727615786330706E-03  1.31174731300782630E-03  1.17098309923813551E-03
  1.04377263502698661E-03  9.28984867833226391E-04  8.25565138123995857E-04
  7.32531729480829391E-04  6.48972421501391671E-04  5.74041061001521612E-04
  5.06954166009445013E-04  4.46987575854711119E-04  3.93473159452714465E-04
  3.45795592683119303E-04  3.03389214565438867E-04  2.65734970756564273E-04
  2.32357451741677687E-04  2.02822031968331076E-04  1.76732115091111962E-04
  1.53726489456484266E-04  1.33476796969770120E-04  1.15685117552866897E-04
  1.00081670525894079E-04  8.64226334313340170E-05  7.44880780674740168E-05
  6.40800228103406081E-05  5.50205996804163660E-05  4.71503340524624776E-05
  4.03265344127579360E-05  3.44217891437142230E-05  2.93225669625723339E-05
  2.49279171972076123E-05  2.11482660408849547E-05  1.79043046301387718E-05
  1.51259646062525635E-05  1.27514767464461864E-05  1.07265081919611947E-05
  9.00337378109141405E-06  7.54031701227134946E-06  6.30085621189352465E-06
  5.25319155980863052E-06  4.36966872888124791E-06  3.62629501993542607E-06
  3.00230401654642751E-06  2.47976494214781492E-06  2.04323307175318973E-06
  1.67943772937720784E-06  1.37700458730419465E-06  1.12620917226850980E-06
  9.18758674159210123E-07  7.47599343066769910E-07  6.06746948597634681E-07
                              </PP_AEWFC.1>
 <PP_AEWFC.2 type="real" size="   999" l="0" columns="3" label= "0S">
 -9.07806093516228874E-04 -9.19135714063849243E-04 -9.30606596039582220E-04
 -9.42220497263538521E-04 -9.53979197195461981E-04 -9.65884497655032930E-04
 -9.77938222940020205E-04 -9.90142219501683601E-04 -1.00249835678350085E-03
 -1.01500852770785460E-03 -1.02767464845619902E-03 -1.04049865869063713E-03
 -1.05348252240891442E-03 -1.06662822804596603E-03 -1.07993778823131052E-03
 -1.09341324070847800E-03 -1.10705664871574424E-03 -1.12087010065083158E-03
 -1.13485571079124914E-03 -1.14901561990684762E-03 -1.16335199497309412E-03
 -1.17786702969397078E-03 -1.19256294525704352E-03 -1.20744199009085486E-03
 -1.22250644031514149E-03 -1.23775860054347090E-03 -1.25320080363813401E-03
 -1.26883541122655699E-03 -1.28466481446052683E-03 -1.30069143373572169E-03
 -1.31691771939697441E-03 -1.33334615233158941E-03 -1.34997924370858745E-03
 -1.36681953592366679E-03 -1.38386960285914349E-03 -1.40113204988004088E-03
 -1.41860951485229701E-03 -1.43630466802241365E-03 -1.45422021255241295E-03
 -1.47235888522026341E-03 -1.49072345623576770E-03 -1.50931673025921152E-03
 -1.52814154644609432E-03 -1.54720077888528687E-03 -1.56649733734891099E-03
 -1.58603416717345439E-03 -1.60581425029641218E-03 -1.62584060521275787E-03
 -1.64611628768757731E-03 -1.66664439120022987E-03 -1.68742804716914309E-03
 -1.70847042582987453E-03 -1.72977473617897098E-03 -1.75134422700198226E-03
 -1.77318218683545324E-03 -1.79529194488620299E-03 -1.81767687119412363E-03
 -1.84034037734369708E-03 -1.86328591685595412E-03 -1.88651698571466265E-03
 -1.91003712293684219E-03 -1.93384991097816927E-03 -1.95795897641439561E-03
 -1.98236799029181260E-03 -2.00708066885935382E-03 -2.03210077391904626E-03
 -2.05743211355954858E-03 -2.08307854255249851E-03 -2.10904396304456955E-03
 -2.13533232504174329E-03 -2.16194762701972130E-03 -2.18889391653436004E-03
 -2.21617529071801685E-03 -2.24379589703921833E-03 -2.27175993367928443E-03
 -2.30007165042124756E-03 -2.32873534896311423E-03 -2.35775538383698217E-03
 -2.38713616279866711E-03 -2.41688214762053339E-03 -2.44699785469949804E-03
 -2.47748785562967953E-03 -2.50835677804283307E-03 -2.53960930605042715E-03
 -2.57125018112231742E-03 -2.60328420266326809E-03 -2.63571622868568169E-03
 -2.66855117663934802E-03 -2.70179402394152843E-03 -2.73544980882696768E-03
 -2.76952363105365494E-03 -2.80402065253549391E-03 -2.83894609822344605E-03
 -2.87430525677178890E-03 -2.91010348126749530E-03 -2.94634619009834058E-03
 -2.98303886764200200E-03 -3.02018706504428259E-03 -3.05779640108870760E-03
 -3.09587256293256423E-03 -3.13442130689873741E-03 -3.17344845936361197E-03
 -3.21295991755245333E-03 -3.25296165032965033E-03 -3.29345969910603510E-03
 -3.33446017869364801E-03 -3.37596927812184146E-03 -3.41799326153021136E-03
 -3.46053846907990554E-03 -3.50361131783349976E-03 -3.54721830262406381E-03
 -3.59136599699683536E-03 -3.63606105414159561E-03 -3.68131020781738670E-03
 -3.72712027327142936E-03 -3.77349814820813209E-03 -3.82045081376219302E-03
 -3.86798533546888444E-03 -3.91610886423873587E-03 -3.96482863734331538E-03
 -4.01415197943517411E-03 -4.06408630356399399E-03 -4.11463911220120299E-03
 -4.16581799827456679E-03 -4.21763064620883470E-03 -4.27008483299138979E-03
 -4.32318842924564115E-03 -4.37694940031158573E-03 -4.43137580733787406E-03
 -4.48647580838544557E-03 -4.54225765954149527E-03 -4.59872971604513136E-03
 -4.65590043342962740E-03 -4.71377836867321702E-03 -4.77237218136116609E-03
 -4.83169063485984832E-03 -4.89174259750282687E-03 -4.95253704378911114E-03
 -5.01408305559359908E-03 -5.07638982338971811E-03 -5.13946664748447107E-03
 -5.20332293926561301E-03 -5.26796822246196946E-03 -5.33341213441599401E-03
 -5.39966442736881502E-03 -5.46673496975799093E-03 -5.53463374752803054E-03
 -5.60337086545383781E-03 -5.67295654847702752E-03 -5.74340114305527377E-03
 -5.81471511852476187E-03 -5.88690906847569480E-03 -5.95999371214109893E-03
 -6.03397989579888133E-03 -6.10887859418719065E-03 -6.18470091193324030E-03
 -6.26145808499555760E-03 -6.33916148211976799E-03 -6.41782260630797876E-03
 -6.49745309630181834E-03 -6.57806472807912195E-03 -6.65966941636411073E-03
 -6.74227921615153970E-03 -6.82590632424496906E-03 -6.91056308080867984E-03
 -6.99626197093366781E-03 -7.08301562621744575E-03 -7.17083682635803396E-03
 -7.25973850076191973E-03 -7.34973373016608016E-03 -7.44083574827425400E-03
 -7.53305794340580846E-03 -7.62641386015913258E-03 -7.72091720109168659E-03
 -7.81658182841302694E-03 -7.91342176569183320E-03 -8.01145119957716312E-03
 -8.11068448153357165E-03 -8.21113612958652116E-03 -8.31282083008709309E-03
 -8.41575343949255150E-03 -8.51994898615853445E-03 -8.62542267214551871E-03
 -8.73218987503468838E-03 -8.84026614975945944E-03 -8.94966723045987830E-03
 -9.06040903234597156E-03 -9.17250765357320759E-03 -9.28597937712336702E-03
 -9.40084067271333181E-03 -9.51710819871830031E-03 -9.63479880410281382E-03
 -9.75392953035408156E-03 -9.87451761344495041E-03 -9.99658048581425311E-03
 -1.01201357783490820E-02 -1.02452013223686186E-02 -1.03717951516487349E-02
 -1.04999355044521573E-02 -1.06296408255507260E-02 -1.07609297682754006E-02
 -1.08938211965947194E-02 -1.10283341871784714E-02 -1.11644880314737283E-02
 -1.13023022378259518E-02 -1.14417965335801633E-02 -1.15829908671883156E-02
 -1.17259054103688899E-02 -1.18705605602380717E-02 -1.20169769414545241E-02
 -1.21651754084132549E-02 -1.23151770473981410E-02 -1.24670031787732678E-02
 -1.26206753591993279E-02 -1.27762153838066449E-02 -1.29336452884399877E-02
 -1.30929873518732826E-02 -1.32542640980289790E-02 -1.34174982982511182E-02
 -1.35827129735161065E-02 -1.37499313967221256E-02 -1.39191770949354445E-02
 -1.40904738516591382E-02 -1.42638457091293983E-02 -1.44393169705641627E-02
 -1.46169122024922375E-02 -1.47966562370024160E-02 -1.49785741740798579E-02
 -1.51626913838735205E-02 -1.53490335090239703E-02 -1.55376264669540454E-02
 -1.57284964521840105E-02 -1.59216699386410115E-02 -1.61171736819636299E-02
 -1.63150347218220942E-02 -1.65152803842149552E-02 -1.67179382837920609E-02
 -1.69230363261458731E-02 -1.71306027101288359E-02 -1.73406659301416494E-02
 -1.75532547784363335E-02 -1.77683983474040130E-02 -1.79861260318544512E-02
 -1.82064675313049901E-02 -1.84294528522292236E-02 -1.86551123103455216E-02
 -1.88834765328306994E-02 -1.91145764606007185E-02 -1.93484433504944944E-02
 -1.95851087775268107E-02 -1.98246046370584086E-02 -2.00669631469949789E-02
 -2.03122168499572583E-02 -2.05603986154101609E-02 -2.08115416418268549E-02
 -2.10656794587596972E-02 -2.13228459289608457E-02 -2.15830752504309782E-02
 -2.18464019584533355E-02 -2.21128609276327950E-02 -2.23824873738467864E-02
 -2.26553168562309212E-02 -2.29313852790955959E-02 -2.32107288938042597E-02
 -2.34933843006612658E-02 -2.37793884507071437E-02 -2.40687786475119250E-02
 -2.43615925489346352E-02 -2.46578681687970522E-02 -2.49576438785641154E-02
 -2.52609584089592103E-02 -2.55678508515052444E-02 -2.58783606600635520E-02
 -2.61925276522933341E-02 -2.65103920110389517E-02 -2.68319942857034970E-02
 -2.71573753935371587E-02 -2.74865766208463140E-02 -2.78196396241786222E-02
 -2.81566064314211668E-02 -2.84975194428076228E-02 -2.88424214318879664E-02
 -2.91913555464141834E-02 -2.95443653091235908E-02 -2.99014946184620323E-02
 -3.02627877492310134E-02 -3.06282893531260418E-02 -3.09980444591810914E-02
 -3.13720984741463482E-02 -3.17504971827522811E-02 -3.21332867478573564E-02
 -3.25205137105099990E-02 -3.29122249899063482E-02 -3.33084678832233083E-02
 -3.37092900653248456E-02 -3.41147395883719257E-02 -3.45248648813018047E-02
 -3.49397147491695356E-02 -3.53593383723505988E-02 -3.57837853056270916E-02
 -3.62131054771240024E-02 -3.66473491870927676E-02 -3.70865671065370370E-02
 -3.75308102757001272E-02 -3.79801301023861906E-02 -3.84345783601104662E-02
 -3.88942071860702288E-02 -3.93590690789500167E-02 -3.98292168965477048E-02
 -4.03047038532056076E-02 -4.07855835170459272E-02 -4.12719098070010518E-02
 -4.17637369896531191E-02 -4.22611196758557184E-02 -4.27641128171339091E-02
 -4.32727717018571226E-02 -4.37871519511793816E-02 -4.43073095147517651E-02
 -4.48333006661837466E-02 -4.53651819982509447E-02 -4.59030104178410822E-02
 -4.64468431406301827E-02 -4.69967376854938113E-02 -4.75527518686318096E-02
 -4.81149437974007568E-02 -4.86833718638478574E-02 -4.92580947379342507E-02
 -4.98391713604458830E-02 -5.04266609355844692E-02 -5.10206229232220768E-02
 -5.16211170308124995E-02 -5.22282032049518272E-02 -5.28419416225750019E-02
 -5.34623926817840295E-02 -5.40896169923000963E-02 -5.47236753655218899E-02
 -5.53646288041825738E-02 -5.60125384915965627E-02 -5.66674657804821305E-02
 -5.73294721813503785E-02 -5.79986193504541045E-02 -5.86749690772814456E-02
 -5.93585832715801606E-02 -6.00495239499038644E-02 -6.07478532216669115E-02
 -6.14536332746962385E-02 -6.21669263602645031E-02 -6.28877947775987600E-02
 -6.36163008578474742E-02 -6.43525069474924077E-02 -6.50964753911901228E-02
 -6.58482685140331786E-02 -6.66079486032140344E-02 -6.73755778890784834E-02
 -6.81512185255535446E-02 -6.89349325699355059E-02 -6.97267819620246421E-02
 -7.05268285025899694E-02 -7.13351338311457861E-02 -7.21517594030283010E-02
 -7.29767664657521853E-02 -7.38102160346352787E-02 -7.46521688676698297E-02
 -7.55026854396269043E-02 -7.63618259153738127E-02 -7.72296501223912468E-02
 -7.81062175224689903E-02 -7.89915871825631194E-02 -7.98858177447944046E-02
 -8.07889673955729942E-02 -8.17010938338266907E-02 -8.26222542383161923E-02
 -8.35525052340175822E-02 -8.44919028575497194E-02 -8.54405025216305181E-02
 -8.63983589785378703E-02 -8.73655262825580314E-02 -8.83420577513991806E-02
 -8.93280059265489229E-02 -9.03234225325535989E-02 -9.13283584351990974E-02
 -9.23428635985709678E-02 -9.33669870409713776E-02 -9.44007767896702099E-02
 -9.54442798344681681E-02 -9.64975420800503053E-02 -9.75606082971030020E-02
 -9.86335220721760580E-02 -9.97163257562622557E-02 -1.00809060412072493E-01
 -1.01911765759982481E-01 -1.03024480122627451E-01 -1.04147240368118649E-01
 -1.05280081851858553E-01 -1.06423038356929706E-01 -1.07576142033032007E-01
 -1.08739423333945234E-01 -1.09912910953487458E-01 -1.11096631759950243E-01
 -1.12290610728980181E-01 -1.13494870874884038E-01 -1.14709433180330098E-01
 -1.15934316524422334E-01 -1.17169537609122090E-01 -1.18415110883987457E-01
 -1.19671048469210478E-01 -1.20937360076923017E-01 -1.22214052930747108E-01
 -1.23501131683563595E-01 -1.24798598333474606E-01 -1.26106452137935643E-01
 -1.27424689526029256E-01 -1.28753304008858371E-01 -1.30092286088032721E-01
 -1.31441623162225740E-01 -1.32801299431776848E-01 -1.34171295801313983E-01
 -1.35551589780376541E-01 -1.36942155382011987E-01 -1.38342963019325527E-01
 -1.39753979399960454E-01 -1.41175167418486347E-01 -1.42606486046675696E-01
 -1.44047890221646852E-01 -1.45499330731855836E-01 -1.46960754100913277E-01
 -1.48432102469214178E-01 -1.49913313473356458E-01 -1.51404320123337044E-01
 -1.52905050677505983E-01 -1.54415428515265241E-01 -1.55935372007497297E-01
 -1.57464794384712586E-01 -1.59003603602901694E-01 -1.60551702207083952E-01
 -1.62108987192541992E-01 -1.63675349863735692E-01 -1.65250675690888221E-01
 -1.66834844164240603E-01 -1.68427728645969832E-01 -1.70029196219771445E-01
 -1.71639107538105878E-01 -1.73257316667109695E-01 -1.74883670929177337E-01
 -1.76518010743221515E-01 -1.78160169462615592E-01 -1.79809973210833446E-01
 -1.81467240714797556E-01 -1.83131783135953352E-01 -1.84803403899082591E-01
 -1.86481898518885025E-01 -1.88167054424343422E-01 -1.89858650780904581E-01
 -1.91556458310504579E-01 -1.93260239109469267E-01 -1.94969746464328797E-01
 -1.96684724665585980E-01 -1.98404908819478365E-01 -2.00130024657786315E-01
 -2.01859788345734120E-01 -2.03593906288040888E-01 -2.05332074933180425E-01
 -2.07073980575914057E-01 -2.08819299158161553E-01 -2.10567696068290872E-01
 -2.12318825938892619E-01 -2.14072332443132979E-01 -2.15827848089766350E-01
 -2.17584994016904121E-01 -2.19343379784636500E-01 -2.21102603166612066E-01
 -2.22862249940690565E-01 -2.24621893678774026E-01 -2.26381095535954396E-01
 -2.28139404039093441E-01 -2.29896354874979725E-01 -2.31651470678202187E-01
 -2.33404260818892345E-01 -2.35154221190490009E-01 -2.36900833997700816E-01
 -2.38643567544818136E-01 -2.40381876024588381E-01 -2.42115199307808726E-01
 -2.43842962733858276E-01 -2.45564576902368575E-01 -2.47279437466242147E-01
 -2.48986924926253378E-01 -2.50686404427457821E-01 -2.52377225557657403E-01
 -2.54058722148175320E-01 -2.55730212077198316E-01 -2.57390997075968297E-01
 -2.59040362538102142E-01 -2.60677577332334098E-01 -2.62301893618994808E-01
 -2.63912546670528825E-01 -2.65508754696401728E-01 -2.67089718672716470E-01
 -2.68654622176902613E-01 -2.70202631227845935E-01 -2.71732894131826164E-01
 -2.73244541334662305E-01 -2.74736685280463189E-01 -2.76208420277403000E-01
 -2.77658822370949521E-01 -2.79086949224988778E-01 -2.80491840011303950E-01
 -2.81872515307878158E-01 -2.83227977006509923E-01 -2.84557208230234449E-01
 -2.85859173261073574E-01 -2.87132817478636559E-01 -2.88377067310120305E-01
 -2.89590830192261617E-01 -2.90772994545824837E-01 -2.91922429763205538E-01
 -2.93037986209761459E-01 -2.94118495239485966E-01 -2.95162769225666310E-01
 -2.96169601607172539E-01 -2.97137766951043936E-01 -2.98066021032066975E-01
 -2.98953100930027138E-01 -2.99797725145362182E-01 -3.00598593733942765E-01
 -3.01354388461725686E-01 -3.02063772980042333E-01 -3.02725393022302336E-01
 -3.03337876622896463E-01 -3.03899834359115995E-01 -3.04409859616908585E-01
 -3.04866528881301502E-01 -3.05268402052352394E-01 -3.05614022787488449E-01
 -3.05901918871118728E-01 -3.06130602612403491E-01 -3.06298571272097475E-01
 -3.06404307519377528E-01 -3.06446279919593001E-01 -3.06422943453870333E-01
 -3.06332740071535992E-01 -3.06174099276314837E-01 -3.05945438747274367E-01
 -3.05645164995503926E-01 -3.05271674057505493E-01 -3.04823352226298638E-01
 -3.04298576821246225E-01 -3.03695716997603726E-01 -3.03013134596797074E-01
 -3.02249185038444945E-01 -3.01402218255137522E-01 -3.00470579670989946E-01
 -2.99452611224976240E-01 -2.98346652440050930E-01 -2.97151041539077176E-01
 -2.95864116608536731E-01 -2.94484216811028432E-01 -2.93009683647526553E-01
 -2.91438862270368360E-01 -2.89770102847922761E-01 -2.88001761981874271E-01
 -2.86132204178046412E-01 -2.84159803371654363E-01 -2.82082944507862809E-01
 -2.79900025178493828E-01 -2.77609457315705244E-01 -2.75209668943423746E-01
 -2.72699105987282531E-01 -2.70076234143776073E-01 -2.67339540809307052E-01
 -2.64487537069750922E-01 -2.61518759751115715E-01 -2.58431773531831110E-01
 -2.55225173117128112E-01 -2.51897585475942265E-01 -2.48447672140671899E-01
 -2.44874131570092551E-01 -2.41175701575629481E-01 -2.37351161811134553E-01
 -2.33399336326233359E-01 -2.29319096183199511E-01 -2.25109362137239616E-01
 -2.20769107380011931E-01 -2.16297360346121181E-01 -2.11693207582101195E-01
 -2.06955796677411319E-01 -2.02084339256830753E-01 -1.97078114033510665E-01
 -1.91936469921833580E-01 -1.86658829209094212E-01 -1.81244690784901796E-01
 -1.75693633427044915E-01 -1.70005319142447403E-01 -1.64179496561682597E-01
 -1.58216004385364095E-01 -1.52114774880599490E-01 -1.45875837425497312E-01
 -1.39499322099602863E-01 -1.32985463317929459E-01 -1.26334603506110393E-01
 -1.19547196814010492E-01 -1.12623812864955625E-01 -1.05565140537568353E-01
 -9.83719917769925178E-02 -9.10453054321272298E-02 -8.35861511152643927E-02
 -7.59957330803561759E-02 -6.82753941159237598E-02 -6.04266194484122110E-02
 -5.24510406516051908E-02 -4.43504395574748772E-02 -3.61267521636645106E-02
 -2.77820725324990116E-02 -1.93186566762271195E-02 -1.07389264233218040E-02
 -2.04547325981968044E-03  6.75893786022796136E-03  1.56713647413647024E-02
  2.46886842168223611E-02  3.38075884688181158E-02  4.30245814059828716E-02
  5.23359751051614489E-02  6.17378863250584164E-02  7.12262330994967302E-02
  8.07967314183535429E-02  9.04448920044917670E-02  1.00166017195359100E-01
  1.09955197938178387E-01  1.19807310908007628E-01  1.29717015758244819E-01
  1.39678752513485549E-01  1.49686739114969158E-01  1.59734969129177562E-01
  1.69817209630500399E-01  1.79926999269180266E-01  1.90057646536130304E-01
  2.00202228236501717E-01  2.10353588184220452E-01  2.20504336130027817E-01
  2.30646846935841726E-01  2.40773260008566387E-01  2.50875479006781588E-01
  2.60945171834160661E-01  2.70973770932655345E-01  2.80952473890161314E-01
  2.90872244376936095E-01  3.00723813425031294E-01  3.10497681065268594E-01
  3.20184118336345247E-01  3.29773169680747935E-01  3.39254655742154299E-01
  3.48618176579015782E-01  3.57853115308967351E-01  3.66948642198649810E-01
  3.75893719213432953E-01  3.84677105041388079E-01  3.93287360605733383E-01
  4.01712855079755293E-01  4.09941772418043582E-01  4.17962118417616602E-01
  4.25761728322279431E-01  4.33328274983303119E-01  4.40649277589178157E-01
  4.47712110976958122E-01  4.54504015537341544E-01  4.61012107725341291E-01
  4.67223391188054893E-01  4.73124768520668093E-01  4.78703053661542199E-01
  4.83944984936987010E-01  4.88837238765832571E-01  4.93366444032502072E-01
  4.97519197139163760E-01  5.01282077745660137E-01  5.04641665205813883E-01
  5.07584555708337715E-01  5.10097380130273836E-01  5.12166822610519712E-01
  5.13779639850597825E-01  5.14922681149504569E-01  5.15582909179069460E-01
  5.15747421505897252E-01  5.15403472865589185E-01  5.14538498194537564E-01
  5.13140136424180104E-01  5.11196255042213998E-01  5.08694975424767604E-01
  5.05624698943137330E-01  5.01974133848121951E-01  4.97732322934521410E-01
  4.92888671987729454E-01  4.87432979013760870E-01  4.81355464253350462E-01
  4.74646800979995842E-01  4.67298147080999204E-01  4.59301177419630891E-01
  4.50648116975612023E-01  4.41331774759796791E-01  4.31345578497496940E-01
  4.20683610074410130E-01  4.09340641736824495E-01  3.97312173036265703E-01
  3.84594468506998466E-01  3.71184596062723526E-01  3.57080466096711624E-01
  3.42280871267111042E-01  3.26785526946672233E-01  3.10595112313208410E-01
  2.93711312054118212E-01  2.76136858654954742E-01  2.57875575238477428E-01
  2.38932418916809886E-01  2.19313524615232347E-01  1.99026249321823806E-01
  1.78079216712461380E-01  1.56482362095879707E-01  1.34246977618251356E-01
  1.11385757661307441E-01  8.79128443623323208E-02  6.38438731783383256E-02
  3.91960184105788478E-02  1.39880385989859437E-02 -1.17596783105901222E-02
 -3.80250701311638448E-02 -6.47843560399421065E-02 -9.20119927436876262E-02
 -1.19680631330366480E-01 -1.47761074939549847E-01 -1.76222237392184983E-01
 -2.05031102927746067E-01 -2.34152687204470467E-01 -2.63549999725751993E-01
 -2.93184007863265927E-01 -3.23013602654677212E-01 -3.52995566560811602E-01
 -3.83084543374244579E-01 -4.13233010477758178E-01 -4.43391253657605566E-01
 -4.73507344682557729E-01 -5.03527121865409266E-01 -5.33394173829034979E-01
 -5.63049826704022149E-01 -5.92433134989593158E-01 -6.21480876313723840E-01
 -6.50127550332360693E-01 -6.78305382011256564E-01 -7.05944329537341986E-01
 -7.32972097109898191E-01 -7.59314152865498859E-01 -7.84893752196483496E-01
 -8.09631966714399742E-01 -8.33447719128287745E-01 -8.56257824309071158E-01
 -8.77977036813091916E-01 -8.98518105146264290E-01 -9.17791833058494211E-01
 -9.35707148167766900E-01 -9.52171178224807124E-01 -9.67089335342995460E-01
 -9.80365408533965255E-01 -9.91901664907550273E-01 -1.00159895991501835E+00
 -1.00935685703694777E+00 -1.01507375734120009E+00 -1.01864703936156742E+00
 -1.01997320977336692E+00 -1.01894806536719784E+00 -1.01546686684540055E+00
 -1.00942452498596791E+00 -1.00071579973435787E+00 -9.89235512793271599E-01
 -9.74878774282663230E-01 -9.57541224035449834E-01 -9.37119288077828405E-01
 -9.13510450818047270E-01 -8.86613543428513173E-01 -8.56329048837718654E-01
 -8.22559423723108751E-01 -7.85209437807130595E-01 -7.44186530681837377E-01
 -6.99401186305585898E-01 -6.50767325226674465E-01 -5.98202714496882559E-01
 -5.41629395144446746E-01 -4.80974126981777717E-01 -4.16168850429907478E-01
 -3.47151164948797719E-01 -2.73864823571477789E-01 -1.96260242949224811E-01
 -1.14295028225152778E-01 -2.79345119632369160E-02  6.28476937318442341E-02
  1.58069132862082712E-01  2.57737930006373406E-01  3.61852204770245323E-01
  4.70399477479518102E-01  5.83356067495717445E-01  7.00686485653135738E-01
  8.22342822447351018E-01  9.48264133745073456E-01  1.07837582593252579E+00
  1.21258904259313494E+00  1.35080005496758515E+00  1.49288965862980993E+00
  1.63872257902402785E+00  1.78814688871650751E+00  1.94099343944287028E+00
  2.09707531227256094E+00  2.25618728946889746E+00  2.41810535189286346E+00
  2.58258620608486611E+00  2.74936684545789500E+00  2.91816415034949728E+00
  3.08867453200673259E+00  3.26057362591720024E+00  3.43351604025035240E+00
  3.60713516553261737E+00  3.78104305204736013E+00  3.95483036182408076E+00
  4.12806640245601031E+00  4.30029925036041494E+00  4.47105597146510192E+00
  4.63984294766638783E+00  4.80614631775011869E+00  4.96943254179495408E+00
  5.12914909838926558E+00  5.28472532426201269E+00  5.43557340606149442E+00
  5.58108953434112465E+00  5.72065522985157404E+00  5.85363885228317304E+00
  5.97939730157361460E+00  6.09727792176451011E+00  6.20662061715182389E+00
  6.30676019011401578E+00  6.39702890950262404E+00  6.47675931782849190E+00
  6.54528728465372733E+00  6.60195531258970636E+00  6.64611610108464834E+00
  6.67713637174356034E+00  6.69440095723936057E+00  6.69731715392742544E+00
  6.68531933604907547E+00  6.65787382688430629E+00  6.61448401932884789E+00
  6.55469573543730810E+00  6.47810281037984392E+00  6.38435288311981264E+00
  6.27315337134896467E+00  6.14427760380735677E+00  5.99757107817552448E+00
  5.83295780701152111E+00  5.65044670889898626E+00  5.45013799585804737E+00
  5.23222950154099120E+00  4.99702288813935969E+00  4.74492966303133645E+00
  4.47647692911683670E+00  4.19231278558945331E+00  3.89321128866436883E+00
  3.58007687461254998E+00  3.25394814046197567E+00  2.91600087104214811E+00
  2.56755019481924718E+00  2.21005174536673632E+00  1.84510170052078104E+00
  1.47443556749891047E+00  1.09992557973154814E+00  7.23576570126318264E-01
  3.47520186216652149E-01 -2.59926845783717761E-02 -3.94601406230290830E-01
 -7.55847120782198734E-01 -1.10718641854140576E+00 -1.44600724583877915E+00
 -1.76964712695759152E+00 -2.07541375466635758E+00 -2.36060797795230570E+00
 -2.62254918600023146E+00 -2.85860305175197649E+00 -3.06621155856240346E+00
 -3.24292518853302569E+00 -3.38643710114382479E+00 -3.49461907591351739E+00
 -3.56555893320419237E+00 -3.59759908329423572E+00 -3.58937578598609086E+00
 -3.53985863198784845E+00 -3.44838968401555057E+00 -3.31472164113744228E+00
 -3.13905431570363458E+00 -2.92206863991993693E+00 -2.66495735065898964E+00
 -2.36945143866423980E+00 -2.03784139439797052E+00 -1.67299224019666659E+00
 -1.27835131017805148E+00 -8.57947728789372865E-01 -4.16382549485856623E-01
  4.11914495835389374E-02  5.09101252201601406E-01  9.81197216754988943E-01
  1.45090952594213474E+00  1.91131801405146939E+00  2.35523570082604827E+00
  2.77530610458366445E+00  3.16411410614759347E+00  3.51430978883708400E+00
  3.81874428941023325E+00  4.07061626324696579E+00  4.26362709886936031E+00
  4.39214251895693852E+00  4.45135768655415109E+00  4.43746240804577052E+00
  4.34780250336157170E+00  4.18103291633352114E+00  3.93725768467193049E+00
  3.61815150297799182E+00  3.22705731948719343E+00  2.76905423592664057E+00
  2.25098995962571902E+00  1.68147221822060300E+00  1.07081391997279263E+00
  4.30927455209951127E-01 -2.24835588271418640E-01 -8.81901861358945771E-01
 -1.52475194933594449E+00 -2.13725367043705550E+00 -2.70305027130814901E+00
 -3.20599849808704729E+00 -3.63064897550371146E+00 -3.96275861426308085E+00
 -4.18982196855047029E+00 -4.30160568347224181E+00 -4.29066753170740611E+00
 -4.15283918609083358E+00 -3.88764997587717387E+00 -3.49866760971046009E+00
 -2.99373140761047862E+00 -2.38505415833341816E+00 -1.68917048864821329E+00
 -9.26712756776385316E-01 -1.22000086172250083E-01  6.97567692411726226E-01
  1.50231172408244085E+00  2.26126281583121891E+00  2.94331808475475043E+00
  3.51853516173502090E+00  3.95952167506371389E+00  4.24286594667103323E+00
  4.35054383286371937E+00  4.27122725625971000E+00  4.00141305947264048E+00
  3.54628752121503243E+00  2.92024293754326569E+00  2.14696907652209257E+00
  1.25905477767925666E+00  2.97053920159285056E-01 -6.92004480896766250E-01
 -1.65665054869930195E+00 -2.54350367634734109E+00 -3.30020928195478547E+00
 -3.87865075442635909E+00 -4.23826435960279913E+00 -4.34924894116246730E+00
 -4.19543506750379525E+00 -3.77656393333413654E+00 -3.10972879202272035E+00
 -2.22975442347054820E+00 -1.18833560330882748E+00 -5.18247240344213503E-02
  1.10234935414408319E+00  2.19053786090257496E+00  3.12878617046138752E+00
  3.83945852174107083E+00  4.25810480394468005E+00  4.33999981254591649E+00
  4.06571964592672508E+00  3.44510466528610815E+00  2.51900578129442954E+00
  1.35832962304827798E+00  6.00913698118411138E-02 -1.25955360054126198E+00
 -2.47501122567828702E+00 -3.46304897728107575E+00 -4.11571912139088969E+00
 -4.35313376958252363E+00 -4.13463663425667605E+00 -3.46681867590789405E+00
 -2.40701307339529746E+00 -1.06117405556895239E+00  4.24393490019230990E-01
  1.87728174507743106E+00  3.11820742010162721E+00  3.98336553756771927E+00
  4.34733720092850096E+00  4.14338287604729771E+00  3.37789721980930180E+00
                              </PP_AEWFC.2>
 <PP_AEWFC.3 type="real" size="   999" l="1" columns="3" label= "3P">
 -2.40239816582550887E-07 -2.45546434138642518E-07 -2.50970981746508601E-07
 -2.56516104099442593E-07 -2.62184507074808759E-07 -2.67978955574510700E-07
 -2.73902276155063339E-07 -2.79957363265622640E-07 -2.86147176210648178E-07
 -2.92474739001572420E-07 -2.98943146057129863E-07 -3.05555564322392009E-07
 -3.12315230222285574E-07 -3.19225452958127936E-07 -3.26289620784805397E-07
 -3.33511197497243572E-07 -3.40893723580925089E-07 -3.48440823636611841E-07
 -3.56156204684633943E-07 -3.64043655494561091E-07 -3.72107053952566812E-07
 -3.80350367276710731E-07 -3.88777650247487003E-07 -3.97393052554791804E-07
 -4.06200819888785879E-07 -4.15205291902505811E-07 -4.24410909972661951E-07
 -4.33822217917284535E-07 -4.43443860549223024E-07 -4.53280592183038390E-07
 -4.63337275798340868E-07 -4.73618883409742765E-07 -4.84130504814478675E-07
 -4.94877344648867891E-07 -5.05864726327083198E-07 -5.17098098675216417E-07
 -5.28583032477025530E-07 -5.40325228619982241E-07 -5.52330519662300832E-07
 -5.64604869875851490E-07 -5.77154384501130921E-07 -5.89985306636662068E-07
 -6.03104024478471951E-07 -6.16517074488147038E-07 -6.30231141443451932E-07
 -6.44253067881212550E-07 -6.58589851237381154E-07 -6.73248652880304988E-07
 -6.88236798968473972E-07 -7.03561784485844011E-07 -7.19231279791871935E-07
 -7.35253130089020087E-07 -7.51635365525826189E-07 -7.68386199187299250E-07
 -7.85514037435924478E-07 -8.03027479379744589E-07 -8.20935325331924763E-07
 -8.39246578978430762E-07 -8.57970453562600820E-07 -8.77116376582292738E-07
 -8.96693994238765512E-07 -9.16713177971906030E-07 -9.37184027949483781E-07
 -9.58116880697815829E-07 -9.79522312354128324E-07 -1.00141114675081894E-06
 -1.02379445904888117E-06 -1.04668358371981085E-06 -1.07009011912381332E-06
 -1.09402593486151200E-06 -1.11850317784571618E-06 -1.14353427852635006E-06
 -1.16913195892218112E-06 -1.19530923740604130E-06 -1.22207943882420294E-06
 -1.24945619809103507E-06 -1.27745347170106433E-06 -1.30608554144977284E-06
 -1.33536702550164264E-06 -1.36531288436699547E-06 -1.39593842960800386E-06
 -1.42725933340476385E-06 -1.45929163469101994E-06 -1.49205175113932514E-06
 -1.52555648540941090E-06 -1.55982303590392825E-06 -1.59486900657152572E-06
 -1.63071241477570922E-06 -1.66737170380402068E-06 -1.70486575117506131E-06
 -1.74321387933821469E-06 -1.78243586785782357E-06 -1.82255196234258242E-06
 -1.86358288689036800E-06 -1.90554985604814876E-06 -1.94847458509508039E-06
 -1.99237930340252633E-06 -2.03728676692073542E-06 -2.08322026969803134E-06
 -2.13020365786188142E-06 -2.17826134323531213E-06 -2.22741831593109048E-06
 -2.27770015883071503E-06 -2.32913306265394812E-06 -2.38174383970212667E-06
 -2.43555993890856795E-06 -2.49060946202794250E-06 -2.54692117915478001E-06
 -2.60452454447631151E-06 -2.66344971307431317E-06 -2.72372755847741835E-06
 -2.78538968962647385E-06 -2.84846846856793293E-06 -2.91299702887331862E-06
 -2.97900929477682093E-06 -3.04654000012454583E-06 -3.11562470789240577E-06
 -3.18629983040480034E-06 -3.25860265015382044E-06 -3.33257134112404139E-06
 -3.40824499024463855E-06 -3.48566361961682781E-06 -3.56486820932969671E-06
 -3.64590072085511001E-06 -3.72880412110458592E-06 -3.81362240683997543E-06
 -3.90040062974591883E-06 -3.98918492219198087E-06 -4.08002252362816172E-06
 -4.17296180762990002E-06 -4.26805230963111531E-06 -4.36534475534092926E-06
 -4.46489108977565897E-06 -4.56674450706521945E-06 -4.67095948100609495E-06
 -4.77759179636847976E-06 -4.88669858097644654E-06 -4.99833833858071310E-06
 -5.11257098254377309E-06 -5.22945787035769051E-06 -5.34906183901635654E-06
 -5.47144724126506074E-06 -5.59667998273715217E-06 -5.72482756001360995E-06
 -5.85595909962772542E-06 -5.99014539803473277E-06 -6.12745896257020330E-06
 -6.26797405342193820E-06 -6.41176672664033146E-06 -6.55891487821307026E-06
 -6.70949828923051740E-06 -6.86359867216868838E-06 -7.02129971831765350E-06
 -7.18268714638357847E-06 -7.34784875229344017E-06 -7.51687446023228955E-06
 -7.68985637494322390E-06 -7.86688883532162716E-06 -8.04806846933535468E-06
 -8.23349425030374869E-06 -8.42326755456944430E-06 -8.61749222060213478E-06
 -8.81627460956039392E-06 -9.01972366734806934E-06 -9.22795098820806102E-06
 -9.44107087988904159E-06 -9.65920043042355190E-06 -9.88245957655743465E-06
 -1.01109711738710707E-05 -1.03448610686341935E-05 -1.05842581714373337E-05
 -1.08292945326677854E-05 -1.10801054198488984E-05 -1.13368293968391936E-05
 -1.15996084050148533E-05 -1.18685878464611014E-05 -1.21439166692184118E-05
 -1.24257474546419026E-05 -1.27142365069911940E-05 -1.30095439451358499E-05
 -1.33118337964957450E-05 -1.36212740933462614E-05 -1.39380369715030984E-05
 -1.42622987715301212E-05 -1.45942401424139731E-05 -1.49340461476301640E-05
 -1.52819063739242835E-05 -1.56380150428115755E-05 -1.60025711249870760E-05
 -1.63757784572882462E-05 -1.67578458625322073E-05 -1.71489872724207603E-05
 -1.75494218536864614E-05 -1.79593741370405475E-05 -1.83790741492274225E-05
 -1.88087575485507891E-05 -1.92486657639508009E-05 -1.96990461369865404E-05
 -2.01601520674602984E-05 -2.06322431630092475E-05 -2.11155853920983112E-05
 -2.16104512404804618E-05 -2.21171198720166726E-05 -2.26358772934402548E-05
 -2.31670165225642415E-05 -2.37108377612156327E-05 -2.42676485725107846E-05
 -2.48377640617419420E-05 -2.54215070624352725E-05 -2.60192083269252494E-05
 -2.66312067209086909E-05 -2.72578494237222645E-05 -2.78994921330049395E-05
 -2.85564992741143704E-05 -2.92292442156350642E-05 -2.99181094890381503E-05
 -3.06234870144355016E-05 -3.13457783319280958E-05 -3.20853948378158394E-05
 -3.28427580278387290E-05 -3.36182997451091206E-05 -3.44124624350009858E-05
 -3.52256994059970823E-05 -3.60584750965392643E-05 -3.69112653493416741E-05
 -3.77845576910903732E-05 -3.86788516204598120E-05 -3.95946589017156535E-05
 -4.05325038667500042E-05 -4.14929237234991686E-05 -4.24764688725703043E-05
 -4.34837032312041820E-05 -4.45152045652558783E-05 -4.55715648293692312E-05
 -4.66533905151614292E-05 -4.77613030082870530E-05 -4.88959389537173817E-05
 -5.00579506304123321E-05 -5.12480063346170837E-05 -5.24667907729025785E-05
 -5.37150054644382042E-05 -5.49933691532033264E-05 -5.63026182302323993E-05
 -5.76435071658494886E-05 -5.90168089529067080E-05 -6.04233155599746019E-05
 -6.18638383965701595E-05 -6.33392087883928768E-05 -6.48502784654301487E-05
 -6.63979200605557861E-05 -6.79830276212843045E-05 -6.96065171331869777E-05
 -7.12693270561533167E-05 -7.29724188739577551E-05 -7.47167776562509796E-05
 -7.65034126352349774E-05 -7.83333577951291198E-05 -8.02076724765980070E-05
 -8.21274419955715803E-05 -8.40937782764869946E-05 -8.61078205016814301E-05
 -8.81707357754182988E-05 -9.02837198044503000E-05 -9.24479975950049260E-05
 -9.46648241658277882E-05 -9.69354852791816184E-05 -9.92612981888128722E-05
 -1.01643612405749676E-04 -1.04083810483075048E-04 -1.06583308818723895E-04
 -1.09143558477750450E-04 -1.11766046034623067E-04 -1.14452294434912386E-04
 -1.17203863877936209E-04 -1.20022352720686098E-04 -1.22909398402653490E-04
 -1.25866678393044787E-04 -1.28895911160757757E-04 -1.31998857166830169E-04
 -1.35177319880738946E-04 -1.38433146821103053E-04 -1.41768230620556467E-04
 -1.45184510115969618E-04 -1.48683971464804690E-04 -1.52268649287567504E-04
 -1.55940627837131786E-04 -1.59702042195967081E-04 -1.63555079501628197E-04
 -1.67501980200750449E-04 -1.71545039332782960E-04 -1.75686607844119234E-04
 -1.79929093932850652E-04 -1.84274964425016225E-04 -1.88726746183316804E-04
 -1.93287027548961967E-04 -1.97958459816941309E-04 -2.02743758745882468E-04
 -2.07645706103298236E-04 -2.12667151246974677E-04 -2.17811012742932379E-04
 -2.23080280021171546E-04 -2.28478015070013952E-04 -2.34007354169898945E-04
 -2.39671509667168715E-04 -2.45473771789041922E-04 -2.51417510500675080E-04
 -2.57506177405273154E-04 -2.63743307687939674E-04 -2.70132522104323067E-04
 -2.76677529015176954E-04 -2.83382126467779762E-04 -2.90250204325244638E-04
 -2.97285746444509607E-04 -3.04492832904336224E-04 -3.11875642284343527E-04
 -3.19438453996187663E-04 -3.27185650667976874E-04 -3.35121720582887486E-04
 -3.43251260173381412E-04 -3.51578976572140172E-04 -3.60109690220919974E-04
 -3.68848337538587863E-04 -3.77799973649380636E-04 -3.86969775172862614E-04
 -3.96363043076850788E-04 -4.05985205594589622E-04 -4.15841821207583507E-04
 -4.25938581695336376E-04 -4.36281315253364652E-04 -4.46875989681036186E-04
 -4.57728715640596878E-04 -4.68845749988863725E-04 -4.80233499183098335E-04
 -4.91898522762498273E-04 -5.03847536906811520E-04 -5.16087418073743953E-04
 -5.28625206716715375E-04 -5.41468111084560957E-04 -5.54623511104822384E-04
 -5.68098962352343710E-04 -5.81902200104718521E-04 -5.96041143486401642E-04
 -6.10523899703257827E-04 -6.25358768369273276E-04 -6.40554245927252080E-04
 -6.56119030165290551E-04 -6.72062024830944881E-04 -6.88392344344878910E-04
 -7.05119318615884689E-04 -7.22252497959310880E-04 -7.39801658120784974E-04
 -7.57776805407235957E-04 -7.76188181927220172E-04 -7.95046270942572080E-04
 -8.14361802333495857E-04 -8.34145758179116715E-04 -8.54409378455587057E-04
 -8.75164166853958057E-04 -8.96421896719950140E-04 -9.18194617117819626E-04
 -9.40494659020515837E-04 -9.63334641628377751E-04 -9.86727478818630538E-04
 -1.01068638572795544E-03 -1.03522488547048443E-03 -1.06035681599342966E-03
 -1.08609633707278889E-03 -1.11245793745149975E-03 -1.13945644212238325E-03
 -1.16710701975833507E-03 -1.19542519029214138E-03 -1.22442683264838712E-03
 -1.25412819262992500E-03 -1.28454589096132880E-03 -1.31569693149189131E-03
 -1.34759870956061966E-03 -1.38026902052571930E-03 -1.41372606846110823E-03
 -1.44798847502249691E-03 -1.48307528848558041E-03 -1.51900599295885785E-03
 -1.55580051777363840E-03 -1.59347924705378181E-03 -1.63206302946769348E-03
 -1.67157318816515553E-03 -1.71203153090149869E-03 -1.75346036035166786E-03
 -1.79588248461669785E-03 -1.83932122792509448E-03 -1.88380044153168202E-03
 -1.92934451481627874E-03 -1.97597838658474488E-03 -2.02372755657483127E-03
 -2.07261809716922799E-03 -2.12267666531819723E-03 -2.17393051467412333E-03
 -2.22640750794032231E-03 -2.28013612943635084E-03 -2.33514549788204273E-03
 -2.39146537940248443E-03 -2.44912620075599498E-03 -2.50815906278724528E-03
 -2.56859575410746084E-03 -2.63046876500367625E-03 -2.69381130157890980E-03
 -2.75865730012502582E-03 -2.82504144173000493E-03 -2.89299916712122598E-03
 -2.96256669174630805E-03 -3.03378102109287369E-03 -3.10667996624859307E-03
 -3.18130215970266819E-03 -3.25768707138988532E-03 -3.33587502497812317E-03
 -3.41590721440015966E-03 -3.49782572063043595E-03 -3.58167352870726943E-03
 -3.66749454500089889E-03 -3.75533361472750416E-03 -3.84523653970923881E-03
 -3.93725009638006863E-03 -4.03142205403702290E-03 -4.12780119333629267E-03
 -4.22643732503333227E-03 -4.32738130896595692E-03 -4.43068507327913381E-03
 -4.53640163388991432E-03 -4.64458511419076330E-03 -4.75529076498915765E-03
 -4.86857498468114616E-03 -4.98449533965613159E-03 -5.10311058492996742E-03
 -5.22448068500302489E-03 -5.34866683493958207E-03 -5.47573148166452615E-03
 -5.60573834547297561E-03 -5.73875244174804153E-03 -5.87484010288157922E-03
 -6.01406900039230460E-03 -6.15650816723520202E-03 -6.30222802029577894E-03
 -6.45130038306216281E-03 -6.60379850846754858E-03 -6.75979710189508406E-03
 -6.91937234433658791E-03 -7.08260191569607712E-03 -7.24956501822851540E-03
 -7.42034240010339997E-03 -7.59501637908252276E-03 -7.77367086630022675E-03
 -7.95639139013415084E-03 -8.14326512015352971E-03 -8.33438089113155110E-03
 -8.52982922710744662E-03 -8.72970236548339072E-03 -8.93409428114013554E-03
 -9.14310071055507087E-03 -9.35681917590492664E-03 -9.57534900913502122E-03
 -9.79879137597570136E-03 -1.00272492998858126E-02 -1.02608276859022032E-02
 -1.04996333443729828E-02 -1.07437750145517909E-02 -1.09933633880285337E-02
 -1.12485111319716793E-02 -1.15093329121557075E-02 -1.17759454157462754E-02
 -1.20484673738144987E-02 -1.23270195835505827E-02 -1.26117249301456544E-02
 -1.29027084083096714E-02 -1.32000971433915912E-02 -1.35040204120669503E-02
 -1.38146096625566834E-02 -1.41319985343390502E-02 -1.44563228773160000E-02
 -1.47877207703929862E-02 -1.51263325394300572E-02 -1.54723007745208776E-02
 -1.58257703465537296E-02 -1.61868884230083505E-02 -1.65558044829391855E-02
 -1.69326703310954708E-02 -1.73176401111257636E-02 -1.77108703178129115E-02
 -1.81125198082845267E-02 -1.85227498121405335E-02 -1.89417239404395497E-02
 -1.93696081934816820E-02 -1.98065709673255555E-02 -2.02527830589735343E-02
 -2.07084176701584147E-02 -2.11736504096621848E-02 -2.16486592940950164E-02
 -2.21336247470619203E-02 -2.26287295966401160E-02 -2.31341590710906035E-02
 -2.36501007927225060E-02 -2.41767447698291379E-02 -2.47142833866100912E-02
 -2.52629113909930945E-02 -2.58228258802664472E-02 -2.63942262844297088E-02
 -2.69773143471698021E-02 -2.75722941043651942E-02 -2.81793718600202719E-02
 -2.87987561595278892E-02 -2.94306577601575713E-02 -3.00752895986623955E-02
 -3.07328667558966311E-02 -3.14036064183335836E-02 -3.20877278363691093E-02
 -3.27854522792970018E-02 -3.34970029868358402E-02 -3.42226051170887030E-02
 -3.49624856908114720E-02 -3.57168735318647984E-02 -3.64859992037226272E-02
 -3.72700949419056821E-02 -3.80693945822096688E-02 -3.88841334845917638E-02
 -3.97145484525801701E-02 -4.05608776480666858E-02 -4.14233605013421130E-02
 -4.23022376162313848E-02 -4.31977506701829508E-02 -4.41101423091670233E-02
 -4.50396560372321939E-02 -4.59865361005725587E-02 -4.69510273659512686E-02
 -4.79333751933293251E-02 -4.89338253025439762E-02 -4.99526236338811089E-02
 -5.09900162023856698E-02 -5.20462489457511682E-02 -5.31215675656317859E-02
 -5.42162173622159280E-02 -5.53304430619042595E-02 -5.64644886379313468E-02
 -5.76185971237717226E-02 -5.87930104191723771E-02 -5.99879690886515188E-02
 -6.12037121523075836E-02 -6.24404768687802023E-02 -6.36984985102104634E-02
 -6.49780101290422241E-02 -6.62792423165156769E-02 -6.76024229527037029E-02
 -6.89477769479422686E-02 -7.03155259755135070E-02 -7.17058881954376476E-02
 -7.31190779692396514E-02 -7.45553055655552854E-02 -7.60147768564505000E-02
 -7.74976930043288770E-02 -7.90042501393102142E-02 -8.05346390269690848E-02
 -8.20890447263251805E-02 -8.36676462379905284E-02 -8.52706161423788800E-02
 -8.68981202278962528E-02 -8.85503171090373242E-02 -9.02273578343220084E-02
 -9.19293854840163710E-02 -9.36565347575920859E-02 -9.54089315508916541E-02
 -9.71866925229721151E-02 -9.89899246526213944E-02 -1.00818724784545913E-01
 -1.02673179165244932E-01 -1.04553362968603389E-01 -1.06459339811244641E-01
 -1.08391161257706578E-01 -1.10348866315512717E-01 -1.12332480920236275E-01
 -1.14342017410663091E-01 -1.16377473994185812E-01 -1.18438834202575241E-01
 -1.20526066338295781E-01 -1.22639122911555043E-01 -1.24777940068297843E-01
 -1.26942437009370218E-01 -1.29132515401096798E-01 -1.31348058777562643E-01
 -1.33588931934893379E-01 -1.35854980317850815E-01 -1.38146029399098758E-01
 -1.40461884051501423E-01 -1.42802327913860244E-01 -1.45167122750505001E-01
 -1.47556007805193262E-01 -1.49968699149791107E-01 -1.52404889028238788E-01
 -1.54864245196332989E-01 -1.57346410257878877E-01 -1.59851000997803722E-01
 -1.62377607712837935E-01 -1.64925793540412369E-01 -1.67495093786435872E-01
 -1.70085015252654126E-01 -1.72695035564317395E-01 -1.75324602498908244E-01
 -1.77973133316721044E-01 -1.80640014094098023E-01 -1.83324599060171567E-01
 -1.86026209937980358E-01 -1.88744135290862119E-01 -1.91477629875055455E-01
 -1.94225913999470312E-01 -1.96988172893622887E-01 -1.99763556084754712E-01
 -2.02551176785205483E-01 -2.05350111291130094E-01 -2.08159398393632844E-01
 -2.10978038803525780E-01 -2.13804994590900577E-01 -2.16639188640743108E-01
 -2.19479504125854818E-01 -2.22324783998400333E-01 -2.25173830501426253E-01
 -2.28025404701755280E-01 -2.30878226045693136E-01 -2.33730971939039051E-01
 -2.36582277352938547E-01 -2.39430734457159899E-01 -2.42274892282437537E-01
 -2.45113256413562935E-01 -2.47944288714965877E-01 -2.50766407090571297E-01
 -2.53577985279770712E-01 -2.56377352691391613E-01 -2.59162794277594588E-01
 -2.61932550449672341E-01 -2.64684817037752151E-01 -2.67417745296448461E-01
 -2.70129441958529060E-01 -2.72817969338677691E-01 -2.75481345489453189E-01
 -2.78117544411538853E-01 -2.80724496320376993E-01 -2.83300087971267711E-01
 -2.85842163045009257E-01 -2.88348522595966328E-01 -2.90816925564617190E-01
 -2.93245089356482636E-01 -2.95630690489235404E-01 -2.97971365309734115E-01
 -3.00264710782619848E-01 -3.02508285352018513E-01 -3.04699609877770006E-01
 -3.06836168647488416E-01 -3.08915410465616991E-01 -3.10934749820512391E-01
 -3.12891568130439002E-01 -3.14783215069205757E-01 -3.16607009972023457E-01
 -3.18360243321997582E-01 -3.20040178317511415E-01 -3.21644052520588974E-01
 -3.23169079586161423E-01 -3.24612451071997432E-01 -3.25971338328885640E-01
 -3.27242894470506418E-01 -3.28424256422252869E-01 -3.29512547048116056E-01
 -3.30504877354584559E-01 -3.31398348770361784E-01 -3.32190055500556469E-01
 -3.32877086953875134E-01 -3.33456530241192151E-01 -3.33925472743652696E-01
 -3.34281004748550270E-01 -3.34520222150959445E-01 -3.34640229219012875E-01
 -3.34638141420623592E-01 -3.34511088309354665E-01 -3.34256216467059830E-01
 -3.33870692500837174E-01 -3.33351706091772115E-01 -3.32696473092885636E-01
 -3.31902238673652650E-01 -3.30966280508412480E-01 -3.29885912005959181E-01
 -3.28658485577571879E-01 -3.27281395940726916E-01 -3.25752083455721042E-01
 -3.24068037492428407E-01 -3.22226799824416210E-01 -3.20225968047647080E-01
 -3.18063199021007825E-01 -3.15736212325912868E-01 -3.13242793742251446E-01
 -3.10580798737957631E-01 -3.07748155969500281E-01 -3.04742870790607301E-01
 -3.01563028766505703E-01 -2.98206799191009675E-01 -2.94672438603933828E-01
 -2.90958294306004672E-01 -2.87062807868596670E-01 -2.82984518635586602E-01
 -2.78722067214560498E-01 -2.74274198954557624E-01 -2.69639767407469477E-01
 -2.64817737770114692E-01 -2.59807190303920243E-01 -2.54607323728996915E-01
 -2.49217458589265917E-01 -2.43637040585115122E-01 -2.37865643869872717E-01
 -2.31902974306179344E-01 -2.25748872678082024E-01 -2.19403317854438423E-01
 -2.12866429898898368E-01 -2.06138473121450339E-01 -1.99219859066170485E-01
 -1.92111149429459560E-01 -1.84813058902690452E-01 -1.77326457932782289E-01
 -1.69652375393836902E-01 -1.61792001162527121E-01 -1.53746688589497221E-01
 -1.45517956858385394E-01 -1.37107493224649990E-01 -1.28517155124776405E-01
 -1.19748972146305033E-01 -1.10805147849090888E-01 -1.01688061427650522E-01
 -9.24002692041874657E-02 -8.29445059415592212E-02 -7.33236859652717649E-02
 -6.35409040833985472E-02 -5.35994362932353183E-02 -4.35027402635285790E-02
 -3.32544555811494433E-02 -2.28584037513323707E-02 -1.23185879408728560E-02
 -1.63919245411954300E-03  9.17541806782218826E-03  2.01206997335592296E-02
  3.11919307815417962E-02  4.23842132608348021E-02  5.36924750182709576E-02
  6.51114719963746535E-02  7.66357908448762892E-02  8.82598518468967613E-02
  9.99779121590101821E-02  1.11784069362386065E-01  1.23672265320387553E-01
  1.35636290333851300E-01  1.47669787585185341E-01  1.59766257859337429E-01
  1.71919064526714932E-01  1.84121438771005452E-01  1.96366485042621858E-01
  2.08647186716495348E-01  2.20956411931166968E-01  2.33286919584883318E-01
  2.45631365463533619E-01  2.57982308475142308E-01  2.70332216966127525E-01
  2.82673475095888971E-01  2.94998389248561976E-01  3.07299194463856062E-01
  3.19568060873089310E-01  3.31797100131439371E-01  3.43978371843267960E-01
  3.56103889983810762E-01  3.68165629327357413E-01  3.80155531899112498E-01
  3.92065513474721572E-01  4.03887470157832773E-01  4.15613285071459393E-01
  4.27234835203355146E-01  4.38743998448190176E-01  4.50132660888875213E-01
  4.61392724361121775E-01  4.72516114340749915E-01  4.83494788188595981E-01
  4.94320743781574812E-01  5.04986028550620802E-01  5.15482748937313273E-01
  5.25803080271398438E-01  5.35939277061564079E-01  5.45883683681988807E-01
  5.55628745427877102E-01  5.65167019904484813E-01  5.74491188706464762E-01
  5.83594069337685317E-01  5.92468627316231067E-01  6.01107988405001681E-01
  6.09505450905211799E-01  6.17654497948142533E-01  6.25548809719480459E-01
  6.33182275550608242E-01  6.40549005811957839E-01  6.47643343545072803E-01
  6.54459875772116728E-01  6.60993444424203491E-01  6.67239156833022262E-01
  6.73192395733312354E-01  6.78848828727780629E-01  6.84204417170044987E-01
  6.89255424424863317E-01  6.93998423469222359E-01  6.98430303802144770E-01
  7.02548277635363205E-01  7.06349885341379546E-01  7.09833000139721060E-01
  7.12995832006547037E-01  7.15836930796982629E-01  7.18355188573761461E-01
  7.20549841139826008E-01  7.22420468776513891E-01  7.23966996192807244E-01
  7.25189691694803407E-01  7.26089165588091778E-01  7.26666367829070570E-01
  7.26922584944369232E-01  7.26859436240492096E-01  7.26478869328490262E-01
  7.25783154990965795E-01  7.24774881420929940E-01  7.23456947864037914E-01
  7.21832557697114630E-01  7.19905210977443200E-01  7.17678696500983482E-01
  7.15157083404267091E-01  7.12344712347826703E-01  7.09246186319428928E-01
  7.05866361095334849E-01  7.02210335397797425E-01  6.98283440786717891E-01
  6.94091231322901403E-01  6.89639473039662776E-01  6.84934133258634503E-01
  6.79981369784578904E-01  6.74787520012755770E-01  6.69359089981033994E-01
  6.63702743397424189E-01  6.57825290672078733E-01  6.51733677981101267E-01
  6.45434976387689652E-01  6.38936371044302120E-01  6.32245150497620645E-01
  6.25368696116144762E-01  6.18314471658342635E-01  6.11090012997322241E-01
  6.03702918016089551E-01  5.96160836685418860E-01  5.88471461333666013E-01
  5.80642517120360302E-01  5.72681752718611103E-01  5.64596931210598840E-01
  5.56395821200783014E-01  5.48086188149211173E-01  5.39675785925992413E-01
  5.31172348586851251E-01  5.22583582368320032E-01  5.13917157901610966E-01
  5.05180702640179113E-01  4.96381793499035884E-01  4.87527949701187679E-01
  4.78626625826424290E-01  4.69685205057632726E-01  4.60710992619491999E-01
  4.51711209404392189E-01  4.42692985780406334E-01  4.33663355576310028E-01
  4.24629250238914124E-01  4.15597493158260112E-01  4.06574794156707886E-01
  3.97567744138394852E-01  3.88582809896160619E-01  3.79626329073603663E-01
  3.70704505280029906E-01  3.61823403358739637E-01  3.52988944808537264E-01
  3.44206903357552607E-01  3.35482900691466801E-01  3.26822402338360241E-01
  3.18230713713110791E-01  3.09712976325019096E-01  3.01274164153073565E-01
  2.92919080193937476E-01  2.84652353188404539E-01  2.76478434532622441E-01
  2.68401595380955704E-01  2.60425923947786464E-01  2.52555323015956901E-01
  2.44793507659861631E-01  2.37144003191418540E-01  2.29610143337315054E-01
  2.22195068655925781E-01  2.14901725202291144E-01  2.07732863449399424E-01
  2.00691037473766543E-01  1.93778604412986888E-01  1.86997724202492110E-01
  1.80350359598255211E-01  1.73838276491539989E-01  1.67463044521231119E-01
  1.61226037988234872E-01  1.55128437075649689E-01  1.49171229377622006E-01
  1.43355211738720401E-01  1.37680992404614955E-01  1.32148993483693050E-01
  1.26759453718121445E-01  1.21512431561625958E-01  1.16407808560063469E-01
  1.11445293029604695E-01  1.06624424026070655E-01  1.01944575597744599E-01
  9.74049613126891090E-02  9.30046390504059295E-02  8.87425160464454382E-02
  8.46173541774171839E-02  8.06277754727438012E-02  7.67722678384149954E-02
  7.30491909770177583E-02  6.94567824873763978E-02  6.59931641263010599E-02
  6.26563482141693218E-02  5.94442441653924708E-02  5.63546651245053903E-02
  5.33853346879915869E-02  5.05338936899640129E-02  4.77979070326836897E-02
  4.51748705409144094E-02  4.26622178191717744E-02  4.02573270911697687E-02
  3.79575280009482527E-02  3.57601083554853899E-02  3.36623207889944417E-02
  3.16613893296248047E-02  2.97545158499075701E-02  2.79388863829904445E-02
  2.62116772875132381E-02  2.45700612448531246E-02  2.30112130734366239E-02
  2.15323153458440615E-02  2.01305637955180271E-02  1.88031725010431999E-02
  1.75473788371416466E-02  1.63604481827661283E-02  1.52396783779180350E-02
  1.41824039220906552E-02  1.31859999085249639E-02  1.22478856897394253E-02
  1.13655282712380751E-02  1.05364454317092657E-02  9.75820856724252811E-03
  9.02844526158593300E-03  8.34484158399675241E-03  7.70514411716265342E-03
  7.10716171900982116E-03  6.54876702323977430E-03  6.02789768439480553E-03
  5.54255737415141041E-03  5.09081653636989703E-03  4.67081290918624180E-03
  4.28075182312106887E-03  3.91890628478998564E-03  3.58361685633776109E-03
  3.27329134117770827E-03  2.98640428700324301E-03  2.72149631734763548E-03
  2.47717330320322343E-03  2.25210538637409322E-03  2.04502586632944244E-03
  1.85472996235021064E-03  1.68007346272070466E-03  1.51997127261732385E-03
  1.37339587218547349E-03  1.23937569612564717E-03  1.11699344597496458E-03
  1.00538434508716024E-03  9.03734347228056316E-04  8.11278308838978284E-04
  7.27298134347027564E-04  6.51120903611608431E-04  5.82116990122463979E-04
  5.19698178069022713E-04  4.63315785889474162E-04  4.12458803385734065E-04
  3.66652048959448555E-04  3.25454352990222316E-04  2.88456772842328305E-04
  2.55280844454796165E-04  2.25576874944673553E-04  1.99022280137239123E-04
  1.75319970433386000E-04  1.54196787934989823E-04  1.35401997276732576E-04
  1.18705832159086413E-04  1.03898099143997266E-04  9.07868398635913059E-05
                              </PP_AEWFC.3>
 <PP_AEWFC.4 type="real" size="   999" l="1" columns="3" label= "0P">
 -1.05587627970175288E-07 -1.07919961300734079E-07 -1.10304127390498021E-07
 -1.12741288664775997E-07 -1.15232634441921076E-07 -1.17779379984434288E-07
 -1.20382767654923018E-07 -1.23044069657620590E-07 -1.25764586703748346E-07
 -1.28545647946487594E-07 -1.31388613486204600E-07 -1.34294875301849027E-07
 -1.37265855912325751E-07 -1.40303009825360857E-07 -1.43407826296235414E-07
 -1.46581827783937612E-07 -1.49826570456962957E-07 -1.53143647456349298E-07
 -1.56534688150703941E-07 -1.60001357841844238E-07 -1.63545361002629414E-07
 -1.67168441371804838E-07 -1.70872381176658120E-07 -1.74659004361895797E-07
 -1.78530177069285473E-07 -1.82487806742596244E-07 -1.86533845538341413E-07
 -1.90670290641437106E-07 -1.94899183629839147E-07 -1.99222614213162551E-07
 -2.03642719865337388E-07 -2.08161685987509739E-07 -2.12781749752460893E-07
 -2.17505198811448052E-07 -2.22334373025420558E-07 -2.27271667380672311E-07
 -2.32319530471298867E-07 -2.37480468079282214E-07 -2.42757043863522778E-07
 -2.48151879379123313E-07 -2.53667658144793555E-07 -2.59307124276410522E-07
 -2.65073085668757762E-07 -2.70968415388169224E-07 -2.76996051695277175E-07
 -2.83159002195025930E-07 -2.89460342580481124E-07 -2.95903220602856460E-07
 -3.02490856449021310E-07 -3.09226544515322491E-07 -3.16113656286459148E-07
 -3.23155640102131054E-07 -3.30356025597216020E-07 -3.37718422819400009E-07
 -3.45246526773928123E-07 -3.52944117190611994E-07 -3.60815062241864652E-07
 -3.68863319496008417E-07 -3.77092938635669495E-07 -3.85508063522618723E-07
 -3.94112934153526391E-07 -4.02911889532520848E-07 -4.11909369205329920E-07
 -4.21109916613230258E-07 -4.30518180523130230E-07 -4.40138918580869376E-07
 -4.49976998908834773E-07 -4.60037403614343082E-07 -4.70325230802422486E-07
 -4.80845697807333018E-07 -4.91604143861712745E-07 -5.02606032833058205E-07
 -5.13856956754105802E-07 -5.25362637926781706E-07 -5.37128933369959044E-07
 -5.49161836400357764E-07 -5.61467481692296153E-07 -5.74052146914102589E-07
 -5.86922257592850852E-07 -6.00084389742116479E-07 -6.13545273688948267E-07
 -6.27311798278740578E-07 -6.41391013572985519E-07 -6.55790136117193402E-07
 -6.70516551688143523E-07 -6.85577820021659753E-07 -7.00981679121940104E-07
 -7.16736048721032623E-07 -7.32849035777146583E-07 -7.49328938126784751E-07
 -7.66184249188202360E-07 -7.83423663317114057E-07 -8.01056079732442272E-07
 -8.19090607986673571E-07 -8.37536573223190988E-07 -8.56403520697046417E-07
 -8.75701221647643637E-07 -8.95439678787610277E-07 -9.15629131366911139E-07
 -9.36280061318647680E-07 -9.57403199244489066E-07 -9.79009529951301236E-07
 -1.00111029881592134E-06 -1.02371701840935508E-06 -1.04684147453845352E-06
 -1.07049573286196988E-06 -1.09469214600711166E-06 -1.11944336039135356E-06
 -1.14476232314738569E-06 -1.17066228950903119E-06 -1.19715683052695110E-06
 -1.22425984052658289E-06 -1.25198554488602559E-06 -1.28034850813306383E-06
 -1.30936364235785125E-06 -1.33904621554273683E-06 -1.36941186014232398E-06
 -1.40047658197144074E-06 -1.43225676935689862E-06 -1.46476920251169919E-06
 -1.49803106296537331E-06 -1.53205994333473067E-06 -1.56687385735351779E-06
 -1.60249125015684629E-06 -1.63893100885593455E-06 -1.67621247326903436E-06
 -1.71435544694299183E-06 -1.75338020847803724E-06 -1.79330752313093109E-06
 -1.83415865470353275E-06 -1.87595537773409967E-06 -1.91871998998900872E-06
 -1.96247532522451499E-06 -2.00724476628961666E-06 -2.05305225855669093E-06
 -2.09992232368363329E-06 -2.14788007371590445E-06 -2.19695122553701115E-06
 -2.24716211567607180E-06 -2.29853971548102436E-06 -2.35111164666820516E-06
 -2.40490619725676192E-06 -2.45995233789359092E-06 -2.51627973858367000E-06
 -2.57391878583570504E-06 -2.63290060023236769E-06 -2.69325705443487516E-06
 -2.75502079163278699E-06 -2.81822524445093499E-06 -2.88290465432371747E-06
 -2.94909409134906282E-06 -3.01682947463326136E-06 -3.08614759313953527E-06
 -3.15708612705284849E-06 -3.22968366967264847E-06 -3.30397974984778655E-06
 -3.38001485496661211E-06 -3.45783045451541054E-06 -3.53746902422042919E-06
 -3.61897407078624833E-06 -3.70239015724735362E-06 -3.78776292894807144E-06
 -3.87513914016464506E-06 -3.96456668138269527E-06 -4.05609460725200716E-06
 -4.14977316523127517E-06 -4.24565382494214888E-06 -4.34378930824884853E-06
 -4.44423362008071815E-06 -4.54704208001809602E-06 -4.65227135465706248E-06
 -4.75997949078709360E-06 -4.87022594938655490E-06 -4.98307164043533113E-06
 -5.09857895859991351E-06 -5.21681181980094373E-06 -5.33783569868479698E-06
 -5.46171766702217911E-06 -5.58852643308906849E-06 -5.71833238197591536E-06
 -5.85120761688000675E-06 -5.98722600143703916E-06 -6.12646320309790785E-06
 -6.26899673761545494E-06 -6.41490601461479281E-06 -6.56427238421398400E-06
 -6.71717918483981423E-06 -6.87371179223551702E-06 -7.03395766975147025E-06
 -7.19800641975313515E-06 -7.36594983629704768E-06 -7.53788195915087834E-06
 -7.71389912924058835E-06 -7.89410004532786655E-06 -8.07858582205280198E-06
 -8.26746004950313531E-06 -8.46082885434211852E-06 -8.65880096221511577E-06
 -8.86148776175628327E-06 -9.06900337033797383E-06 -9.28146470131431927E-06
 -9.49899153279103921E-06 -9.72170657830843473E-06 -9.94973555925939170E-06
 -1.01832072788183352E-05 -1.04222536979516045E-05 -1.06670100133290226E-05
 -1.09176147368282724E-05 -1.11742097773093050E-05 -1.14369405243711840E-05
 -1.17059559338634310E-05 -1.19814086159044514E-05 -1.22634549248335549E-05
 -1.25522550512495577E-05 -1.28479731167238430E-05 -1.31507772703404550E-05
 -1.34608397879134881E-05 -1.37783371736605323E-05 -1.41034502640156851E-05
 -1.44363643345268138E-05 -1.47772692088193020E-05 -1.51263593706134987E-05
 -1.54838340783576004E-05 -1.58498974825052446E-05 -1.62247587460623231E-05
 -1.66086321675085781E-05 -1.70017373073676141E-05 -1.74042991172329133E-05
 -1.78165480724986842E-05 -1.82387203078954430E-05 -1.86710577566267192E-05
 -1.91138082927380205E-05 -1.95672258769970220E-05 -2.00315707063790278E-05
 -2.05071093670716686E-05 -2.09941149913790584E-05 -2.14928674182300548E-05
 -2.20036533578214339E-05 -2.25267665600373405E-05 -2.30625079871615759E-05
 -2.36111859906322665E-05 -2.41731164921721611E-05 -2.47486231693183304E-05
 -2.53380376453434536E-05 -2.59416996840058575E-05 -2.65599573886767571E-05
 -2.71931674067430449E-05 -2.78416951384174904E-05 -2.85059149511906974E-05
 -2.91862103988949022E-05 -2.98829744465454332E-05 -3.05966097002979289E-05
 -3.13275286430562643E-05 -3.20761538759068378E-05 -3.28429183650215839E-05
 -3.36282656950030308E-05 -3.44326503278423774E-05 -3.52565378684495501E-05
 -3.61004053364989201E-05 -3.69647414446111998E-05 -3.78500468836189474E-05
 -3.87568346142544030E-05 -3.96856301661091109E-05 -4.06369719437817194E-05
 -4.16114115400919744E-05 -4.26095140571642927E-05 -4.36318584349581167E-05
 -4.46790377876357087E-05 -4.57516597482378082E-05 -4.68503468212886075E-05
 -4.79757367439219399E-05 -4.91284828558203785E-05 -5.03092544776463822E-05
 -5.15187372986645895E-05 -5.27576337737193537E-05 -5.40266635293622268E-05
 -5.53265637798096125E-05 -5.66580897528836788E-05 -5.80220151258112763E-05
 -5.94191324714787140E-05 -6.08502537153931587E-05 -6.23162106032419899E-05
 -6.38178551795740083E-05 -6.53560602779289858E-05 -6.69317200224187899E-05
 -6.85457503410852602E-05 -7.01990894914984639E-05 -7.18926985987283269E-05
 -7.36275622058334876E-05 -7.54046888373672311E-05 -7.72251115762092569E-05
 -7.90898886538267415E-05 -8.10001040543193774E-05 -8.29568681327179852E-05
 -8.49613182477756279E-05 -8.70146194093945343E-05 -8.91179649412368933E-05
 -9.12725771588140440E-05 -9.34797080634084467E-05 -9.57406400519986400E-05
 -9.80566866437648885E-05 -1.00429193223456031E-04 -1.02859537802070468E-04
 -1.05349131794969358E-04 -1.07899420818130063E-04 -1.10511885502706669E-04
 -1.13188042328504025E-04 -1.15929444476553295E-04 -1.18737682701304314E-04
 -1.21614386222893488E-04 -1.24561223639912228E-04 -1.27579903863106383E-04
 -1.30672177070378242E-04 -1.33839835683653100E-04 -1.37084715368030212E-04
 -1.40408696053760109E-04 -1.43813702981449080E-04 -1.47301707770981408E-04
 -1.50874729514720800E-04 -1.54534835895446835E-04 -1.58284144329654772E-04
 -1.62124823136650185E-04 -1.66059092733934928E-04 -1.70089226859527478E-04
 -1.74217553821770347E-04 -1.78446457777180656E-04 -1.82778380036898222E-04
 -1.87215820402343949E-04 -1.91761338530650245E-04 -1.96417555330510879E-04
 -2.01187154389083220E-04 -2.06072883430491346E-04 -2.11077555806734430E-04
 -2.16204052021404551E-04 -2.21455321287126745E-04 -2.26834383117172078E-04
 -2.32344328952115923E-04 -2.37988323822039860E-04 -2.43769608045211176E-04
 -2.49691498963773204E-04 -2.55757392717161428E-04 -2.61970766054129352E-04
 -2.68335178183940447E-04 -2.74854272667661393E-04 -2.81531779350199080E-04
 -2.88371516333915830E-04 -2.95377391994564400E-04 -3.02553407040418788E-04
 -3.09903656615297281E-04 -3.17432332446330426E-04 -3.25143725037400574E-04
 -3.33042225908954386E-04 -3.41132329885101507E-04 -3.49418637428866032E-04
 -3.57905857026454954E-04 -3.66598807621386423E-04 -3.75502421099372112E-04
 -3.84621744824819201E-04 -3.93961944229963821E-04 -4.03528305457499250E-04
 -4.13326238057427171E-04 -4.23361277739508883E-04 -4.33639089181705681E-04
 -4.44165468895953749E-04 -4.54946348152117288E-04 -4.65987795960957039E-04
 -4.77296022117246774E-04 -4.88877380303802747E-04 -5.00738371257662554E-04
 -5.12885645999256617E-04 -5.25326009125389251E-04 -5.38066422167312740E-04
 -5.51114007014763129E-04 -5.64476049406747310E-04 -5.78160002490568170E-04
 -5.92173490449433436E-04 -6.06524312200174237E-04 -6.21220445161870926E-04
 -6.36270049096108558E-04 -6.51681470020575070E-04 -6.67463244196048232E-04
 -6.83624102188504158E-04 -7.00172973006911036E-04 -7.17118988317821449E-04
 -7.34471486737707751E-04 -7.52240018203974726E-04 -7.70434348425436686E-04
 -7.89064463413560475E-04 -8.08140574095040655E-04 -8.27673121006590505E-04
 -8.47672779073030749E-04 -8.68150462469463591E-04 -8.89117329568298032E-04
 -9.10584787971987337E-04 -9.32564499632136212E-04 -9.55068386056192654E-04
 -9.78108633601710480E-04 -1.00169769885952577E-03 -1.02584831412631263E-03
 -1.05057349296700246E-03 -1.07588653586782523E-03 -1.10180103598037050E-03
 -1.12833088495749930E-03 -1.15549027888106745E-03 -1.18329372428236127E-03
 -1.21175604425526810E-03 -1.24089238466245960E-03 -1.27071822043525371E-03
 -1.30124936196684537E-03 -1.33250196159907948E-03 -1.36449252020298304E-03
 -1.39723789385322815E-03 -1.43075530059556528E-03 -1.46506232730801841E-03
 -1.50017693665471254E-03 -1.53611747413274417E-03 -1.57290267521086068E-03
 -1.61055167255955796E-03 -1.64908400337253282E-03 -1.68851961677729361E-03
 -1.72887888133571263E-03 -1.77018259263202063E-03 -1.81245198094759060E-03
 -1.85570871902140250E-03 -1.89997492989440997E-03 -1.94527319483594249E-03
 -1.99162656135086318E-03 -2.03905855126518742E-03 -2.08759316888823283E-03
 -2.13725490924831065E-03 -2.18806876640056935E-03 -2.24006024180322619E-03
 -2.29325535275982451E-03 -2.34768064092425680E-03 -2.40336318086448392E-03
 -2.46033058868329714E-03 -2.51861103068911968E-03 -2.57823323211608425E-03
 -2.63922648588653819E-03 -2.70162066141230693E-03 -2.76544621342974736E-03
 -2.83073419086276191E-03 -2.89751624570937618E-03 -2.96582464194416247E-03
 -3.03569226443138867E-03 -3.10715262784302905E-03 -3.18023988557234513E-03
 -3.25498883863834703E-03 -3.33143494457010993E-03 -3.40961432626692672E-03
 -3.48956378082142986E-03 -3.57132078829979936E-03 -3.65492352046726220E-03
 -3.74041084945055851E-03 -3.82782235632531500E-03 -3.91719833961933026E-03
 -4.00857982371719771E-03 -4.10200856715712582E-03 -4.19752707080585548E-03
 -4.29517858589739763E-03 -4.39500712192345249E-03 -4.49705745436015242E-03
 -4.60137513221623318E-03 -4.70800648538503754E-03 -4.81699863178650361E-03
 -4.92839948427892943E-03 -5.04225775732540776E-03 -5.15862297339219830E-03
 -5.27754546906382231E-03 -5.39907640085015520E-03 -5.52326775066637639E-03
 -5.65017233096314336E-03 -5.77984378948436482E-03 -5.91233661362567005E-03
 -6.04770613437262839E-03 -6.18600852978927820E-03 -6.32730082802909592E-03
 -6.47164090984593977E-03 -6.61908751056782766E-03 -6.76970022150722231E-03
 -6.92353949077768264E-03 -7.08066662347954078E-03 -7.24114378122404315E-03
 -7.40503398095866596E-03 -7.57240109305862361E-03 -7.74330983864433831E-03
 -7.91782578608660886E-03 -8.09601534665932085E-03 -8.27794576929484840E-03
 -8.46368513440242179E-03 -8.65330234669889689E-03 -8.84686712700968533E-03
 -9.04445000298787286E-03 -9.24612229870287218E-03 -9.45195612304764073E-03
 -9.66202435690747923E-03 -9.87640063903657758E-03 -1.00951593505870275E-02
 -1.03183755982296215E-02 -1.05461251958011495E-02 -1.07784846444224248E-02
 -1.10155311110153621E-02 -1.12573424051588596E-02 -1.15039969542039180E-02
 -1.17555737765880630E-02 -1.20121524532678416E-02 -1.22738130971935221E-02
 -1.25406363207549148E-02 -1.28127032011080329E-02 -1.30900952433060033E-02
 -1.33728943411501947E-02 -1.36611827356664210E-02 -1.39550429711247856E-02
 -1.42545578485030900E-02 -1.45598103763047767E-02 -1.48708837186277143E-02
 -1.51878611403893620E-02 -1.55108259495981612E-02 -1.58398614365688577E-02
 -1.61750508099761450E-02 -1.65164771296308945E-02 -1.68642232358608112E-02
 -1.72183716753899901E-02 -1.75790046235858657E-02 -1.79462038029572189E-02
 -1.83200503977757438E-02 -1.87006249646911177E-02 -1.90880073392085750E-02
 -1.94822765378977539E-02 -1.98835106561890407E-02 -2.02917867616207726E-02
 -2.07071807823989047E-02 -2.11297673911109672E-02 -2.15596198834518728E-02
 -2.19968100518118936E-02 -2.24414080535702797E-02 -2.28934822739325326E-02
 -2.33530991831554444E-02 -2.38203231879928895E-02 -2.42952164772019807E-02
 -2.47778388609339248E-02 -2.52682476038441212E-02 -2.57664972517450408E-02
 -2.62726394516238117E-02 -2.67867227648553030E-02 -2.73087924734120233E-02
 -2.78388903789156920E-02 -2.83770545943150682E-02 -2.89233193280258732E-02
 -2.94777146603373841E-02 -3.00402663118924870E-02 -3.06109954040588925E-02
 -3.11899182109954889E-02 -3.17770459032171160E-02 -3.23723842824667624E-02
 -3.29759335077116772E-02 -3.35876878120474898E-02 -3.42076352103418968E-02
 -3.48357571974056979E-02 -3.54720284365019067E-02 -3.61164164380096200E-02
 -3.67688812280455093E-02 -3.74293750068566758E-02 -3.80978417967881289E-02
 -3.87742170796684937E-02 -3.94584274233967733E-02 -4.01503900975807640E-02
 -4.08500126780464157E-02 -4.15571926400435318E-02 -4.22718169399730267E-02
 -4.29937615855222888E-02 -4.37228911939959927E-02 -4.44590585387395210E-02
 -4.52021040835047100E-02 -4.59518555046137117E-02 -4.67081272008287446E-02
 -4.74707197907833292E-02 -4.82394195978890841E-02 -4.90139981226383609E-02
 -4.97942115021898987E-02 -5.05797999572067045E-02 -5.13704872258682610E-02
 -5.21659799850323902E-02 -5.29659672584983574E-02 -5.37701198124071814E-02
 -5.45780895377239450E-02 -5.53895088199034963E-02 -5.62039898957306244E-02
 -5.70211241974110453E-02 -5.78404816840335650E-02 -5.86616101604668858E-02
 -5.94840345838603055E-02 -6.03072563578956750E-02 -6.11307526149713829E-02
 -6.19539754865435985E-02 -6.27763513618519592E-02 -6.35972801353210659E-02
 -6.44161344429279303E-02 -6.52322588878773008E-02 -6.60449692559673118E-02
 -6.68535517210389757E-02 -6.76572620409721381E-02 -6.84553247447215046E-02
 -6.92469323109060064E-02 -7.00312443385371353E-02 -7.08073867105241117E-02
 -7.15744507506017036E-02 -7.23314923744150656E-02 -7.30775312355482487E-02
 -7.38115498672928666E-02 -7.45324928211024001E-02 -7.52392658026348471E-02
 -7.59307348064126031E-02 -7.66057252502300029E-02 -7.72630211103653014E-02
 -7.79013640589052286E-02 -7.85194526044673408E-02 -7.91159412376981341E-02
 -7.96894395830318458E-02 -8.02385115582543440E-02 -8.07616745435256744E-02
 -8.12573985616321104E-02 -8.17241054712936066E-02 -8.21601681754732388E-02
 -8.25639098467626231E-02 -8.29336031720124545E-02 -8.32674696184885765E-02
 -8.35636787239853185E-02 -8.38203474133386861E-02 -8.40355393441381826E-02
 -8.42072642842391778E-02 -8.43334775241616208E-02 -8.44120793272750414E-02
 -8.44409144210213070E-02 -8.44177715325032524E-02 -8.43403829718146203E-02
 -8.42064242667910495E-02 -8.40135138528440711E-02 -8.37592128217742038E-02
 -8.34410247335649474E-02 -8.30563954953017630E-02 -8.26027133115215112E-02
 -8.20773087104369192E-02 -8.14774546504449665E-02 -8.08003667118049745E-02
 -8.00432033782426250E-02 -7.92030664134454054E-02 -7.82770013375910789E-02
 -7.72619980091520941E-02 -7.61549913173526632E-02 -7.49528619908395727E-02
 -7.36524375281613075E-02 -7.22504932560070617E-02 -7.07437535210068552E-02
 -6.91288930213698888E-02 -6.74025382844684606E-02 -6.55612692969329003E-02
 -6.36016212937610542E-02 -6.15200867132010970E-02 -5.93131173243640966E-02
 -5.69771265346744257E-02 -5.45084918843465188E-02 -5.19035577355308406E-02
 -4.91586381636347700E-02 -4.62700200587696855E-02 -4.32339664454038791E-02
 -4.00467200284952973E-02 -3.67045069746116392E-02 -3.32035409367839388E-02
 -2.95400273321380843E-02 -2.57101678814374776E-02 -2.17101654199054993E-02
 -1.75362289892170009E-02 -1.31845792205401192E-02 -8.65145401892416545E-03
 -3.93311455940264978E-03  9.74148394286789942E-04  6.07400783743303196E-03
  1.13700935272153004E-02  1.68659846290746054E-02  2.25652019948320882E-02
  2.84712000603802445E-02  3.45873583506102894E-02  4.09169725789229818E-02
  4.74632453284979106E-02  5.42292763021393134E-02  6.12180521274308456E-02
  6.84324357035682312E-02  7.58751550761964100E-02  8.35487918263413260E-02
  9.14557689593233497E-02  9.95983382795283950E-02  1.07978567236720807E-01
  1.16598325229612762E-01  1.25459269352336922E-01  1.34562829569507547E-01
  1.43910193305587908E-01  1.53502289434508554E-01  1.63339771655629434E-01
  1.73423001242227925E-01  1.83752029149171714E-01  1.94326577466676864E-01
  2.05146020207625762E-01  2.16209363416341421E-01  2.27515224587292481E-01
  2.39061811382971334E-01  2.50846899640910781E-01  2.62867810660643519E-01
  2.75121387762381819E-01  2.87603972110315409E-01  3.00311377794440282E-01
  3.13238866166211438E-01  3.26381119424597244E-01  3.39732213450573861E-01
  3.53285589889736851E-01  3.67034027484166636E-01  3.80969612656696988E-01
  3.95083709352360368E-01  4.09366928143811926E-01  4.23809094609588155E-01
  4.38399216995999708E-01  4.53125453175810267E-01  4.67975076918889732E-01
  4.82934443492630316E-01  4.97988954611374046E-01  5.13123022757222325E-01
  5.28320034896816004E-01  5.43562315620667702E-01  5.58831089734112552E-01
  5.74106444331024091E-01  5.89367290383774778E-01  6.04591323884822396E-01
  6.19754986577381262E-01  6.34833426314497684E-01  6.49800457087427397E-01
  6.64628518765943421E-01  6.79288636594411299E-01  6.93750380488765805E-01
  7.07981824180468289E-01  7.21949504254332797E-01  7.35618379127716771E-01
  7.48951788018968889E-01  7.61911409953283547E-01  7.74457222854185723E-01
  7.86547462768880101E-01  7.98138583275611269E-01  8.09185215121112744E-01
  8.19640126136251257E-01  8.29454181478360475E-01  8.38576304249943894E-01
  8.46953436540797355E-01  8.54530500946370508E-01  8.61250362616543974E-01
  8.67053791891055026E-01  8.71879427582625488E-01  8.75663740974550575E-01
  8.78341000606750688E-01  8.79843237933005784E-01  8.80100213943106113E-01
  8.79039386856162452E-01  8.76585881006141876E-01  8.72662457057396646E-01
  8.67189483706589659E-01  8.60084911047396261E-01  8.51264245796030661E-01
  8.40640528597309644E-01  8.28124313653399113E-01  8.13623650938396392E-01
  7.97044071281467259E-01  7.78288574618374529E-01  7.57257621724158669E-01
  7.33849129748760709E-01  7.07958471880628770E-01  6.79478481461011419E-01
  6.48299460863940746E-01  6.14309195442188427E-01  5.77392972811176297E-01
  5.37433607731144569E-01  4.94311472810848807E-01  4.47904535223986988E-01
  3.98088399596696785E-01  3.44736357190979170E-01  2.87719441476937787E-01
  2.26906490157077367E-01  1.62164213680331237E-01  9.33572702621166262E-02
  2.03483474102629236E-02 -5.70017500544089256E-02 -1.38834005500235613E-01
 -2.25291089527806437E-01 -3.16517252568802143E-01 -4.12658211047258860E-01
 -5.13861027098140410E-01 -6.20273981823600495E-01 -7.32046442048549406E-01
 -8.49328720517796287E-01 -9.72271929453872530E-01 -1.10102782737118332E+00
 -1.23574865901609288E+00 -1.37658698827588899E+00 -1.52369552386839580E+00
 -1.67722693760620256E+00 -1.83733367499291078E+00 -2.00416775787097956E+00
 -2.17788057882140995E+00 -2.35862268698137267E+00 -2.54654356491517353E+00
 -2.74179139614242251E+00 -2.94451282289752747E+00 -3.15485269366296972E+00
 -3.37295379999024814E+00 -3.59895660209231627E+00 -3.83299894266433272E+00
 -4.07521574836214384E+00 -4.32573871834277313E+00 -4.58469599924880633E+00
 -4.85221184599672828E+00 -5.12840626771068830E+00 -5.41339465812820642E+00
 -5.70728740979081728E+00 -6.01018951132487533E+00 -6.32220012711083079E+00
 -6.64341215864031476E+00 -6.97391178686221824E+00 -7.31377799482951030E+00
 -7.66308206996949171E+00 -8.02188708532254147E+00 -8.39024735912341768E+00
 -8.76820789212085749E+00 -9.15580378207729950E+00 -9.55305961493577449E+00
 -9.95998883219355768E+00 -1.03765930740824501E+01 -1.08028614982252549E+01
 -1.12387700735157576E+01 -1.16842808490536729E+01 -1.21393411980637147E+01
 -1.26038830368288348E+01 -1.30778220187847403E+01 -1.35610567040436401E+01
 -1.40534677047484706E+01 -1.45549168068050925E+01 -1.50652460686893566E+01
 -1.55842768981947959E+01 -1.61118091081576225E+01 -1.66476199523843498E+01
 -1.71914631432034426E+01 -1.77430678522683536E+01 -1.83021376964607256E+01
 -1.88683497109704454E+01 -1.94413533118724686E+01 -2.00207692507773771E+01
 -2.06061885643729248E+01 -2.11971715219692776E+01 -2.17932465744487125E+01
 -2.23939093083026570E+01 -2.29986214087510490E+01 -2.36068096362549475E+01
 -2.42178648210582850E+01 -2.48311408807239182E+01 -2.54459538660195896E+01
 -2.60615810407578472E+01 -2.66772600016794783E+01 -2.72921878447700337E+01
 -2.79055203847878417E+01 -2.85163714351696207E+01 -2.91238121558718746E+01
 -2.97268704770956589E+01 -3.03245306072453111E+01 -3.09157326338708778E+01
 -3.14993722267466758E+01 -3.20743004526453745E+01 -3.26393237117660391E+01
 -3.31932038061794827E+01 -3.37346581510470784E+01 -3.42623601397641693E+01
 -3.47749396746067561E+01 -3.52709838747085342E+01 -3.57490379735988526E+01
 -3.62076064190140698E+01 -3.66451541878805145E+01 -3.70601083297051943E+01
 -3.74508597518944981E+01 -3.78157652607703483E+01 -3.81531498722694309E+01
 -3.84613094064893986E+01 -3.87385133803790325E+01 -3.89830082129548501E+01
 -3.91930207574530911E+01 -3.93667621747922709E+01 -3.95024321626152570E+01
 -3.95982235539948917E+01 -3.96523272996141287E+01 -3.96629378468598475E+01
 -3.96282589287899683E+01 -3.95465097753311454E+01 -3.94159317583304016E+01
 -3.92347954812017576E+01 -3.90014083228648616E+01 -3.87141224444505028E+01
 -3.83713432658319604E+01 -3.79715384175107644E+01 -3.75132471713325444E+01
 -3.69950903511807567E+01 -3.64157807231298207E+01 -3.57741338613042572E+01
 -3.50690794827731409E+01 -3.42996732414752969E+01 -3.34651089674347233E+01
 -3.25647313333983561E+01 -3.15980489264648448E+01 -3.05647476972655383E+01
 -2.94647047537653606E+01 -2.82980024607472345E+01 -2.70649427995190095E+01
 -2.57660619352818934E+01 -2.44021449319402954E+01 -2.29742405458585743E+01
 -2.14836760211927036E+01 -1.99320717999230830E+01 -1.83213560495747174E+01
 -1.66537789008560289E+01 -1.49319262760644147E+01 -1.31587331771379006E+01
 -1.13374962896877438E+01 -9.47188574628331281E+00 -7.56595587875813713E+00
 -5.62415477530328545E+00 -3.65133244394562206E+00 -1.65274736991600513E+00
  3.65928760275223253E-01  2.39860840942762366E+00  4.43878787015936727E+00
  6.47954954393479898E+00  8.51356709969575753E+00  1.05331138045518333E+01
  1.25300743288584489E+01  1.44959603360170011E+01  1.64219301730521501E+01
  1.82988129809631381E+01  2.01171375435121682E+01  2.18671661889116251E+01
  2.35389340502137507E+01  2.51222939764336104E+01  2.66069673668264635E+01
  2.79826011746090764E+01  2.92388312929386558E+01  3.03653524944139477E+01
  3.13519950449025586E+01  3.21888080523426083E+01  3.28661495405499480E+01
  3.33747831566508637E+01  3.37059813277363460E+01  3.38516345701656860E+01
  3.38043665439610521E+01  3.35576543088320065E+01  3.31059530914256257E+01
  3.24448247145288917E+01  3.15710686663693814E+01  3.04828546031755501E+01
  2.91798548818309911E+01  2.76633755132703705E+01  2.59364837132060515E+01
  2.40041300074020718E+01  2.18732626271692396E+01  1.95529317109108902E+01
  1.70543806139527021E+01  1.43911214269264978E+01  1.15789916188099014E+01
  8.63618856138389646E+00  5.58327856523936017E+00  2.44317697228060382E+00
 -7.58904184528149339E-01 -3.99554441640638425E+00 -7.23724227201524961E+00
 -1.04525852690769128E+01 -1.36084651671833239E+01 -1.66703411026505677E+01
 -1.96025525949103354E+01 -2.23686838074351542E+01 -2.49319796785398218E+01
 -2.72558136179422803E+01 -2.93042053975843899E+01 -3.10423866428991317E+01
 -3.24374099553285049E+01 -3.34587961741780191E+01 -3.40792126269587072E+01
 -3.42751734396943988E+01 -3.40277511068239278E+01 -3.33232865869832295E+01
 -3.21540832375402275E+01 -3.05190679782162988E+01 -2.84244012433094788E+01
 -2.58840156139846052E+01 -2.29200615978898590E+01 -1.95632379336682867E+01
 -1.58529831419256695E+01 -1.18375049280454157E+01 -7.57362457669813605E+00
                              </PP_AEWFC.4>
 <PP_PSWFC.1 type="real" size="   999" l="0" columns="3" label= "3S">
  7.30681212211085895E-05  7.39872050406325388E-05  7.49178495113496400E-05
  7.58602000483471050E-05  7.68144038958088339E-05  7.77806101500222398E-05
  7.87589697826750158E-05  7.97496356644448670E-05  8.07527625888855821E-05
  8.17685072966142557E-05  8.27970284998018975E-05  8.38384869069727005E-05
  8.48930452481150711E-05  8.59608683001084468E-05  8.70421229124703063E-05
  8.81369780334262170E-05  8.92456047363087080E-05  9.03681762462877052E-05
  9.15048679674372053E-05  9.26558575101428896E-05  9.38213247188535941E-05
  9.50014517001826362E-05  9.61964228513622542E-05  9.74064248890560495E-05
  9.86316468785340401E-05  9.98722802632139988E-05  1.01128518894575336E-04
  1.02400559062448484E-04  1.03688599525685621E-04  1.04992841543217422E-04
  1.06313488905499632E-04  1.07650747966356130E-04  1.09004827675221913E-04
  1.10375939609791909E-04  1.11764298009080597E-04  1.13170119806896922E-04
  1.14593624665740770E-04  1.16035035011125709E-04  1.17494576066333291E-04
  1.18972475887604997E-04  1.20468965399775840E-04  1.21984278432357251E-04
  1.23518651756073270E-04  1.25072325119856301E-04  1.26645541288308898E-04
  1.28238546079635369E-04  1.29851588404051828E-04  1.31484920302678835E-04
  1.33138796986923192E-04  1.34813476878355528E-04  1.36509221649088667E-04
  1.38226296262664711E-04  1.39964969015456055E-04  1.41725511578586990E-04
  1.43508199040383414E-04  1.45313309949355023E-04  1.47141126357719745E-04
  1.48991933865474599E-04  1.50866021665021219E-04  1.52763682586353123E-04
  1.54685213142810287E-04  1.56630913577410279E-04  1.58601087909761767E-04
  1.60596043983567946E-04  1.62616093514728245E-04  1.64661552140043702E-04
  1.66732739466536291E-04  1.68829979121388086E-04  1.70953598802508149E-04
  1.73103930329736885E-04  1.75281309696692395E-04  1.77486077123270634E-04
  1.79718577108805449E-04  1.81979158485896716E-04  1.84268174474917063E-04
  1.86585982739201909E-04  1.88932945440935772E-04  1.91309429297740607E-04
  1.93715805639975940E-04  1.96152450468760358E-04  1.98619744514721497E-04
  2.01118073297486537E-04  2.03647827185920045E-04  2.06209401459119668E-04
  2.08803196368179773E-04  2.11429617198730476E-04  2.14089074334264807E-04
  2.16781983320261435E-04  2.19508764929114664E-04  2.22269845225881048E-04
  2.25065655634851898E-04  2.27896633006964745E-04  2.30763219688061809E-04
  2.33665863588007020E-04  2.36605018250673517E-04  2.39581142924809271E-04
  2.42594702635796499E-04  2.45646168258312095E-04  2.48736016589902464E-04
  2.51864730425484771E-04  2.55032798632783095E-04  2.58240716228715517E-04
  2.61488984456741049E-04  2.64778110865179577E-04  2.68108609386517893E-04
  2.71481000417711016E-04  2.74895810901495843E-04  2.78353574408726485E-04
  2.81854831221745408E-04  2.85400128418804018E-04  2.88990019959543170E-04
  2.92625066771550824E-04  2.96305836838007869E-04  3.00032905286435703E-04
  3.03806854478561744E-04  3.07628274101312939E-04  3.11497761258955656E-04
  3.15415920566394098E-04  3.19383364243641828E-04  3.23400712211482878E-04
  3.27468592188333448E-04  3.31587639788324961E-04  3.35758498620619098E-04
  3.39981820389971936E-04  3.44258264998565310E-04  3.48588500649115037E-04
  3.52973203949279526E-04  3.57413060017380227E-04  3.61908762589451959E-04
  3.66461014127640681E-04  3.71070525929962324E-04  3.75738018241444948E-04
  3.80464220366667414E-04  3.85249870783713688E-04  3.90095717259560744E-04
  3.95002516966918801E-04  3.99971036602538054E-04  4.05002052507007432E-04
  4.10096350786057630E-04  4.15254727433390643E-04  4.20477988455055104E-04
  4.25766949995384282E-04  4.31122438464519341E-04  4.36545290667536903E-04
  4.42036353935199489E-04  4.47596486256352649E-04  4.53226556411984670E-04
  4.58927444110974591E-04  4.64700040127547247E-04  4.70545246440456368E-04
  4.76463976373920619E-04  4.82457154740328670E-04  4.88525717984742368E-04
  4.94670614331216654E-04  5.00892803930958331E-04  5.07193259012352765E-04
  5.13572964032870793E-04  5.20032915832892404E-04  5.26574123791462680E-04
  5.33197609984006459E-04  5.39904409342028928E-04  5.46695569814821341E-04
  5.53572152533204280E-04  5.60535231975328079E-04  5.67585896134559578E-04
  5.74725246689482641E-04  5.81954399176031075E-04  5.89274483161793435E-04
  5.96686642422505627E-04  6.04192035120765377E-04  6.11791833986995767E-04
  6.19487226502679947E-04  6.27279415085906520E-04  6.35169617279245720E-04
  6.43159065939987438E-04  6.51249009432777162E-04  6.59440711824667313E-04
  6.67735453082628303E-04  6.76134529273540686E-04  6.84639252766703634E-04
  6.93250952438892042E-04  7.01970973881988294E-04  7.10800679613230531E-04
  7.19741449288103228E-04  7.28794679915903691E-04  7.37961786078025891E-04
  7.47244200148980387E-04  7.56643372520203147E-04  7.66160771826674509E-04
  7.75797885176388404E-04  7.85556218382712926E-04  7.95437296199663830E-04
  8.05442662560146684E-04  8.15573880817190662E-04  8.25832533988216577E-04
  8.36220225002381134E-04  8.46738576951024807E-04  8.57389233341276382E-04
  8.68173858352844175E-04  8.79094137098037970E-04  8.90151775885062412E-04
  9.01348502484617233E-04  9.12686066399855567E-04  9.24166239139736687E-04
  9.35790814495814148E-04  9.47561608822510395E-04  9.59480461320908417E-04
  9.71549234326120727E-04  9.83769813598267106E-04  9.96144108617115108E-04
  1.00867405288042745E-03  1.02136160420605426E-03  1.03420874503783460E-03
  1.04721748275533812E-03  1.06038984998750520E-03  1.07372790493023514E-03
  1.08723373166795816E-03  1.10090944049926311E-03  1.11475716826661426E-03
  1.12877907869021591E-03  1.14297736270607990E-03  1.15735423880833571E-03
  1.17191195339585497E-03  1.18665278112323040E-03  1.20157902525616905E-03
  1.21669301803136159E-03  1.23199712102086290E-03  1.24749372550107102E-03
  1.26318525282633734E-03  1.27907415480727621E-03  1.29516291409383956E-03
  1.31145404456319589E-03  1.32795009171249897E-03  1.34465363305658948E-03
  1.36156727853070192E-03  1.37869367089823612E-03  1.39603548616364895E-03
  1.41359543399054892E-03  1.43137625812504352E-03  1.44938073682440867E-03
  1.46761168329115560E-03  1.48607194611254730E-03  1.50476440970564681E-03
  1.52369199476796394E-03  1.54285765873376840E-03  1.56226439623613272E-03
  1.58191523957480198E-03  1.60181325918992701E-03  1.62196156414177160E-03
  1.64236330259644398E-03  1.66302166231773406E-03  1.68393987116514389E-03
  1.70512119759817023E-03  1.72656895118693580E-03  1.74828648312923881E-03
  1.77027718677410140E-03  1.79254449815190869E-03  1.81509189651120166E-03
  1.83792290486223101E-03  1.86104109052734269E-03  1.88445006569827578E-03
  1.90815348800048149E-03  1.93215506106452222E-03  1.95645853510466664E-03
  1.98106770750475746E-03  2.00598642341143609E-03  2.03121857633484183E-03
  2.05676810875684516E-03  2.08263901274694267E-03  2.10883533058589100E-03
  2.13536115539717485E-03  2.16222063178642251E-03  2.18941795648885723E-03
  2.21695737902488036E-03  2.24484320236391453E-03  2.27307978359656947E-03
  2.30167153461527906E-03  2.33062292280347434E-03  2.35993847173343553E-03
  2.38962276187291642E-03  2.41968043130063410E-03  2.45011617643077408E-03
  2.48093475274658790E-03  2.51214097554321647E-03  2.54373972067985623E-03
  2.57573592534136300E-03  2.60813458880945282E-03  2.64094077324356904E-03
  2.67415960447158320E-03  2.70779627279043407E-03  2.74185603377680555E-03
  2.77634420910802997E-03  2.81126618739327167E-03  2.84662742501518148E-03
  2.88243344698211950E-03  2.91868984779108335E-03  2.95540229230148877E-03
  2.99257651661992202E-03  3.03021832899601478E-03  3.06833361072958053E-03
  3.10692831708913415E-03  3.14600847824197125E-03  3.18558020019591792E-03
  3.22564966575291821E-03  3.26622313547461456E-03  3.30730694866002888E-03
  3.34890752433556404E-03  3.39103136225740818E-03  3.43368504392655349E-03
  3.47687523361656006E-03  3.52060867941422035E-03  3.56489221427331183E-03
  3.60973275708156979E-03  3.65513731374106842E-03  3.70111297826217732E-03
  3.74766693387123661E-03  3.79480645413217453E-03  3.84253890408217365E-03
  3.89087174138162510E-03  3.93981251747852097E-03  3.98936887878744567E-03
  4.03954856788340047E-03  4.09035942471059222E-03  4.14180938780640828E-03
  4.19390649554076626E-03  4.24665888737099737E-03  4.30007480511251147E-03
  4.35416259422539195E-03  4.40893070511714190E-03  4.46438769446179384E-03
  4.52054222653555226E-03  4.57740307456921437E-03  4.63497912211757214E-03
  4.69327936444595764E-03  4.75231290993423719E-03  4.81208898149837298E-03
  4.87261691802985328E-03  4.93390617585317062E-03  4.99596633020156413E-03
  5.05880707671130594E-03  5.12243823293469756E-03  5.18686973987205185E-03
  5.25211166352290790E-03  5.31817419645665146E-03  5.38506765940288158E-03
  5.45280250286166342E-03  5.52138930873401039E-03  5.59083879197278932E-03
  5.66116180225429821E-03  5.73236932567083770E-03  5.80447248644444698E-03
  5.87748254866214247E-03  5.95141091803289782E-03  6.02626914366661322E-03
  6.10206891987539850E-03  6.17882208799739891E-03  6.25654063824346469E-03
  6.33523671156696177E-03  6.41492260155696655E-03  6.49561075635520478E-03
  6.57731378059693388E-03  6.66004443737617212E-03  6.74381565023549588E-03
  6.82864050518072752E-03  6.91453225272087128E-03  7.00150430993351502E-03
  7.08957026255611304E-03  7.17874386710341469E-03  7.26903905301134329E-03
  7.36046992480772575E-03  7.45305076431012573E-03  7.54679603285114860E-03
  7.64172037353160177E-03  7.73783861350172981E-03  7.83516576627104125E-03
  7.93371703404690924E-03  8.03350781010241620E-03  8.13455368117379195E-03
  8.23687042988770039E-03  8.34047403721891942E-03  8.44538068497861956E-03
  8.55160675833371506E-03  8.65916884835767585E-03  8.76808375461306418E-03
  8.87836848776639258E-03  8.99004027223545242E-03  9.10311654886974964E-03
  9.21761497766426276E-03  9.33355344050704888E-03  9.45095004396105491E-03
  9.56982312208055734E-03  9.69019123926267469E-03  9.81207319313438103E-03
  9.93548801747539193E-03  1.00604549851774534E-02  1.01869936112403917E-02
  1.03151236558054211E-02  1.04448651272261734E-02  1.05762382851778049E-02
  1.07092636438048030E-02  1.08439619749078047E-02  1.09803543111699937E-02
  1.11184619494235463E-02  1.12583064539565451E-02  1.13999096598609156E-02
  1.15432936764218556E-02  1.16884808905492552E-02  1.18354939702515812E-02
  1.19843558681527931E-02  1.21350898250527917E-02  1.22877193735318399E-02
  1.24422683415996091E-02  1.25987608563892916E-02  1.27572213478973160E-02
  1.29176745527692979E-02  1.30801455181326406E-02  1.32446596054764405E-02
  1.34112424945792338E-02  1.35799201874850888E-02  1.37507190125287261E-02
  1.39236656284101295E-02  1.40987870283193102E-02  1.42761105441117364E-02
  1.44556638505351377E-02  1.46374749695081224E-02  1.48215722744513903E-02
  1.50079844946719720E-02  1.51967407198012605E-02  1.53878704042873932E-02
  1.55814033719425780E-02  1.57773698205460611E-02  1.59758003265033435E-02
  1.61767258495622915E-02  1.63801777375868068E-02  1.65861877313886776E-02
  1.67947879696183217E-02  1.70060109937150462E-02  1.72198897529175117E-02
  1.74364576093351126E-02  1.76557483430808820E-02  1.78777961574666834E-02
  1.81026356842613617E-02  1.83303019890125249E-02  1.85608305764327110E-02
  1.87942573958506005E-02  1.90306188467280618E-02  1.92699517842436566E-02
  1.95122935249433839E-02  1.97576818524594529E-02  2.00061550232976705E-02
  2.02577517726943504E-02  2.05125113205433737E-02  2.07704733773941622E-02
  2.10316781505214198E-02  2.12961663500672652E-02  2.15639791952566030E-02
  2.18351584206864756E-02  2.21097462826901452E-02  2.23877855657767591E-02
  2.26693195891472590E-02  2.29543922132873709E-02  2.32430478466385745E-02
  2.35353314523475202E-02  2.38312885550950974E-02  2.41309652480056272E-02
  2.44344081996370824E-02  2.47416646610531914E-02  2.50527824729780378E-02
  2.53678100730342533E-02  2.56867965030652470E-02  2.60097914165425756E-02
  2.63368450860590360E-02  2.66680084109084253E-02  2.70033329247526821E-02
  2.73428708033772346E-02  2.76866748725353579E-02  2.80347986158823101E-02
  2.83872961830000242E-02  2.87442223975132756E-02  2.91056327652978696E-02
  2.94715834827818345E-02  2.98421314453403662E-02  3.02173342557851485E-02
  3.05972502329490137E-02  3.09819384203665719E-02  3.13714585950515892E-02
  3.17658712763718779E-02  3.21652377350224242E-02  3.25696200020974339E-02
  3.29790808782621583E-02  3.33936839430249086E-02  3.38134935641103418E-02
  3.42385749069343825E-02  3.46689939441815267E-02  3.51048174654852857E-02
  3.55461130872122902E-02  3.59929492623506722E-02  3.64453952905033768E-02
  3.69035213279869725E-02  3.73673983980364818E-02  3.78370984011167574E-02
  3.83126941253410097E-02  3.87942592569967964E-02  3.92818683911802038E-02
  3.97755970425383021E-02  4.02755216561206039E-02  4.07817196183396721E-02
  4.12942692680413337E-02  4.18132499076847089E-02  4.23387418146324926E-02
  4.28708262525513972E-02  4.34095854829233477E-02  4.39551027766671085E-02
  4.45074624258710097E-02  4.50667497556361540E-02  4.56330511360306598E-02
  4.62064539941545865E-02  4.67870468263155287E-02  4.73749192103146075E-02
  4.79701618178428879E-02  4.85728664269874655E-02  4.91831259348474090E-02
  4.98010343702586789E-02  5.04266869066277226E-02  5.10601798748730948E-02
  5.17016107764745741E-02  5.23510782966287308E-02  5.30086823175103528E-02
  5.36745239316388650E-02  5.43487054553482285E-02  5.50313304423599089E-02
  5.57225036974569599E-02  5.64223312902583998E-02  5.71309205690921501E-02
  5.78483801749648877E-02  5.85748200556274190E-02  5.93103514797333406E-02
  6.00550870510892301E-02  6.08091407229942177E-02  6.15726278126665638E-02
  6.23456650157548226E-02  6.31283704209311819E-02  6.39208635245638451E-02
  6.47232652454658303E-02  6.55356979397169193E-02  6.63582854155553570E-02
  6.71911529483358860E-02  6.80344272955504120E-02  6.88882367119070804E-02
  6.97527109644639209E-02  7.06279813478123686E-02  7.15141806993060819E-02
  7.24114434143302010E-02  7.33199054616057583E-02  7.42397043985236482E-02
  7.51709793865027592E-02  7.61138712063656880E-02  7.70685222737262365E-02
  7.80350766543812385E-02  7.90136800797005961E-02  8.00044799620072133E-02
  8.10076254099396237E-02  8.20232672437889443E-02  8.30515580108017459E-02
  8.40926520004395689E-02  8.51467052595860641E-02  8.62138756076916701E-02
  8.72943226518455573E-02  8.83882078017640405E-02  8.94956942846844433E-02
  9.06169471601518534E-02  9.17521333346874995E-02  9.29014215763246803E-02
  9.40649825289998492E-02  9.52429887267835784E-02  9.64356146079378973E-02
  9.76430365287834917E-02  9.88654327773614838E-02  1.00102983586872613E-01
  1.01355871148876328E-01  1.02624279626231829E-01  1.03908395165761350E-01
  1.05208405910616837E-01  1.06524502012328021E-01  1.07856875642511382E-01
  1.09205721004216910E-01  1.10571234342889180E-01  1.11953613956918760E-01
  1.13353060207757622E-01  1.14769775529573223E-01  1.16203964438412299E-01
  1.17655833540846799E-01  1.19125591542071183E-01  1.20613449253420379E-01
  1.22119619599275780E-01  1.23644317623325617E-01  1.25187760494144706E-01
  1.26750167510056772E-01  1.28331760103241821E-01  1.29932761843048611E-01
  1.31553398438471719E-01  1.33193897739750239E-01  1.34854489739043515E-01
  1.36535406570138657E-01  1.38236882507141279E-01  1.39959153962099986E-01
  1.41702459481512860E-01  1.43467039741662861E-01  1.45253137542725397E-01
  1.47060997801591598E-01  1.48890867543346100E-01  1.50742995891337744E-01
  1.52617634055778301E-01  1.54515035320802269E-01  1.56435455029918041E-01
  1.58379150569778610E-01  1.60346381352195894E-01  1.62337408794323040E-01
  1.64352496296921752E-01  1.66391909220633488E-01  1.68455914860166034E-01
  1.70544782416307689E-01  1.72658782965674718E-01  1.74798189428096024E-01
  1.76963276531536651E-01  1.79154320774454728E-01  1.81371600385486914E-01
  1.83615395280350396E-01  1.85885987015846771E-01  1.88183658740850385E-01
  1.90508695144156748E-01  1.92861382399064946E-01  1.95242008104562770E-01
  1.97650861222977370E-01  2.00088232013952511E-01  2.02554411964605552E-01
  2.05049693715715131E-01  2.07574370983783174E-01  2.10128738478811250E-01
  2.12713091817625627E-01  2.15327727432579219E-01  2.17972942475453901E-01
  2.20649034716380615E-01  2.23356302437588528E-01  2.26095044321788535E-01
  2.28865559334991087E-01  2.31668146603550534E-01  2.34503105285222918E-01
  2.37370734434017044E-01  2.40271332858611741E-01  2.43205198974105974E-01
  2.46172630646860513E-01  2.49173925032183746E-01  2.52209378404605555E-01
  2.55279285980477610E-01  2.58383941732628852E-01  2.61523638196798691E-01
  2.64698666269562233E-01  2.67909314997453130E-01  2.71155871356982880E-01
  2.74438620025247437E-01  2.77757843140801097E-01  2.81113820054473385E-01
  2.84506827069792911E-01  2.87937137172675162E-01  2.91405019750024030E-01
  2.94910740296884688E-01  2.98454560111781508E-01  3.02036735979862248E-01
  3.05657519843464287E-01  3.09317158459708863E-01  3.13015893044719662E-01
  3.16753958904056443E-01  3.20531585048945633E-01  3.24348993797879293E-01
  3.28206400363151629E-01  3.32104012421886419E-01  3.36042029671110909E-01
  3.40020643366416020E-01  3.44040035843743708E-01  3.48100380023828482E-01
  3.52201838898821562E-01  3.56344565000615510E-01  3.60528699850384771E-01
  3.64754373388852970E-01  3.69021703386794464E-01  3.73330794835273982E-01
  3.77681739315128717E-01  3.82074614345191910E-01  3.86509482708762342E-01
  3.90986391757821294E-01  3.95505372694500257E-01  4.00066439829312337E-01
  4.04669589815655095E-01  4.09314800860110628E-01  4.14002031908065948E-01
  4.18731221804195697E-01  4.23502288427355267E-01  4.28315127799442974E-01
  4.33169613167816603E-01  4.38065594060860208E-01  4.43002895316319090E-01
  4.47981316082045611E-01  4.53000628788823800E-01  4.58060578094972692E-01
  4.63160879802454628E-01  4.68301219744262642E-01  4.73481252642887984E-01
  4.78700600939723220E-01  4.83958853595299054E-01  4.89255564860308911E-01
  4.94590253017429426E-01  4.99962399094010967E-01  5.05371445545780396E-01
  5.10816794911766237E-01  5.16297808440745021E-01  5.21813804689584604E-01
  5.27364058093957033E-01  5.32947797511994725E-01  5.38564204741562635E-01
  5.44212413011943896E-01  5.49891505450846640E-01  5.55600513527784501E-01
  5.61338415475017727E-01  5.67104134687362538E-01  5.72896538102374397E-01
  5.78714434562567548E-01  5.84556573161497783E-01  5.90421641575740841E-01
  5.96308264384978193E-01  6.02215001382632065E-01  6.08140345879705113E-01
  6.14082723004711450E-01  6.20040488002840506E-01  6.26011924537749342E-01
  6.31995242999651818E-01  6.37988578823659891E-01  6.43989990822626091E-01
  6.49997459539057743E-01  6.56008885620983695E-01  6.62022088227008365E-01
  6.68034803466126759E-01  6.74044682878244816E-01  6.80049291961732916E-01
  6.86046108754711725E-01  6.92032522477194600E-01  6.98005832241610613E-01
  7.03963245839652307E-01  7.09901878613851678E-01  7.15818752422737181E-01
  7.21710794708744330E-01  7.27574837678674147E-01  7.33407617606911866E-01
  7.39205774272050475E-01  7.44965850538014007E-01  7.50684292091273409E-01
  7.56357447346167278E-01  7.61981567530800041E-01  7.67552806966423362E-01
  7.73067223553605021E-01  7.78520779478904856E-01  7.83909342156122291E-01
  7.89228685416529019E-01  7.94474490962796098E-01  7.99642350101569255E-01
  8.04727765769860048E-01  8.09726154870550663E-01  8.14632850932395125E-01
  8.19443107109886881E-01  8.24152099538281169E-01  8.28754931058869659E-01
  8.33246635329303986E-01  8.37622181333356641E-01  8.41876478303944631E-01
  8.46004381072589573E-01  8.50000695857626276E-01  8.53860186502029550E-01
  8.57577581171172110E-01  8.61147579518999784E-01  8.64564860329424145E-01
  8.67824089637842078E-01  8.70919929335487564E-01  8.73847046256819859E-01
  8.76600121747354022E-01  8.79173861706195825E-01  8.81563007094055884E-01
  8.83762344893644913E-01  8.85766719505095668E-01  8.87571044554359201E-01
  8.89170315087421503E-01  8.90559620117580497E-01  8.91734155486987534E-01
  8.92689236997084246E-01  8.93420313755516116E-01  8.93922981679513007E-01
  8.94192997087615016E-01  8.94226290302969185E-01  8.94018979182246265E-01
  8.93567382474497518E-01  8.92868032904060582E-01  8.91917689860923790E-01
  8.90713351570514011E-01  8.89252266603483554E-01  8.87531944574163179E-01
  8.85550165863714489E-01  8.83304990191488670E-01  8.80794763845344053E-01
  8.78018125368818847E-01  8.74974009490294247E-01  8.71661649066698963E-01
  8.68080574802127303E-01  8.64230612490086703E-01  8.60111877517250600E-01
  8.55724766356745103E-01  8.51069944770451614E-01  8.46148332432867467E-01
  8.40961083684038768E-01  8.35509564116379111E-01  8.29795322700171756E-01
  8.23820059155720097E-01  8.17585586286872612E-01  8.11093787001600508E-01
  8.04346565760929444E-01  7.97345794218452530E-01  7.90093250839503991E-01
  7.82590554321962339E-01  7.74839090681316733E-01  7.66839933915181127E-01
  7.58593760213207680E-01  7.50100755748366654E-01  7.41360518162300086E-01
  7.32371951944673860E-01  7.23133158005330956E-01  7.13641317846941958E-01
  7.03893594282861690E-01  6.93897395148057039E-01  6.83666852180072726E-01
  6.73216294409420324E-01  6.62560123525152034E-01  6.51712787573734298E-01
  6.40688755018102962E-01  6.29502489217624972E-01  6.18168423384756971E-01
  6.06700936070487695E-01  5.95114327227315609E-01  5.83422794884761786E-01
  5.71640412524657360E-01  5.59781107106484210E-01  5.47858637860695330E-01
  5.35886575842221879E-01  5.23878284277814354E-01  5.11846899730513227E-01
  4.99805314107786780E-01  4.87766157528547628E-01  4.75741782063036689E-01
  4.63744246359812540E-01  4.51785301170154086E-01  4.39876375777769280E-01
  4.28028565339482858E-01  4.16252619140412949E-01  4.04558929765226838E-01
  3.92957523185163526E-01  3.81458049758870266E-01  3.70069776143483242E-01
  3.58801578110885089E-01  3.47661934262771921E-01  3.36658920636806913E-01
  3.25800206195038522E-01  3.15093049184568874E-01  3.04544294359456180E-01
  2.94160371051851000E-01  2.83947292079361813E-01  2.73910653474797539E-01
  2.64055635023480617E-01  2.54387001592507822E-01  2.44909105235419894E-01
  2.35625888054608656E-01  2.26540885804121295E-01  2.17657232213426699E-01
  2.08977664011328473E-01  2.00504526629614849E-01  1.92239780564667145E-01
  1.84185008374259801E-01  1.76341422285845706E-01  1.68709872391659910E-01
  1.61290855404992717E-01  1.54084523951019736E-01  1.47090696364567591E-01
  1.40308866966254192E-01  1.33738216787453706E-01  1.27377624713605919E-01
  1.21225679014473967E-01  1.15280689229072864E-01  1.09540698372187884E-01
  1.04003495428590095E-01  9.86666281003823475E-02  9.35274157722769534E-02
  8.85829626590508984E-02  8.38301710989883264E-02  7.92657549567716002E-02
  7.48862530990682534E-02  7.06880429064880161E-02  6.66673537845922926E-02
  6.28202806355905724E-02  5.91427972566488450E-02  5.56307696282098071E-02
  5.22799690568144237E-02  4.90860851377859370E-02  4.60447385039951182E-02
  4.31514933279814605E-02  4.04018695458573593E-02  3.77913547727619925E-02
  3.53154158810830635E-02  3.29695102142464266E-02  3.07490964106094528E-02
  2.86496448138029020E-02  2.66666474478270965E-02  2.47956275372284672E-02
  2.30321485548100544E-02  2.13718227815248400E-02  1.98103193654439076E-02
  1.83433718689960494E-02  1.69667852959963436E-02  1.56764425923298298E-02
  1.44683106164951829E-02  1.33384455785420172E-02  1.22829979486181792E-02
  1.12982168382585284E-02  1.03804538574049643E-02  9.52616645725362643E-03
  8.73192076784610506E-03  7.99439394153665314E-03  7.31037601556436007E-03
  6.67677130866821140E-03  6.09059936827132265E-03  5.54899548620199894E-03
  5.04921080222232085E-03  4.58861201578741884E-03  4.16468072745414340E-03
  3.77501243219906029E-03  3.41731518758533375E-03  3.08940798024208299E-03
  2.78921881448385926E-03  2.51478254710619511E-03  2.26423849245335675E-03
  2.03582782176316363E-03  1.82789078056716948E-03  1.63886374755991193E-03
  1.46727615786330706E-03  1.31174731300782630E-03  1.17098309923813551E-03
  1.04377263502698661E-03  9.28984867833226391E-04  8.25565138123995857E-04
  7.32531729480829391E-04  6.48972421501391671E-04  5.74041061001521612E-04
  5.06954166009445013E-04  4.46987575854711119E-04  3.93473159452714465E-04
  3.45795592683119303E-04  3.03389214565438867E-04  2.65734970756564273E-04
  2.32357451741677687E-04  2.02822031968331076E-04  1.76732115091111962E-04
  1.53726489456484266E-04  1.33476796969770120E-04  1.15685117552866897E-04
  1.00081670525894079E-04  8.64226334313340170E-05  7.44880780674740168E-05
  6.40800228103406081E-05  5.50205996804163660E-05  4.71503340524624776E-05
  4.03265344127579360E-05  3.44217891437142230E-05  2.93225669625723339E-05
  2.49279171972076123E-05  2.11482660408849547E-05  1.79043046301387718E-05
  1.51259646062525635E-05  1.27514767464461864E-05  1.07265081919611947E-05
  9.00337378109141405E-06  7.54031701227134946E-06  6.30085621189352465E-06
  5.25319155980863052E-06  4.36966872888124791E-06  3.62629501993542607E-06
  3.00230401654642751E-06  2.47976494214781492E-06  2.04323307175318973E-06
  1.67943772937720784E-06  1.37700458730419465E-06  1.12620917226850980E-06
  9.18758674159210123E-07  7.47599343066769910E-07  6.06746948597634681E-07
                              </PP_PSWFC.1>
 <PP_PSWFC.2 type="real" size="   999" l="0" columns="3" label= "0S">
 -4.53091657397803691E-05 -4.58790848876794246E-05 -4.64561727360500700E-05
 -4.70405194560471161E-05 -4.76322163530391157E-05 -4.82313558808747974E-05
 -4.88380316563293208E-05 -4.94523384737320610E-05 -5.00743723197783356E-05
 -5.07042303885277756E-05 -5.13420110965908270E-05 -5.19878140985066746E-05
 -5.26417403023144993E-05 -5.33038918853204815E-05 -5.39743723100634165E-05
 -5.46532863404806843E-05 -5.53407400582780077E-05 -5.60368408795049595E-05
 -5.67416975713388384E-05 -5.74554202690799923E-05 -5.81781204933603838E-05
 -5.89099111675690768E-05 -5.96509066354967667E-05 -6.04012226792022462E-05
 -6.11609765371037752E-05 -6.19302869222974970E-05 -6.27092740411067952E-05
 -6.34980596118647279E-05 -6.42967668839327766E-05 -6.51055206569590419E-05
 -6.59244473003781751E-05 -6.67536747731570305E-05 -6.75933326437884788E-05
 -6.84435521105367274E-05 -6.93044660219375373E-05 -7.01762088975558157E-05
 -7.10589169490047725E-05 -7.19527281012292155E-05 -7.28577820140565216E-05
 -7.37742201040191871E-05 -7.47021855664509898E-05 -7.56418233978618863E-05
 -7.65932804185939071E-05 -7.75567052957621290E-05 -7.85322485664844794E-05
 -7.95200626614031634E-05 -8.05203019285024988E-05 -8.15331226572261119E-05
 -8.25586831028973859E-05 -8.35971435114475371E-05 -8.46486661444538951E-05
 -8.57134153044940392E-05 -8.67915573608184579E-05 -8.78832607753458553E-05
 -8.89886961289860617E-05 -9.01080361482931518E-05 -9.12414557324548419E-05
 -9.23891319806207674E-05 -9.35512442195745214E-05 -9.47279740317542087E-05
 -9.59195052836246345E-05 -9.71260241544072525E-05 -9.83477191651708409E-05
 -9.95847812082882583E-05 -1.00837403577264432E-04 -1.02105781996938476E-04
 -1.03390114654066200E-04 -1.04690602228287098E-04 -1.06007447923481214E-04
 -1.07340857499520648E-04 -1.08691039304419169E-04 -1.10058204306887376E-04
 -1.11442566129297543E-04 -1.12844341081062285E-04 -1.14263748192433451E-04
 -1.15701009248725750E-04 -1.17156348824972204E-04 -1.18629994321013945E-04
 -1.20122175997031428E-04 -1.21633127009524269E-04 -1.23163083447741934E-04
 -1.24712284370573389E-04 -1.26280971843900457E-04 -1.27869390978421478E-04
 -1.29477789967950694E-04 -1.31106420128198481E-04 -1.32755535936040798E-04
 -1.34425395069281408E-04 -1.36116258446914568E-04 -1.37828390269894901E-04
 -1.39562058062419106E-04 -1.41317532713727421E-04 -1.43095088520430608E-04
 -1.44895003229369111E-04 -1.46717558081013515E-04 -1.48563037853407278E-04
 -1.50431730906664237E-04 -1.52323929228026690E-04 -1.54239928477488712E-04
 -1.56180028033993623E-04 -1.58144531042212980E-04 -1.60133744459913874E-04
 -1.62147979105921737E-04 -1.64187549708686440E-04 -1.66252774955460595E-04
 -1.68343977542094198E-04 -1.70461484223457263E-04 -1.72605625864495881E-04
 -1.74776737491931370E-04 -1.76975158346609566E-04 -1.79201231936506955E-04
 -1.81455306090406049E-04 -1.83737733012243791E-04 -1.86048869336144160E-04
 -1.88389076182146381E-04 -1.90758719212626756E-04 -1.93158168689436791E-04
 -1.95587799531758748E-04 -1.98047991374686007E-04 -2.00539128628542780E-04
 -2.03061600538951398E-04 -2.05615801247650533E-04 -2.08202129854081016E-04
 -2.10820990477750508E-04 -2.13472792321374612E-04 -2.16157949734816396E-04
 -2.18876882279832075E-04 -2.21630014795628539E-04 -2.24417777465244612E-04
 -2.27240605882769113E-04 -2.30098941121405014E-04 -2.32993229802388595E-04
 -2.35923924164774653E-04 -2.38891482136101605E-04 -2.41896367403943250E-04
 -2.44939049488363013E-04 -2.48020003815278009E-04 -2.51139711790745914E-04
 -2.54298660876185398E-04 -2.57497344664546610E-04 -2.60736262957435955E-04
 -2.64015921843210476E-04 -2.67336833776058791E-04 -2.70699517656072960E-04
 -2.74104498910328364E-04 -2.77552309574986985E-04 -2.81043488378425997E-04
 -2.84578580825418318E-04 -2.88158139282372638E-04 -2.91782723063638402E-04
 -2.95452898518908124E-04 -2.99169239121704596E-04 -3.02932325558993127E-04
 -3.06742745821917448E-04 -3.10601095297673700E-04 -3.14507976862544037E-04
 -3.18464000976099537E-04 -3.22469785776586626E-04 -3.26525957177515398E-04
 -3.30633148965460075E-04 -3.34792002899095720E-04 -3.39003168809472416E-04
 -3.43267304701554317E-04 -3.47585076857043001E-04 -3.51957159938481585E-04
 -3.56384237094677992E-04 -3.60867000067448338E-04 -3.65406149299707882E-04
 -3.70002394044919333E-04 -3.74656452477920108E-04 -3.79369051807136658E-04
 -3.84140928388218778E-04 -3.88972827839103707E-04 -3.93865505156514679E-04
 -3.98819724833943861E-04 -4.03836260981102696E-04 -4.08915897444888407E-04
 -4.14059427931859749E-04 -4.19267656132265242E-04 -4.24541395845617962E-04
 -4.29881471107868387E-04 -4.35288716320157470E-04 -4.40763976379203394E-04
 -4.46308106809321285E-04 -4.51921973896107299E-04 -4.57606454821801257E-04
 -4.63362437802357775E-04 -4.69190822226234336E-04 -4.75092518794926761E-04
 -4.81068449665279861E-04 -4.87119548593579522E-04 -4.93246761081466431E-04
 -4.99451044523667887E-04 -5.05733368357613039E-04 -5.12094714214908616E-04
 -5.18536076074736026E-04 -5.25058460419162770E-04 -5.31662886390422453E-04
 -5.38350385950167273E-04 -5.45122004040715018E-04 -5.51978798748343894E-04
 -5.58921841468625340E-04 -5.65952217073838388E-04 -5.73071024082503545E-04
 -5.80279374831035844E-04 -5.87578395647554274E-04 -5.94969227027896796E-04
 -6.02453023813826209E-04 -6.10030955373501134E-04 -6.17704205784197252E-04
 -6.25473974017337901E-04 -6.33341474125855811E-04 -6.41307935433895956E-04
 -6.49374602728925560E-04 -6.57542736456247548E-04 -6.65813612915965069E-04
 -6.74188524462419718E-04 -6.82668779706149136E-04 -6.91255703718379570E-04
 -6.99950638238080514E-04 -7.08754941881649413E-04 -7.17669990355204301E-04
 -7.26697176669579030E-04 -7.35837911357990521E-04 -7.45093622696477121E-04
 -7.54465756927080971E-04 -7.63955778483861223E-04 -7.73565170221735400E-04
 -7.83295433648210264E-04 -7.93148089158025827E-04 -8.03124676270743835E-04
 -8.13226753871340363E-04 -8.23455900453800562E-04 -8.33813714367819220E-04
 -8.44301814068562119E-04 -8.54921838369599786E-04 -8.65675446698999833E-04
 -8.76564319358668557E-04 -8.87590157786939172E-04 -8.98754684824461334E-04
 -9.10059644983444321E-04 -9.21506804720288774E-04 -9.33097952711643870E-04
 -9.44834900133938497E-04 -9.56719480946437270E-04 -9.68753552177844830E-04
 -9.80938994216532878E-04 -9.93277711104413076E-04 -1.00577163083448960E-03
 -1.01842270565218876E-03 -1.03123291236046667E-03 -1.04420425262874558E-03
 -1.05733875330574277E-03 -1.07063846673625539E-03 -1.08410547108190865E-03
 -1.09774187064594787E-03 -1.11154979620212212E-03 -1.12553140532770622E-03
 -1.13968888274070326E-03 -1.15402444064131491E-03 -1.16854031905767940E-03
 -1.18323878619598947E-03 -1.19812213879499116E-03 -1.21319270248496222E-03
 -1.22845283215120764E-03 -1.24390491230212284E-03 -1.25955135744188927E-03
 -1.27539461244788105E-03 -1.29143715295277576E-03 -1.30768148573155328E-03
 -1.32413014909325117E-03 -1.34078571327781002E-03 -1.35765078085772566E-03
 -1.37472798714493379E-03 -1.39202000060270116E-03 -1.40952952326273769E-03
 -1.42725929114758255E-03 -1.44521207469828204E-03 -1.46339067920743721E-03
 -1.48179794525775291E-03 -1.50043674916606052E-03 -1.51931000343296600E-03
 -1.53842065719812164E-03 -1.55777169670128315E-03 -1.57736614574911435E-03
 -1.59720706618791562E-03 -1.61729755838229262E-03 -1.63764076169981509E-03
 -1.65823985500187089E-03 -1.67909805714057218E-03 -1.70021862746206264E-03
 -1.72160486631602679E-03 -1.74326011557173356E-03 -1.76518775914049925E-03
 -1.78739122350476888E-03 -1.80987397825384862E-03 -1.83263953662641112E-03
 -1.85569145605977265E-03 -1.87903333874619148E-03 -1.90266883219606178E-03
 -1.92660162980829537E-03 -1.95083547144782711E-03 -1.97537414403042583E-03
 -2.00022148211489613E-03 -2.02538136850266733E-03 -2.05085773484504777E-03
 -2.07665456225800083E-03 -2.10277588194480135E-03 -2.12922577582644323E-03
 -2.15600837718004116E-03 -2.18312787128524793E-03 -2.21058849607885279E-03
 -2.23839454281761149E-03 -2.26655035674942860E-03 -2.29506033779302296E-03
 -2.32392894122613247E-03 -2.35316067838242573E-03 -2.38276011735719627E-03
 -2.41273188372190858E-03 -2.44308066124783712E-03 -2.47381119263878407E-03
 -2.50492828027302009E-03 -2.53643678695461647E-03 -2.56834163667426629E-03
 -2.60064781537966026E-03 -2.63336037175562060E-03 -2.66648441801405891E-03
 -2.70002513069388843E-03 -2.73398775147107613E-03 -2.76837758797887461E-03
 -2.80320001463843114E-03 -2.83846047349986400E-03 -2.87416447509396180E-03
 -2.91031759929464466E-03 -2.94692549619230944E-03 -2.98399388697822600E-03
 -3.02152856483999714E-03 -3.05953539586849375E-03 -3.09802031997613711E-03
 -3.13698935182678360E-03 -3.17644858177739374E-03 -3.21640417683157756E-03
 -3.25686238160519722E-03 -3.29782951930416863E-03 -3.33931199271464895E-03
 -3.38131628520565476E-03 -3.42384896174449671E-03 -3.46691666992492240E-03
 -3.51052614100830175E-03 -3.55468419097805868E-03 -3.59939772160728418E-03
 -3.64467372154003580E-03 -3.69051926738614205E-03 -3.73694152483000988E-03
 -3.78394774975342272E-03 -3.83154528937240495E-03 -3.87974158338876950E-03
 -3.92854416515598867E-03 -3.97796066285993535E-03 -4.02799880071459237E-03
 -4.07866640017291639E-03 -4.12997138115293698E-03 -4.18192176327955318E-03
 -4.23452566714197041E-03 -4.28779131556710283E-03 -4.34172703490913556E-03
 -4.39634125635540197E-03 -4.45164251724892730E-03 -4.50763946242759526E-03
 -4.56434084558051106E-03 -4.62175553062139401E-03 -4.67989249307947455E-03
 -4.73876082150819552E-03 -4.79836971891155380E-03 -4.85872850418875638E-03
 -4.91984661359715775E-03 -4.98173360223389591E-03 -5.04439914553616708E-03
 -5.10785304080082526E-03 -5.17210520872314530E-03 -5.23716569495521946E-03
 -5.30304467168425837E-03 -5.36975243923087323E-03 -5.43729942766780876E-03
 -5.50569619845931238E-03 -5.57495344612129323E-03 -5.64508199990273844E-03
 -5.71609282548866515E-03 -5.78799702672452669E-03 -5.86080584736291526E-03
 -5.93453067283246632E-03 -6.00918303202923644E-03 -6.08477459913120931E-03
 -6.16131719543579898E-03 -6.23882279122092709E-03 -6.31730350762998473E-03
 -6.39677161858072992E-03 -6.47723955269884945E-03 -6.55871989527611905E-03
 -6.64122539025379689E-03 -6.72476894223128507E-03 -6.80936361850076072E-03
 -6.89502265110778639E-03 -6.98175943893830121E-03 -7.06958754983271365E-03
 -7.15852072272687209E-03 -7.24857286982070765E-03 -7.33975807877480010E-03
 -7.43209061493517106E-03 -7.52558492358672195E-03 -7.62025563223584380E-03
 -7.71611755292228238E-03 -7.81318568456095854E-03 -7.91147521531408715E-03
 -8.01100152499377785E-03 -8.11178018749585464E-03 -8.21382697326504194E-03
 -8.31715785179224995E-03 -8.42178899414398364E-03 -8.52773677552475656E-03
 -8.63501777787261879E-03 -8.74364879248850507E-03 -8.85364682269959916E-03
 -8.96502908655753133E-03 -9.07781301957154806E-03 -9.19201627747726589E-03
 -9.30765673904180441E-03 -9.42475250890500472E-03 -9.54332192045843387E-03
 -9.66338353876134912E-03 -9.78495616349527031E-03 -9.90805883195717413E-03
 -1.00327108220916849E-02 -1.01589316555634537E-02 -1.02867411008694710E-02
 -1.04161591764926949E-02 -1.05472061540967769E-02 -1.06799025617635036E-02
 -1.08142691872720690E-02 -1.09503270814226405E-02 -1.10880975614029362E-02
 -1.12276022142002510E-02 -1.13688629000578290E-02 -1.15119017559778547E-02
 -1.16567411992705046E-02 -1.18034039311505200E-02 -1.19519129403812732E-02
 -1.21022915069679687E-02 -1.22545632058998506E-02 -1.24087519109424508E-02
 -1.25648817984806843E-02 -1.27229773514136724E-02 -1.28830633631014917E-02
 -1.30451649413653829E-02 -1.32093075125417538E-02 -1.33755168255908097E-02
 -1.35438189562607121E-02 -1.37142403113081866E-02 -1.38868076327764538E-02
 -1.40615480023310556E-02 -1.42384888456548800E-02 -1.44176579369027832E-02
 -1.45990834032175502E-02 -1.47827937293073530E-02 -1.49688177620855897E-02
 -1.51571847153752128E-02 -1.53479241746770963E-02 -1.55410661020046418E-02
 -1.57366408407846672E-02 -1.59346791208266302E-02 -1.61352120633604761E-02
 -1.63382711861446983E-02 -1.65438884086451313E-02 -1.67520960572867667E-02
 -1.69629268707784248E-02 -1.71764140055123207E-02 -1.73925910410395561E-02
 -1.76114919856227917E-02 -1.78331512818671531E-02 -1.80576038124310549E-02
 -1.82848849058179670E-02 -1.85150303422506428E-02 -1.87480763596290685E-02
 -1.89840596595735114E-02 -1.92230174135545884E-02 -1.94649872691110698E-02
 -1.97100073561574905E-02 -1.99581162933829721E-02 -2.02093531947424923E-02
 -2.04637576760431511E-02 -2.07213698616255451E-02 -2.09822303911437677E-02
 -2.12463804264441426E-02 -2.15138616585453003E-02 -2.17847163147214216E-02
 -2.20589871656898598E-02 -2.23367175329060412E-02 -2.26179512959664118E-02
 -2.29027329001219096E-02 -2.31911073639047421E-02 -2.34831202868690178E-02
 -2.37788178574482208E-02 -2.40782468609321600E-02 -2.43814546875641865E-02
 -2.46884893407622180E-02 -2.49993994454655206E-02 -2.53142342566089959E-02
 -2.56330436677283148E-02 -2.59558782196976714E-02 -2.62827891096030532E-02
 -2.66138281997534178E-02 -2.69490480268325325E-02 -2.72885018111942088E-02
 -2.76322434663033231E-02 -2.79803276083263434E-02 -2.83328095658729219E-02
 -2.86897453898928290E-02 -2.90511918637308998E-02 -2.94172065133417801E-02
 -2.97878476176702579E-02 -3.01631742191977859E-02 -3.05432461346605184E-02
 -3.09281239659405967E-02 -3.13178691111354879E-02 -3.17125437758088435E-02
 -3.21122109844249326E-02 -3.25169345919725170E-02 -3.29267792957810418E-02
 -3.33418106475319512E-02 -3.37620950654715507E-02 -3.41876998468269300E-02
 -3.46186931804308012E-02 -3.50551441595590499E-02 -3.54971227949847645E-02
 -3.59447000282537149E-02 -3.63979477451865999E-02 -3.68569387896103134E-02
 -3.73217469773255567E-02 -3.77924471103143755E-02 -3.82691149911918577E-02
 -3.87518274379088923E-02 -3.92406622987088796E-02 -3.97356984673459049E-02
 -4.02370158985669926E-02 -4.07446956238665808E-02 -4.12588197675167051E-02
 -4.17794715628795194E-02 -4.23067353690068440E-02 -4.28406966875347905E-02
 -4.33814421798748712E-02 -4.39290596847143194E-02 -4.44836382358232002E-02
 -4.50452680801829153E-02 -4.56140406964362990E-02 -4.61900488136672213E-02
 -4.67733864305179131E-02 -4.73641488346483799E-02 -4.79624326225436895E-02
 -4.85683357196798685E-02 -4.91819574010482069E-02 -4.98033983120512794E-02
 -5.04327604897738396E-02 -5.10701473846345080E-02 -5.17156638824275636E-02
 -5.23694163267598989E-02 -5.30315125418896263E-02 -5.37020618559732113E-02
 -5.43811751247286965E-02 -5.50689647555189579E-02 -5.57655447318644304E-02
 -5.64710306383896660E-02 -5.71855396862097562E-02 -5.79091907387633553E-02
 -5.86421043380985635E-02 -5.93844027316158402E-02 -6.01362098992732352E-02
 -6.08976515812613070E-02 -6.16688553061496419E-02 -6.24499504195106178E-02
 -6.32410681130238794E-02 -6.40423414540670782E-02 -6.48539054157907663E-02
 -6.56758969076857713E-02 -6.65084548066411513E-02 -6.73517199884951789E-02
 -6.82058353600779321E-02 -6.90709458917480867E-02 -6.99471986504190679E-02
 -7.08347428330744766E-02 -7.17337298007683644E-02 -7.26443131131046110E-02
 -7.35666485631911726E-02 -7.45008942130605395E-02 -7.54472104295473706E-02
 -7.64057599206127980E-02 -7.73767077721029678E-02 -7.83602214849256212E-02
 -7.93564710126315326E-02 -8.03656287993772395E-02 -8.13878698182511490E-02
 -8.24233716099375124E-02 -8.34723143216888064E-02 -8.45348807465804847E-02
 -8.56112563630109513E-02 -8.67016293744093947E-02 -8.78061907491118065E-02
 -8.89251342603579326E-02 -9.00586565263604144E-02 -9.12069570503878518E-02
 -9.23702382608050654E-02 -9.35487055510001719E-02 -9.47425673191311518E-02
 -9.59520350076078360E-02 -9.71773231422271566E-02 -9.84186493708656684E-02
 -9.96762345016291296E-02 -1.00950302540348827E-01 -1.02241080727305839E-01
 -1.03548799573049549E-01 -1.04873692893178175E-01 -1.06215997841922025E-01
 -1.07575954944370028E-01 -1.08953808127162155E-01 -1.10349804747458521E-01
 -1.11764195619976872E-01 -1.13197235041879507E-01 -1.14649180815271853E-01
 -1.16120294267054072E-01 -1.17610840265853597E-01 -1.19121087235741357E-01
 -1.20651307166410454E-01 -1.22201775619482311E-01 -1.23772771730566694E-01
 -1.25364578206690030E-01 -1.26977481318667651E-01 -1.28611770887963384E-01
 -1.30267740267563603E-01 -1.31945686316339156E-01 -1.33645909366346127E-01
 -1.35368713182469791E-01 -1.37114404913778576E-01 -1.38883295035911791E-01
 -1.40675697283776241E-01 -1.42491928573771381E-01 -1.44332308914731505E-01
 -1.46197161306687556E-01 -1.48086811626513826E-01 -1.50001588499453276E-01
 -1.51941823155449990E-01 -1.53907849269145858E-01 -1.55900002782323993E-01
 -1.57918621707499568E-01 -1.59964045911275526E-01 -1.62036616875991940E-01
 -1.64136677438098538E-01 -1.66264571501583053E-01 -1.68420643724683045E-01
 -1.70605239177980511E-01 -1.72818702971889782E-01 -1.75061379851381871E-01
 -1.77333613755694924E-01 -1.79635747340602780E-01 -1.81968121460695298E-01
 -1.84331074608937190E-01 -1.86724942310629360E-01 -1.89150056468699562E-01
 -1.91606744657079997E-01 -1.94095329358716762E-01 -1.96616127144561864E-01
 -1.99169447789663501E-01 -2.01755593322258897E-01 -2.04374857001524884E-01
 -2.07027522219370125E-01 -2.09713861321404071E-01 -2.12434134341913744E-01
 -2.15188587647392987E-01 -2.17977452482871870E-01 -2.20800943414913048E-01
 -2.23659256664861222E-01 -2.26552568325521425E-01 -2.29481032454069450E-01
 -2.32444779033625065E-01 -2.35443911795465838E-01 -2.38478505893434611E-01
 -2.41548605421656792E-01 -2.44654220766166219E-01 -2.47795325780574949E-01
 -2.50971854775371594E-01 -2.54183699309920241E-01 -2.57430704775630403E-01
 -2.60712666758210088E-01 -2.64029327166292016E-01 -2.67380370113058263E-01
 -2.70765417536894315E-01 -2.74184024546337390E-01 -2.77635674473948602E-01
 -2.81119773622941271E-01 -2.84635645689688133E-01 -2.88182525844511872E-01
 -2.91759554452216130E-01 -2.95365770413077988E-01 -2.99000104104193032E-01
 -3.02661369900177613E-01 -3.06348258251361805E-01 -3.10059327296718923E-01
 -3.13792993987866919E-01 -3.17547524699555661E-01 -3.21321025301148699E-01
 -3.25111430662654521E-01 -3.28916493567968315E-01 -3.32733773007030165E-01
 -3.36560621817720118E-01 -3.40394173647419529E-01 -3.44231329203253555E-01
 -3.48068741759263389E-01 -3.51902801887880534E-01 -3.55729621382371186E-01
 -3.59545016336217937E-01 -3.63344489344739674E-01 -3.67123210793796118E-01
 -3.70875999199869022E-01 -3.74597300565590541E-01 -3.78281166714464101E-01
 -3.81921232568490310E-01 -3.85510692332826421E-01 -3.89042274551469280E-01
 -3.92508215998610188E-01 -3.95900234371134696E-01 -3.99209499748723884E-01
 -4.02426604789363762E-01 -4.05541533629650286E-01 -4.08543629461361635E-01
 -4.11421560758155558E-01 -4.14163286129135111E-01 -4.16756017779361498E-01
 -4.19186183561322201E-01 -4.21439387605824556E-01 -4.23500369525925957E-01
 -4.25352962193327744E-01 -4.26980048093270670E-01 -4.28363514271371482E-01
 -4.29484205894150151E-01 -4.30321878454290596E-01 -4.30855148661974385E-01
 -4.31061444075103106E-01 -4.30916951533833581E-01 -4.30396564478823795E-01
 -4.29473829247891570E-01 -4.28120890462581616E-01 -4.26308435634494443E-01
 -4.24005639141473989E-01 -4.21180105745136812E-01 -4.17797813845128763E-01
 -4.13823058691152823E-01 -4.09218395801520030E-01 -4.03944584866791800E-01
 -3.97960534449291858E-01 -3.91223247823728304E-01 -3.83687770341138157E-01
 -3.75307138737852264E-01 -3.66032332853244324E-01 -3.55812230264797191E-01
 -3.44593564396440510E-01 -3.32320886706301666E-01 -3.18936533612960371E-01
 -3.04380598874949337E-01 -2.88590912196570348E-01 -2.71503024894114431E-01
 -2.53050203520044370E-01 -2.33163432408531268E-01 -2.11771426173803151E-01
 -1.88800653262702400E-01 -1.64175371734426506E-01 -1.37817678513265485E-01
 -1.09647573434716608E-01 -7.95830394795581236E-02 -4.75401406567510579E-02
 -1.34331390800614073E-02  2.28253671514241120E-02  6.13242835907878356E-02
  1.02153834855776324E-01  1.45405354013928179E-01  1.91171044084721242E-01
  2.39543709757764151E-01  2.90616457389796967E-01  3.44482361318285857E-01
  4.01234094517286199E-01  4.60963521624350836E-01  5.23761252387819010E-01
  5.89716153624255668E-01  6.58914817838840872E-01  7.31440986749972377E-01
  8.07374928076209808E-01  8.86792764092195207E-01  9.69765750643525770E-01
  1.05635950553236713E+00  1.14663318544926018E+00  1.24063861093570416E+00
  1.33841933922058365E+00  1.44000968518411887E+00  1.54543369116006057E+00
  1.65470404684571881E+00  1.76782096116452414E+00  1.88477098855179515E+00
  2.00552581289312570E+00  2.13004099313037498E+00  2.25825467541547598E+00
  2.39008627763015991E+00  2.52543515309925937E+00  2.66417924140389184E+00
  2.80617371534710758E+00  2.95124963433223542E+00  3.09921261567832573E+00
  3.24984153670896703E+00  3.40288728179951860E+00  3.55807154994173569E+00
  3.71508573976707535E+00  3.87358993034316912E+00  4.03321197740039494E+00
  4.19354674593206589E+00  4.35415550131484608E+00  4.51456548218355813E+00
  4.67426967923124259E+00  4.83272684485284998E+00  4.98936175906583035E+00
  5.14356577738625376E+00  5.29469768625995840E+00  5.44208489111505322E+00
  5.58502496128190451E+00  5.72278755462498978E+00  5.85461674280544742E+00
  5.97973375558441411E+00  6.09734015939393892E+00  6.20662148105392486E+00
  6.30676018992016729E+00  6.39702890948864322E+00  6.47675931782749803E+00
  6.54528728465365806E+00  6.60195531258970192E+00  6.64611610108464834E+00
  6.67713637174356034E+00  6.69440095723936057E+00  6.69731715392742544E+00
  6.68531933604907547E+00  6.65787382688430629E+00  6.61448401932884789E+00
  6.55469573543730810E+00  6.47810281037984392E+00  6.38435288311981264E+00
  6.27315337134896467E+00  6.14427760380735677E+00  5.99757107817552448E+00
  5.83295780701152111E+00  5.65044670889898626E+00  5.45013799585804737E+00
  5.23222950154099120E+00  4.99702288813935969E+00  4.74492966303133645E+00
  4.47647692911683670E+00  4.19231278558945331E+00  3.89321128866436883E+00
  3.58007687461254998E+00  3.25394814046197567E+00  2.91600087104214811E+00
  2.56755019481924718E+00  2.21005174536673632E+00  1.84510170052078104E+00
  1.47443556749891047E+00  1.09992557973154814E+00  7.23576570126318264E-01
  3.47520186216652149E-01 -2.59926845783717761E-02 -3.94601406230290830E-01
 -7.55847120782198734E-01 -1.10718641854140576E+00 -1.44600724583877915E+00
 -1.76964712695759152E+00 -2.07541375466635758E+00 -2.36060797795230570E+00
 -2.62254918600023146E+00 -2.85860305175197649E+00 -3.06621155856240346E+00
 -3.24292518853302569E+00 -3.38643710114382479E+00 -3.49461907591351739E+00
 -3.56555893320419237E+00 -3.59759908329423572E+00 -3.58937578598609086E+00
 -3.53985863198784845E+00 -3.44838968401555057E+00 -3.31472164113744228E+00
 -3.13905431570363458E+00 -2.92206863991993693E+00 -2.66495735065898964E+00
 -2.36945143866423980E+00 -2.03784139439797052E+00 -1.67299224019666659E+00
 -1.27835131017805148E+00 -8.57947728789372865E-01 -4.16382549485856623E-01
  4.11914495835389374E-02  5.09101252201601406E-01  9.81197216754988943E-01
  1.45090952594213474E+00  1.91131801405146939E+00  2.35523570082604827E+00
  2.77530610458366445E+00  3.16411410614759347E+00  3.51430978883708400E+00
  3.81874428941023325E+00  4.07061626324696579E+00  4.26362709886936031E+00
  4.39214251895693852E+00  4.45135768655415109E+00  4.43746240804577052E+00
  4.34780250336157170E+00  4.18103291633352114E+00  3.93725768467193049E+00
  3.61815150297799182E+00  3.22705731948719343E+00  2.76905423592664057E+00
  2.25098995962571902E+00  1.68147221822060300E+00  1.07081391997279263E+00
  4.30927455209951127E-01 -2.24835588271418640E-01 -8.81901861358945771E-01
 -1.52475194933594449E+00 -2.13725367043705550E+00 -2.70305027130814901E+00
 -3.20599849808704729E+00 -3.63064897550371146E+00 -3.96275861426308085E+00
 -4.18982196855047029E+00 -4.30160568347224181E+00 -4.29066753170740611E+00
 -4.15283918609083358E+00 -3.88764997587717387E+00 -3.49866760971046009E+00
 -2.99373140761047862E+00 -2.38505415833341816E+00 -1.68917048864821329E+00
 -9.26712756776385316E-01 -1.22000086172250083E-01  6.97567692411726226E-01
  1.50231172408244085E+00  2.26126281583121891E+00  2.94331808475475043E+00
  3.51853516173502090E+00  3.95952167506371389E+00  4.24286594667103323E+00
  4.35054383286371937E+00  4.27122725625971000E+00  4.00141305947264048E+00
  3.54628752121503243E+00  2.92024293754326569E+00  2.14696907652209257E+00
  1.25905477767925666E+00  2.97053920159285056E-01 -6.92004480896766250E-01
 -1.65665054869930195E+00 -2.54350367634734109E+00 -3.30020928195478547E+00
 -3.87865075442635909E+00 -4.23826435960279913E+00 -4.34924894116246730E+00
 -4.19543506750379525E+00 -3.77656393333413654E+00 -3.10972879202272035E+00
 -2.22975442347054820E+00 -1.18833560330882748E+00 -5.18247240344213503E-02
  1.10234935414408319E+00  2.19053786090257496E+00  3.12878617046138752E+00
  3.83945852174107083E+00  4.25810480394468005E+00  4.33999981254591649E+00
  4.06571964592672508E+00  3.44510466528610815E+00  2.51900578129442954E+00
  1.35832962304827798E+00  6.00913698118411138E-02 -1.25955360054126198E+00
 -2.47501122567828702E+00 -3.46304897728107575E+00 -4.11571912139088969E+00
 -4.35313376958252363E+00 -4.13463663425667605E+00 -3.46681867590789405E+00
 -2.40701307339529746E+00 -1.06117405556895239E+00  4.24393490019230990E-01
  1.87728174507743106E+00  3.11820742010162721E+00  3.98336553756771927E+00
  4.34733720092850096E+00  4.14338287604729771E+00  3.37789721980930180E+00
                              </PP_PSWFC.2>
 <PP_PSWFC.3 type="real" size="   999" l="1" columns="3" label= "3P">
  3.29686142487122842E-09  3.38032186903904528E-09  3.46589512440204136E-09
  3.55363467702985253E-09  3.64359536699840926E-09  3.73583342266673915E-09
  3.83040649582153842E-09  3.92737369771140403E-09  4.02679563599328084E-09
  4.12873445261425701E-09  4.23325386265224820E-09  4.34041919414001674E-09
  4.45029742889732291E-09  4.56295724439672949E-09  4.67846905668927683E-09
  4.79690506441676733E-09  4.91833929393829679E-09  5.04284764559911737E-09
  5.17050794117081469E-09  5.30139997249249493E-09  5.43560555134320797E-09
  5.57320856057700876E-09  5.71429500655246538E-09  5.85895307288941647E-09
  6.00727317558663097E-09  6.15934801953470067E-09  6.31527265645964269E-09
  6.47514454433330309E-09  6.63906360828775865E-09  6.80713230307180237E-09
  6.97945567708842681E-09  7.15614143805355579E-09  7.33730002031681428E-09
  7.52304465388661475E-09  7.71349143520261860E-09  7.90875939969970956E-09
  8.10897059620906326E-09  8.31425016324261934E-09  8.52472640720869445E-09
  8.74053088260773486E-09  8.96179847425802989E-09  9.18866748160319743E-09
  9.42127970515379044E-09  9.65978053511721472E-09  9.90431904227140885E-09
  1.01550480711387877E-08  1.04121243355191330E-08  1.06757085164407677E-08
  1.09459653625914150E-08  1.12230637932915366E-08  1.15071770040742767E-08
  1.17984825749383936E-08  1.20971625813414685E-08  1.24034037080029872E-08
  1.27173973655884063E-08  1.30393398103469303E-08  1.33694322667780866E-08
  1.37078810534035806E-08  1.40548977117230200E-08  1.44106991384343144E-08
  1.47755077210010136E-08  1.51495514766517595E-08  1.55330641948984577E-08
  1.59262855836622381E-08  1.63294614190988212E-08  1.67428436992163965E-08
  1.71666908013826868E-08  1.76012676438191080E-08  1.80468458511832429E-08
  1.85037039243431757E-08  1.89721274144493766E-08  1.94524091014135300E-08
  1.99448491769054573E-08  2.04497554319825803E-08  2.09674434494694447E-08
  2.14982368012070164E-08  2.20424672502956582E-08  2.26004749584578313E-08
  2.31726086986501019E-08  2.37592260730576774E-08  2.43606937366071548E-08
  2.49773876261378291E-08  2.56096931953743834E-08  2.62580056558478347E-08
  2.69227302239157559E-08  2.76042823740353110E-08  2.83030880984483965E-08
  2.90195841734405351E-08  2.97542184323401081E-08  3.05074500454288727E-08
  3.12797498069379435E-08  3.20716004293095065E-08  3.28834968449077449E-08
  3.37159465153674409E-08  3.45694697487740919E-08  3.54446000248729593E-08
  3.63418843285113242E-08  3.72618834915215913E-08  3.82051725432592571E-08
  3.91723410700150696E-08  4.01639935835249770E-08  4.11807498988098274E-08
  4.22232455215796044E-08  4.32921320454448699E-08  4.43880775591841674E-08
  4.55117670643204653E-08  4.66639029032694717E-08  4.78452051983261787E-08
  4.90564123017644524E-08  5.02982812573312084E-08  5.15715882734226071E-08
  5.28771292082395849E-08  5.42157200672247142E-08  5.55881975130917839E-08
  5.69954193887671187E-08  5.84382652535685362E-08  5.99176369329583359E-08
  6.14344590822132198E-08  6.29896797643633096E-08  6.45842710427622547E-08
  6.62192295886575135E-08  6.78955773041422034E-08  6.96143619608762828E-08
  7.13766578549776045E-08  7.31835664784915616E-08  7.50362172078581570E-08
  7.69357680098089727E-08  7.88834061651331190E-08  8.08803490107655661E-08
  8.29278447006620836E-08  8.50271729859344784E-08  8.71796460147363253E-08
  8.93866091523972706E-08  9.16494418223192264E-08  9.39695583681596661E-08
  9.63484089378421927E-08  9.87874803899438767E-08  1.01288297223029961E-07
  1.03852422528513584E-07  1.06481458967637395E-07  1.09177049773188262E-07
  1.11940879776568893E-07  1.14774676460871404E-07  1.17680211040608867E-07
  1.20659299568779998E-07  1.23713804071960553E-07  1.26845633714127590E-07
  1.30056745989947906E-07  1.33349147948273623E-07  1.36724897446610879E-07
  1.40186104437346367E-07  1.43734932286532348E-07  1.47373599126059580E-07
  1.51104379240059063E-07  1.54929604486400429E-07  1.58851665754177623E-07
  1.62873014458087412E-07  1.66996164070641417E-07  1.71223691693164796E-07
  1.75558239666564302E-07  1.80002517222875249E-07  1.84559302178613774E-07
  1.89231442670999964E-07  1.94021858938131555E-07  1.98933545144222861E-07
  2.03969571251051961E-07  2.09133084936779196E-07  2.14427313563344847E-07
  2.19855566193669710E-07  2.25421235659920692E-07  2.31127800684137043E-07
  2.36978828052535927E-07  2.42977974844865104E-07  2.49128990720189178E-07
  2.55435720260540401E-07  2.61902105373901885E-07  2.68532187758017913E-07
  2.75330111426579077E-07  2.82300125299356383E-07  2.89446585857904656E-07
  2.96773959868496912E-07  3.04286827173985767E-07  3.11989883556344450E-07
  3.19887943671672024E-07  3.27985944059496459E-07  3.36288946228263035E-07
  3.44802139818923782E-07  3.53530845848621145E-07  3.62480520036480843E-07
  3.71656756213597270E-07  3.81065289819346637E-07  3.90712001486202088E-07
  4.00602920715303950E-07  4.10744229645075225E-07  4.21142266915238037E-07
  4.31803531628651852E-07  4.42734687413437049E-07  4.53942566587939324E-07
  4.65434174431125218E-07  4.77216693561083997E-07  4.89297488424371779E-07
  5.01684109898999219E-07  5.14384300013947045E-07  5.27405996788154804E-07
  5.40757339192006926E-07  5.54446672234422975E-07  5.68482552178716817E-07
  5.82873751890504933E-07  5.97629266320992740E-07  6.12758318129065986E-07
  6.28270363445713971E-07  6.44175097784364676E-07  6.60482462100850793E-07
  6.77202649006778305E-07  6.94346109140183358E-07  7.11923557697469293E-07
  7.29945981130685141E-07  7.48424644014355871E-07  7.67371096086141901E-07
  7.86797179465727264E-07  8.06715036056462852E-07  8.27137115134364145E-07
  8.48076181129238565E-07  8.69545321602781013E-07  8.91557955428634688E-07
  9.14127841179535565E-07  9.37269085726757542E-07  9.60996153057269708E-07
  9.85323873314082575E-07  1.01026745206545826E-06  1.03584247980876520E-06
  1.06206494171491121E-06  1.08895122761946598E-06  1.11651814226669783E-06
  1.14478291581293712E-06  1.17376321459583311E-06  1.20347715217621559E-06
  1.23394330065949340E-06  1.26518070230364126E-06  1.29720888142103676E-06
  1.33004785658159964E-06  1.36371815312482413E-06  1.39824081598856956E-06
  1.43363742286259647E-06  1.46993009767508220E-06  1.50714152442053026E-06
  1.54529496133774220E-06  1.58441425544668363E-06  1.62452385745334337E-06
  1.66564883703191705E-06  1.70781489849382383E-06  1.75104839685340121E-06
  1.79537635430026956E-06  1.84082647708870048E-06  1.88742717285452434E-06
  1.93520756837039146E-06  1.98419752775051992E-06  2.03442767111625279E-06
  2.08592939373414295E-06  2.13873488563850421E-06  2.19287715175066264E-06
  2.24839003250755462E-06  2.30530822501247961E-06  2.36366730472128784E-06
  2.42350374767754028E-06  2.48485495331050416E-06  2.54775926781028795E-06
  2.61225600809467419E-06  2.67838548638265658E-06  2.74618903539004152E-06
  2.81570903416282212E-06  2.88698893456452961E-06  2.96007328843405009E-06
  3.03500777543093785E-06  3.11183923158558110E-06  3.19061567857208680E-06
  3.27138635372218503E-06  3.35420174079885918E-06  3.43911360154901110E-06
  3.52617500805483541E-06  3.61544037590407783E-06  3.70696549820001649E-06
  3.80080758043230578E-06  3.89702527623054619E-06  3.99567872402290042E-06
  4.09682958462264212E-06  4.20054107976619752E-06  4.30687803162662887E-06
  4.41590690332742195E-06  4.52769584048176865E-06  4.64231471378330464E-06
  4.75983516267503784E-06  4.88033064012358197E-06  5.00387645852682020E-06
  5.13054983678362087E-06  5.26042994855497796E-06  5.39359797174686184E-06
  5.53013713924553954E-06  5.67013279093718169E-06  5.81367242704424726E-06
  5.96084576281189246E-06  6.11174478457871165E-06  6.26646380726667959E-06
  6.42509953332636561E-06  6.58775111317420319E-06  6.75452020715949250E-06
  6.92551104910000385E-06  7.10083051142573664E-06  7.28058817197165583E-06
  7.46489638246107655E-06  7.65387033872245248E-06  7.84762815268352393E-06
  8.04629092618775995E-06  8.24998282667916537E-06  8.45883116480291543E-06
  8.67296647396999465E-06  8.89252259193591242E-06  9.11763674444412738E-06
  9.34844963098669510E-06  9.58510551273560028E-06  9.82775230269964258E-06
  1.00765416581633614E-05  1.03316290754655979E-05  1.05931739871770200E-05
  1.08613398617372670E-05  1.11362943056138858E-05  1.14182091680470048E-05
  1.17072606484451439E-05  1.20036294064991064E-05  1.23075006750830282E-05
  1.26190643760127457E-05  1.29385152387341009E-05  1.32660529220151806E-05
  1.36018821387184148E-05  1.39462127837307343E-05  1.42992600651313798E-05
  1.46612446386794998E-05  1.50323927457055332E-05  1.54129363544922716E-05
  1.58031133052342417E-05  1.62031674586656684E-05  1.66133488484499049E-05
  1.70339138374257253E-05  1.74651252778075908E-05  1.79072526754404902E-05
  1.83605723582113465E-05  1.88253676487227111E-05  1.93019290413362225E-05
  1.97905543836963815E-05  2.02915490628482975E-05  2.08052261960651352E-05
  2.13319068265049052E-05  2.18719201238184846E-05  2.24256035898340042E-05
  2.29933032694464597E-05  2.35753739668436375E-05  2.41721794672038865E-05
  2.47840927640038337E-05  2.54114962920778087E-05  2.60547821665750268E-05
  2.67143524279629069E-05  2.73906192932301824E-05  2.80840054134462017E-05
  2.87949441378371342E-05  2.95238797845443481E-05  3.02712679182331603E-05
  3.10375756347261659E-05  3.18232818528381168E-05  3.26288776135943726E-05
  3.34548663870204709E-05  3.43017643866931586E-05  3.51701008922499755E-05
  3.60604185800584355E-05  3.69732738622505515E-05  3.79092372343353383E-05
  3.88688936316048731E-05  3.98528427945572916E-05  4.08616996435641469E-05
  4.18960946630157820E-05  4.29566742951847924E-05  4.40441013440526097E-05
  4.51590553893514501E-05  4.63022332110800706E-05  4.74743492247571038E-05
  4.86761359276847771E-05  4.99083443564998010E-05  5.11717445562978840E-05
  5.24671260616237905E-05  5.37952983896266559E-05  5.51570915456886057E-05
  5.65533565418409041E-05  5.79849659282916560E-05  5.94528143383961602E-05
  6.09578190474086235E-05  6.25009205453648444E-05  6.40830831244516066E-05
  6.57052954812294723E-05  6.73685713340840700E-05  6.90739500562897638E-05
  7.08224973250815281E-05  7.26153057871373192E-05  7.44534957408875633E-05
  7.63382158360747208E-05  7.82706437909997256E-05  8.02519871279014748E-05
  8.22834839269270254E-05  8.43664035991621730E-05  8.65020476792031619E-05
  8.86917506377631374E-05  9.09368807148188481E-05  9.32388407738159294E-05
  9.55990691774642032E-05  9.80190406856682383E-05  1.00500267376150642E-04
  1.03044299588341966E-04  1.05652726891123110E-04  1.08327179075022262E-04
  1.11069327169483566E-04  1.13880884485838887E-04  1.16763607686632345E-04
  1.19719297881960360E-04  1.22749801753509977E-04  1.25857012706992412E-04
  1.29042872053688866E-04  1.32309370221841245E-04  1.35658547998640777E-04
  1.39092497803585004E-04  1.42613364993994079E-04  1.46223349203496292E-04
  1.49924705714313006E-04  1.53719746864195187E-04  1.57610843488883236E-04
  1.61600426400984994E-04  1.65690987906189953E-04  1.69885083357757021E-04
  1.74185332750241925E-04  1.78594422353450165E-04  1.83115106387627655E-04
  1.87750208740928361E-04  1.92502624730219563E-04  1.97375322906317258E-04
  2.02371346904767923E-04  2.07493817343320738E-04  2.12745933767267362E-04
  2.18130976643847501E-04  2.23652309406957757E-04  2.29313380553424769E-04
  2.35117725792138811E-04  2.41068970247376084E-04  2.47170830717668869E-04
  2.53427117991619484E-04  2.59841739222086126E-04  2.66418700360206118E-04
  2.73162108650756982E-04  2.80076175190395915E-04  2.87165217550350109E-04
  2.94433662465178286E-04  3.01886048589256712E-04  3.09527029322688191E-04
  3.17361375708371152E-04  3.25393979402012717E-04  3.33629855716912206E-04
  3.42074146745383794E-04  3.50732124558740467E-04  3.59609194487800639E-04
  3.68710898485932151E-04  3.78042918576699063E-04  3.87611080388220765E-04
  3.97421356776417290E-04  4.07479871539351897E-04  4.17792903224952676E-04
  4.28366889034439069E-04  4.39208428823842335E-04  4.50324289206067562E-04
  4.61721407756001821E-04  4.73406897321234895E-04  4.85388050441029671E-04
  4.97672343876226649E-04  5.10267443252855981E-04  5.23181207822275072E-04
  5.36421695340734785E-04  5.49997167071341014E-04  5.63916092911453731E-04
  5.78187156648633815E-04  5.92819261348332695E-04  6.07821534876590861E-04
  6.23203335561090324E-04  6.38974257993991891E-04  6.55144138980067771E-04
  6.71723063633723446E-04  6.88721371628594320E-04  7.06149663603488124E-04
  7.24018807728534657E-04  7.42339946435496660E-04  7.61124503316298971E-04
  7.80384190193913422E-04  8.00131014369856257E-04  8.20377286052638346E-04
  8.41135625971626221E-04  8.62418973180869219E-04  8.84240593057559554E-04
  9.06614085499906448E-04  9.29553393329308748E-04  9.53072810901839720E-04
  9.77186992934166426E-04  1.00191096354914711E-03  1.02726012554647957E-03
  1.05325026990389474E-03  1.07989758551452057E-03  1.10721866916617070E-03
  1.13523053576844858E-03  1.16395062883369667E-03  1.19339683121795341E-03
  1.22358747612823552E-03  1.25454135840259609E-03  1.28627774606955960E-03
  1.31881639219370763E-03  1.35217754701430579E-03  1.38638197038405643E-03
  1.42145094451520530E-03  1.45740628704038849E-03  1.49427036439580218E-03
  1.53206610553440793E-03  1.57081701597709266E-03  1.61054719220986840E-03
  1.65128133643537554E-03  1.69304477168713942E-03  1.73586345731521850E-03
  1.77976400485207261E-03  1.82477369426767397E-03  1.87092049062308392E-03
  1.91823306113190367E-03  1.96674079263925048E-03  2.01647380952806694E-03
  2.06746299206281986E-03  2.11973999518086289E-03  2.17333726774190548E-03
  2.22828807224633579E-03  2.28462650503328786E-03  2.34238751696960994E-03
  2.40160693464115498E-03  2.46232148205796381E-03  2.52456880288524834E-03
  2.58838748321223991E-03  2.65381707487128164E-03  2.72089811931973099E-03
  2.78967217209754193E-03  2.86018182787361628E-03  2.93247074609428657E-03
  3.00658367724753080E-03  3.08256648975682767E-03  3.16046619751876806E-03
  3.24033098809884583E-03  3.32221025160010742E-03  3.40615461021960986E-03
  3.49221594850790363E-03  3.58044744434705443E-03  3.67090360066295611E-03
  3.76364027788800510E-03  3.85871472719045289E-03  3.95618562448705070E-03
  4.05611310525585706E-03  4.15855880016639725E-03  4.26358587154459547E-03
  4.37125905069020004E-03  4.48164467606471453E-03  4.59481073236808497E-03
  4.71082689052269073E-03  4.82976454858346452E-03  4.95169687359318933E-03
  5.07669884440236502E-03  5.20484729547316186E-03  5.33622096168740161E-03
  5.47090052417862401E-03  5.60896865720855557E-03  5.75051007610862062E-03
  5.89561158630722611E-03  6.04436213346389029E-03  6.19685285473141854E-03
  6.35317713116754969E-03  6.51343064131765844E-03  6.67771141599034831E-03
  6.84611989424778467E-03  7.01875898063292029E-03  7.19573410365578932E-03
  7.37715327556112254E-03  7.56312715339975319E-03  7.75376910142621702E-03
  7.94919525484503488E-03  8.14952458492824300E-03  8.35487896552662354E-03
  8.56538324099712263E-03  8.78116529556883900E-03  9.00235612416988747E-03
  9.22908990473727577E-03  9.46150407203177890E-03  9.69973939297957138E-03
  9.94394004356211579E-03  1.01942536872754903E-02  1.04508315551800294E-02
  1.07138285275606773E-02  1.09834032172180171E-02  1.12597180544094806E-02
  1.15429393734595206E-02  1.18332375010570447E-02  1.21307868462575200E-02
  1.24357659922064989E-02  1.27483577896003574E-02  1.30687494518991094E-02
  1.33971326523050858E-02  1.37337036225201516E-02  1.40786632532928606E-02
  1.44322171967656045E-02  1.47945759706302783E-02  1.51659550640997186E-02
  1.55465750457000357E-02  1.59366616728872333E-02  1.63364460034898205E-02
  1.67461645089765944E-02  1.71660591895467680E-02  1.75963776910370365E-02
  1.80373734236376967E-02  1.84893056824069688E-02  1.89524397695697150E-02
  1.94270471185838227E-02  1.99134054199536469E-02  2.04117987487667553E-02
  2.09225176939260397E-02  2.14458594890453019E-02  2.19821281449721628E-02
  2.25316345838972448E-02  2.30946967750038264E-02  2.36716398716071766E-02
  2.42627963497267750E-02  2.48685061480291951E-02  2.54891168090730785E-02
  2.61249836217810477E-02  2.67764697650566680E-02  2.74439464524568050E-02
  2.81277930778227603E-02  2.88283973617645441E-02  2.95461554988846326E-02
  3.02814723056179617E-02  3.10347613685566237E-02  3.18064451931159148E-02
  3.25969553523888164E-02  3.34067326360242625E-02  3.42362271989535422E-02
  3.50858987097759575E-02  3.59562164986026028E-02  3.68476597041430959E-02
  3.77607174198055645E-02  3.86958888385659158E-02  3.96536833963455904E-02
  4.06346209136212236E-02  4.16392317349723734E-02  4.26680568662542448E-02
  4.37216481090648146E-02  4.48005681921545690E-02  4.59053908994068935E-02
  4.70367011939953686E-02  4.81950953383010819E-02  4.93811810091494552E-02
  5.05955774079017290E-02  5.18389153649091647E-02  5.31118374378126284E-02
  5.44149980031404246E-02  5.57490633406290056E-02  5.71147117096602319E-02
  5.85126334171764129E-02  5.99435308764022096E-02  6.14081186556703559E-02
  6.29071235166074466E-02  6.44412844409017471E-02  6.60113526448368182E-02
  6.76180915807346322E-02  6.92622769244103376E-02  7.09446965476984437E-02
  7.26661504750659298E-02  7.44274508232826565E-02  7.62294217230713028E-02
  7.80728992216118689E-02  7.99587311647253635E-02  8.18877770575087427E-02
  8.38609079021425674E-02  8.58790060115363768E-02  8.79429647974220158E-02
  9.00536885314487529E-02  9.22120920777739356E-02  9.44191005955854895E-02
  9.66756492099298814E-02  9.89826826491584238E-02  1.01341154847241918E-01
  1.03752028509138977E-01  1.06216274637339694E-01  1.08734872017641010E-01
  1.11308806662142240E-01  1.13939071207385778E-01  1.16626664265509772E-01
  1.19372589726195993E-01  1.22177856007141830E-01  1.25043475250719488E-01
  1.27970462464420343E-01  1.30959834602621006E-01  1.34012609587145060E-01
  1.37129805264035620E-01  1.40312438293900416E-01  1.43561522973132322E-01
  1.46878069983263665E-01  1.50263085065663743E-01  1.53717567618748580E-01
  1.57242509214835902E-01  1.60838892033749736E-01  1.64507687210254522E-01
  1.68249853092384882E-01  1.72066333407729644E-01  1.75958055334732466E-01
  1.79925927476083880E-01  1.83970837731306985E-01  1.88093651065674605E-01
  1.92295207172649224E-01  1.96576318027106123E-01  2.00937765326680590E-01
  2.05380297818685609E-01  2.09904628510179991E-01  2.14511431758893700E-01
  2.19201340242891896E-01  2.23974941807053352E-01  2.28832776184666381E-01
  2.33775331592683266E-01  2.38803041199467769E-01  2.43916279464177349E-01
  2.49115358347275689E-01  2.54400523392064537E-01  2.59771949677546410E-01
  2.65229737643414287E-01  2.70773908788476902E-01  2.76404401244398690E-01
  2.82121065227261103E-01  2.87923658370113467E-01  2.93811840940429947E-01
  2.99785170947166280E-01  3.05843099142972363E-01  3.11984963928036763E-01
  3.18209986163018821E-01  3.24517263899590958E-01  3.30905767038237764E-01
  3.37374331924162607E-01  3.43921655893445199E-01  3.50546291782971642E-01
  3.57246642418991511E-01  3.64020955100788024E-01  3.70867316097532151E-01
  3.77783645178047967E-01  3.84767690194968259E-01  3.91817021746618255E-01
  3.98929027941867798E-01  4.06100909295176116E-01  4.13329673781115847E-01
  4.20612132079766776E-01  4.27944893046548425E-01  4.35324359442271602E-01
  4.42746723961441824E-01  4.50207965599127513E-01  4.57703846398988867E-01
  4.65229908627343980E-01  4.72781472420411075E-01  4.80353633954062775E-01
  4.87941264187585488E-01  4.95539008234963940E-01  5.03141285419141049E-01
  5.10742290066446780E-01  5.18335993099952375E-01  5.25916144491823778E-01
  5.33476276635876157E-01  5.41009708702244407E-01  5.48509552035519321E-01
  5.55968716658970741E-01  5.63379918946096292E-01  5.70735690519459826E-01
  5.78028388434975948E-01  5.85250206707149445E-01  5.92393189227315986E-01
  5.99449244122571168E-01  6.06410159597676968E-01  6.13267621295770171E-01
  6.20013231205999049E-01  6.26638528137203110E-01  6.33135009766342960E-01
  6.39494156258403557E-01  6.45707455440907463E-01  6.51766429500795885E-01
  6.57662663154218508E-01  6.63387833220559830E-01  6.68933739510771730E-01
  6.74292336916641144E-01  6.79455768561949225E-01  6.84416399848502111E-01
  6.89166853199689289E-01  6.93700043271526456E-01  6.98009212366655474E-01
  7.02087965747471010E-01  7.05930306505974325E-01  7.09530669607687736E-01
  7.12883954681084342E-01  7.15985557078986479E-01  7.18831396691334334E-01
  7.21417943940540485E-01  7.23742242341776310E-01  7.25801926961518906E-01
  7.27595238059170701E-01  7.29121029149258026E-01  7.30378768676508749E-01
  7.31368534453977981E-01  7.32090999976454437E-01  7.32547411688907912E-01
  7.32739556264161984E-01  7.32669716926865999E-01  7.32340617853925568E-01
  7.31755355686770970E-01  7.30917317210233675E-01  7.29830082288611126E-01
  7.28497311204108100E-01  7.26922615618775581E-01  7.25109412480959281E-01
  7.23060760322995821E-01  7.20779177552721584E-01  7.18266442536942717E-01
  7.15523375487918556E-01  7.12549602430247231E-01  7.09343301827629946E-01
  7.05900934793360801E-01  7.02216960203456919E-01  6.98283536559486162E-01
  6.94091231381695040E-01  6.89639473043903051E-01  6.84934133258935707E-01
  6.79981369784599998E-01  6.74787520012757214E-01  6.69359089981034105E-01
  6.63702743397424189E-01  6.57825290672078733E-01  6.51733677981101267E-01
  6.45434976387689652E-01  6.38936371044302120E-01  6.32245150497620645E-01
  6.25368696116144762E-01  6.18314471658342635E-01  6.11090012997322241E-01
  6.03702918016089551E-01  5.96160836685418860E-01  5.88471461333666013E-01
  5.80642517120360302E-01  5.72681752718611103E-01  5.64596931210598840E-01
  5.56395821200783014E-01  5.48086188149211173E-01  5.39675785925992413E-01
  5.31172348586851251E-01  5.22583582368320032E-01  5.13917157901610966E-01
  5.05180702640179113E-01  4.96381793499035884E-01  4.87527949701187679E-01
  4.78626625826424290E-01  4.69685205057632726E-01  4.60710992619491999E-01
  4.51711209404392189E-01  4.42692985780406334E-01  4.33663355576310028E-01
  4.24629250238914124E-01  4.15597493158260112E-01  4.06574794156707886E-01
  3.97567744138394852E-01  3.88582809896160619E-01  3.79626329073603663E-01
  3.70704505280029906E-01  3.61823403358739637E-01  3.52988944808537264E-01
  3.44206903357552607E-01  3.35482900691466801E-01  3.26822402338360241E-01
  3.18230713713110791E-01  3.09712976325019096E-01  3.01274164153073565E-01
  2.92919080193937476E-01  2.84652353188404539E-01  2.76478434532622441E-01
  2.68401595380955704E-01  2.60425923947786464E-01  2.52555323015956901E-01
  2.44793507659861631E-01  2.37144003191418540E-01  2.29610143337315054E-01
  2.22195068655925781E-01  2.14901725202291144E-01  2.07732863449399424E-01
  2.00691037473766543E-01  1.93778604412986888E-01  1.86997724202492110E-01
  1.80350359598255211E-01  1.73838276491539989E-01  1.67463044521231119E-01
  1.61226037988234872E-01  1.55128437075649689E-01  1.49171229377622006E-01
  1.43355211738720401E-01  1.37680992404614955E-01  1.32148993483693050E-01
  1.26759453718121445E-01  1.21512431561625958E-01  1.16407808560063469E-01
  1.11445293029604695E-01  1.06624424026070655E-01  1.01944575597744599E-01
  9.74049613126891090E-02  9.30046390504059295E-02  8.87425160464454382E-02
  8.46173541774171839E-02  8.06277754727438012E-02  7.67722678384149954E-02
  7.30491909770177583E-02  6.94567824873763978E-02  6.59931641263010599E-02
  6.26563482141693218E-02  5.94442441653924708E-02  5.63546651245053903E-02
  5.33853346879915869E-02  5.05338936899640129E-02  4.77979070326836897E-02
  4.51748705409144094E-02  4.26622178191717744E-02  4.02573270911697687E-02
  3.79575280009482527E-02  3.57601083554853899E-02  3.36623207889944417E-02
  3.16613893296248047E-02  2.97545158499075701E-02  2.79388863829904445E-02
  2.62116772875132381E-02  2.45700612448531246E-02  2.30112130734366239E-02
  2.15323153458440615E-02  2.01305637955180271E-02  1.88031725010431999E-02
  1.75473788371416466E-02  1.63604481827661283E-02  1.52396783779180350E-02
  1.41824039220906552E-02  1.31859999085249639E-02  1.22478856897394253E-02
  1.13655282712380751E-02  1.05364454317092657E-02  9.75820856724252811E-03
  9.02844526158593300E-03  8.34484158399675241E-03  7.70514411716265342E-03
  7.10716171900982116E-03  6.54876702323977430E-03  6.02789768439480553E-03
  5.54255737415141041E-03  5.09081653636989703E-03  4.67081290918624180E-03
  4.28075182312106887E-03  3.91890628478998564E-03  3.58361685633776109E-03
  3.27329134117770827E-03  2.98640428700324301E-03  2.72149631734763548E-03
  2.47717330320322343E-03  2.25210538637409322E-03  2.04502586632944244E-03
  1.85472996235021064E-03  1.68007346272070466E-03  1.51997127261732385E-03
  1.37339587218547349E-03  1.23937569612564717E-03  1.11699344597496458E-03
  1.00538434508716024E-03  9.03734347228056316E-04  8.11278308838978284E-04
  7.27298134347027564E-04  6.51120903611608431E-04  5.82116990122463979E-04
  5.19698178069022713E-04  4.63315785889474162E-04  4.12458803385734065E-04
  3.66652048959448555E-04  3.25454352990222316E-04  2.88456772842328305E-04
  2.55280844454796165E-04  2.25576874944673553E-04  1.99022280137239123E-04
  1.75319970433386000E-04  1.54196787934989823E-04  1.35401997276732576E-04
  1.18705832159086413E-04  1.03898099143997266E-04  9.07868398635913059E-05
                              </PP_PSWFC.3>
 <PP_PSWFC.4 type="real" size="   999" l="1" columns="3" label= "0P">
  9.17794405652670060E-09  9.41028481537583441E-09  9.64850730848115166E-09
  9.89276043265130631E-09  1.01431968540354975E-08  1.03999731035447206E-08
  1.06632496746887062E-08  1.09331911238895012E-08  1.12099661733346054E-08
  1.14937478164339422E-08  1.17847134259461898E-08  1.20830448648425649E-08
  1.23889285999771447E-08  1.27025558186346408E-08  1.30241225480286812E-08
  1.33538297778251195E-08  1.36918835857672165E-08  1.40384952664808090E-08
  1.43938814635403270E-08  1.47582643048782154E-08  1.51318715416218456E-08
  1.55149366904454898E-08  1.59076991795258498E-08  1.63104044981923523E-08
  1.67233043503660312E-08  1.71466568118825631E-08  1.75807264917980518E-08
  1.80257846977782438E-08  1.84821096056746888E-08  1.89499864333936617E-08
  1.94297076191664816E-08  1.99215730043330641E-08  2.04258900207522428E-08
  2.09429738829568113E-08  2.14731477851729006E-08  2.20167431033265999E-08
  2.25740996021648834E-08  2.31455656476193698E-08  2.37314984245463060E-08
  2.43322641599790041E-08  2.49482383520311571E-08  2.55798060045956922E-08
  2.62273618679843897E-08  2.68913106856596003E-08  2.75720674472123413E-08
  2.82700576477437461E-08  2.89857175538136607E-08  2.97194944761210991E-08
  3.04718470490879588E-08  3.12432455175205732E-08  3.20341720305274870E-08
  3.28451209428786883E-08  3.36765991239929368E-08  3.45291262747477673E-08
  3.54032352523092856E-08  3.62994724031849941E-08  3.72183979047080165E-08
  3.81605861151661866E-08  3.91266259327942720E-08  4.01171211638547484E-08
  4.11326909000356920E-08  4.21739699054033221E-08  4.32416090131500629E-08
  4.43362755323860939E-08  4.54586536652293975E-08  4.66094449344534905E-08
  4.77893686219623603E-08  4.89991622183646699E-08  5.02395818839289156E-08
  5.15114029212081911E-08  5.28154202596289805E-08  5.41524489523479265E-08
  5.55233246856859071E-08  5.69289043014589024E-08  5.83700663325323308E-08
  5.98477115519316495E-08  6.13627635358539061E-08  6.29161692409334760E-08
  6.45088995961203243E-08  6.61419501095415845E-08  6.78163414907253577E-08
  6.95331202885775903E-08  7.12933595455088128E-08  7.30981594681194335E-08
  7.49486481148647866E-08  7.68459821011269058E-08  7.87913473221368690E-08
  8.07859596941972237E-08  8.28310659146678596E-08  8.49279442411924463E-08
  8.70779052906496084E-08  8.92822928583309031E-08  9.15424847578556068E-08
  9.38598936823476569E-08  9.62359680874144010E-08  9.86721930964772747E-08
  1.01170091429021961E-07  1.03731224352344923E-07  1.06357192657395875E-07
  1.09049637659324140E-07  1.11810242223350542E-07  1.14640731816613272E-07
  1.17542875586639461E-07  1.20518487467117376E-07  1.23569427311663205E-07
  1.26697602056287615E-07  1.29904966911293294E-07  1.33193526583340813E-07
  1.36565336528453989E-07  1.40022504236745983E-07  1.43567190549664963E-07
  1.47201611010590283E-07  1.50928037249616125E-07  1.54748798403390905E-07
  1.58666282570902552E-07  1.62682938306112322E-07  1.66801276148381042E-07
  1.71023870191634152E-07  1.75353359693247922E-07  1.79792450723674554E-07
  1.84343917857812463E-07  1.89010605909206430E-07  1.93795431708146991E-07
  1.98701385924776854E-07  2.03731534938352619E-07  2.08889022753828895E-07
  2.14177072966957668E-07  2.19598990779134651E-07  2.25158165063254938E-07
  2.30858070481864289E-07  2.36702269658924182E-07  2.42694415406568019E-07
  2.48838253008215703E-07  2.55137622559497975E-07  2.61596461368429355E-07
  2.68218806416344022E-07  2.75008796881135498E-07  2.81970676724372617E-07
  2.89108797343898503E-07  2.96427620293591265E-07  3.03931720071966607E-07
  3.11625786981382966E-07  3.19514630059620896E-07  3.27603180085671443E-07
  3.35896492661630740E-07  3.44399751372597601E-07  3.53118271026571321E-07
  3.62057500976367081E-07  3.71223028525620033E-07  3.80620582421022885E-07
  3.90256036432958743E-07  4.00135413026785265E-07  4.10264887127052310E-07
  4.20650789977008249E-07  4.31299613095819679E-07  4.42218012335961894E-07
  4.53412812043314583E-07  4.64891009322584964E-07  4.76659778410696547E-07
  4.88726475160904265E-07  5.01098641640404660E-07  5.13784010844355238E-07
  5.26790511529212178E-07  5.40126273168430000E-07  5.53799631033626395E-07
  5.67819131404349848E-07  5.82193536909759406E-07  5.96931832005503187E-07
  6.12043228589268040E-07  6.27537171758466204E-07  6.43423345713694117E-07
  6.59711679811615772E-07  6.76412354771092866E-07  6.93535809036409386E-07
  7.11092745301599106E-07  7.29094137199910838E-07  7.47551236162627868E-07
  7.66475578451518660E-07  7.85878992369313025E-07  8.05773605652711038E-07
  8.26171853052533715E-07  8.47086484105778640E-07  8.68530571104410644E-07
  8.90517517265893703E-07  9.13061065110541926E-07  9.36175305050959750E-07
  9.59874684198909147E-07  9.84174015395114516E-07  1.00908848646767564E-06
  1.03463366972482374E-06  1.06082553168804766E-06  1.08768044307149771E-06
  1.11521518901414362E-06  1.14344697957086123E-06  1.17239346046914739E-06
  1.20207272413812444E-06  1.23250332101673179E-06  1.26370427114817402E-06
  1.29569507606793106E-06  1.32849573099260513E-06  1.36212673731747235E-06
  1.39660911543021675E-06  1.43196441784922613E-06  1.46821474269434476E-06
  1.50538274749870929E-06  1.54349166337015621E-06  1.58256530951120317E-06
  1.62262810810651888E-06  1.66370509958729159E-06  1.70582195828203896E-06
  1.74900500846354160E-06  1.79328124080205716E-06  1.83867832923499989E-06
  1.88522464826369556E-06  1.93294929068795383E-06  1.98188208578961147E-06
  2.03205361797639709E-06  2.08349524589768853E-06  2.13623912204423271E-06
  2.19031821284397475E-06  2.24576631926665663E-06  2.30261809794993611E-06
  2.36090908286031044E-06  2.42067570750247904E-06  2.48195532769069180E-06
  2.54478624489678326E-06  2.60920773018905333E-06  2.67526004877723527E-06
  2.74298448517881562E-06  2.81242336902224936E-06  2.88362010150368283E-06
  2.95661918251299334E-06  3.03146623844682072E-06  3.10820805072547644E-06
  3.18689258503187812E-06  3.26756902129047007E-06  3.35028778440507495E-06
  3.43510057577490938E-06  3.52206040560839239E-06  3.61122162605477564E-06
  3.70263996517457386E-06  3.79637256177005637E-06  3.89247800109705868E-06
  3.99101635148115295E-06  4.09204920186047200E-06  4.19563970027904031E-06
  4.30185259335430682E-06  4.41075426674389662E-06  4.52241278663666099E-06
  4.63689794229410590E-06  4.75428128966832143E-06  4.87463619612455990E-06
  4.99803788629556690E-06  5.12456348909638307E-06  5.25429208592996320E-06
  5.38730476011225429E-06  5.52368464754885029E-06  5.66351698869429964E-06
  5.80688918182647787E-06  5.95389083766977222E-06  6.10461383540074343E-06
  6.25915238007158253E-06  6.41760306148680525E-06  6.58006491457069639E-06
  6.74663948126250852E-06  6.91743087397833376E-06  7.09254584067974194E-06
  7.27209383158891699E-06  7.45618706759299470E-06  7.64494061037945974E-06
  7.83847243434711257E-06  8.03690350033706201E-06  8.24035783123022180E-06
  8.44896258945785227E-06  8.66284815647469767E-06  8.88214821424307456E-06
  9.10699982877998353E-06  9.33754353581854217E-06  9.57392342863773259E-06
  9.81628724811548346E-06  1.00647864750606737E-05  1.03195764248826306E-05
  1.05808163446562756E-05  1.08486695126446500E-05  1.11233033403401275E-05
  1.14048894770881648E-05  1.16936039173597204E-05  1.19896271107382687E-05
  1.22931440746906652E-05  1.26043445101928021E-05  1.29234229202810878E-05
  1.32505787316046687E-05  1.35860164190546010E-05  1.39299456335466006E-05
  1.42825813330383530E-05  1.46441439168629620E-05  1.50148593634616940E-05
  1.53949593716034018E-05  1.57846815051772865E-05  1.61842693416507786E-05
  1.65939726242845976E-05  1.70140474181997481E-05  1.74447562703949285E-05
  1.78863683738131710E-05  1.83391597355610296E-05  1.88034133493849793E-05
  1.92794193725125091E-05  1.97674753069690921E-05  2.02678861854832252E-05
  2.07809647620969231E-05  2.13070317075993328E-05  2.18464158099061675E-05
  2.23994541795104071E-05  2.29664924601321926E-05  2.35478850446987766E-05
  2.41439952967911469E-05  2.47551957776927459E-05  2.53818684791860005E-05
  2.60244050622377970E-05  2.66832071017260868E-05  2.73586863373582824E-05
  2.80512649309396500E-05  2.87613757301518572E-05  2.94894625390044648E-05
  3.02359803951324895E-05  3.10013958541076348E-05  3.17861872809454280E-05
  3.25908451489869793E-05  3.34158723463444501E-05  3.42617844900986444E-05
  3.51291102484466925E-05  3.60183916710022579E-05  3.69301845274496224E-05
  3.78650586547677468E-05  3.88235983132394043E-05  3.98064025514661580E-05
  4.08140855806183358E-05  4.18472771581544331E-05  4.29066229812445456E-05
  4.39927850901523549E-05  4.51064422818145571E-05  4.62482905338905130E-05
  4.74190434395322120E-05  4.86194326531563264E-05  4.98502083474917373E-05
  5.11121396821871777E-05  5.24060152842731344E-05  5.37326437407765998E-05
  5.50928541037955222E-05  5.64874964083490408E-05  5.79174422033253838E-05
  5.93835850958571778E-05  6.08868413094678851E-05  6.24281502563304959E-05
  6.40084751240027372E-05  6.56288034769974350E-05  6.72901478735682363E-05
  6.89935464980913501E-05  7.07400638094403877E-05  7.25307912057560213E-05
  7.43668477060245836E-05  7.62493806488908878E-05  7.81795664091437472E-05
  8.01586111323105159E-05  8.21877514878310606E-05  8.42682554412723826E-05
  8.64014230460617385E-05  8.85885872552432671E-05  9.08311147537478435E-05
  9.31304068117088291E-05  9.54879001593424262E-05  9.79050678839468280E-05
  1.00383420349571900E-04  1.02924506139935321E-04  1.05529913025169072E-04
  1.08201268952999482E-04  1.10940243064973346E-04  1.13748546738375150E-04
  1.16627934654459398E-04  1.19580205893688875E-04  1.22607205058637009E-04
  1.25710823425271342E-04  1.28893000123315408E-04  1.32155723346437528E-04
  1.35501031593013093E-04  1.38931014938221113E-04  1.42447816338285978E-04
  1.46053632967657664E-04  1.49750717589958599E-04  1.53541379963566428E-04
  1.57427988282687724E-04  1.61412970654820970E-04  1.65498816615531686E-04
  1.69688078681468790E-04  1.73983373942602175E-04  1.78387385694641818E-04
  1.82902865112683101E-04  1.87532632967086832E-04  1.92279581382675055E-04
  1.97146675642326984E-04  2.02136956036091389E-04  2.07253539756955185E-04
  2.12499622844463477E-04  2.17878482177357005E-04  2.23393477516500795E-04
  2.29048053599337269E-04  2.34845742287173207E-04  2.40790164766628377E-04
  2.46885033806592473E-04  2.53134156072117652E-04  2.59541434496628740E-04
  2.66110870713965404E-04  2.72846567551713291E-04  2.79752731587402828E-04
  2.86833675769122365E-04  2.94093822102178587E-04  3.01537704403452989E-04
  3.09169971125164314E-04  3.16995388249750420E-04  3.25018842257688830E-04
  3.33245343170053055E-04  3.41680027667691077E-04  3.50328162288941845E-04
  3.59195146707862038E-04  3.68286517094962448E-04  3.77607949562545583E-04
  3.87165263696728811E-04  3.96964426178341345E-04  4.07011554494924460E-04
  4.17312920746084823E-04  4.27874955544550837E-04  4.38704252015336869E-04
  4.49807569895423968E-04  4.61191839736506360E-04  4.72864167213352192E-04
  4.84831837540432428E-04  4.97102319999481691E-04  5.09683272580788919E-04
  5.22582546741053098E-04  5.35808192280674378E-04  5.49368462343473893E-04
  5.63271818541910096E-04  5.77526936210853606E-04  5.92142709793183901E-04
  6.07128258360421780E-04  6.22492931271816704E-04  6.38246313975241830E-04
  6.54398233953503100E-04  6.70958766819602535E-04  6.87938242564681149E-04
  7.05347251962388827E-04  7.23196653133629705E-04  7.41497578275518107E-04
  7.60261440558776449E-04  7.79499941197548405E-04  7.99225076696057470E-04
  8.19449146276379336E-04  8.40184759491751179E-04  8.61444844030156585E-04
  8.83242653712685882E-04  9.05591776691580161E-04  9.28506143852818387E-04
  9.52000037428303450E-04  9.76088099822782699E-04  1.00078534266072718E-03
  1.02610715605866497E-03  1.05206931812837205E-03  1.07868800471662917E-03
  1.10597979938735469E-03  1.13396170365196347E-03  1.16265114745406524E-03
  1.19206599991465690E-03  1.22222458034420222E-03  1.25314566952806753E-03
  1.28484852129191968E-03  1.31735287435395918E-03  1.35067896447083795E-03
  1.38484753688453447E-03  1.41987985907726872E-03  1.45579773384203401E-03
  1.49262351267636035E-03  1.53038010950701416E-03  1.56909101475365240E-03
  1.60878030973960156E-03  1.64947268145804941E-03  1.69119343770215698E-03
  1.73396852256783971E-03  1.77782453233811337E-03  1.82278873175806613E-03
  1.86888907070981440E-03  1.91615420129691077E-03  1.96461349534791160E-03
  2.01429706234911195E-03  2.06523576781650776E-03  2.11746125211735537E-03
  2.17100594975203499E-03  2.22590310910684335E-03  2.28218681268895981E-03
  2.33989199785476993E-03  2.39905447804302169E-03  2.45971096452472435E-03
  2.52189908868170540E-03  2.58565742482605877E-03  2.65102551357308033E-03
  2.71804388578043496E-03  2.78675408706657119E-03  2.85719870292165017E-03
  2.92942138442466330E-03  3.00346687458037751E-03  3.07938103529048837E-03
  3.15721087497301866E-03  3.23700457684493502E-03  3.31881152788273586E-03
  3.40268234847636818E-03  3.48866892279163596E-03  3.57682442985767001E-03
  3.66720337539448282E-03  3.75986162439796538E-03  3.85485643449841320E-03
  3.95224649010973966E-03  4.05209193738672972E-03  4.15445442000769369E-03
  4.25939711580050791E-03  4.36698477423028662E-03  4.47728375476698272E-03
  4.59036206615166462E-03  4.70628940658068904E-03  4.82513720482694031E-03
  4.94697866231789008E-03  5.07188879619025444E-03  5.19994448334160000E-03
  5.33122450549941215E-03  5.46580959532808920E-03  5.60378248359528000E-03
  5.74522794741879131E-03  5.89023285961516596E-03  6.03888623917269232E-03
  6.19127930286975277E-03  6.34750551806165936E-03  6.50766065665827394E-03
  6.67184285031479241E-03  6.84015264685916904E-03  7.01269306797874890E-03
  7.18956966818981753E-03  7.37089059511306620E-03  7.55676665107906514E-03
  7.74731135608688545E-03  7.94264101213998722E-03  8.14287476898273473E-03
  8.34813469126259415E-03  8.55854582714003775E-03  8.77423627837163427E-03
  8.99533727188986561E-03  9.22198323290235496E-03  9.45431185953559544E-03
  9.69246419904607089E-03  9.93658472562134257E-03  1.01868214197956934E-02
  1.04433258495017067E-02  1.07062532527810415E-02  1.09757626221757901E-02
  1.12520167908229784E-02  1.15351825202721983E-02  1.18254305900475348E-02
  1.21229358889735125E-02  1.24278775082843126E-02  1.27404388365339391E-02
  1.30608076563261330E-02  1.33891762428785394E-02  1.37257414644386955E-02
  1.40707048845641561E-02  1.44242728662810557E-02  1.47866566781320891E-02
  1.51580726021231845E-02  1.55387420435795700E-02  1.59288916429142675E-02
  1.63287533893175657E-02  1.67385647363670030E-02  1.71585687195598344E-02
  1.75890140757653662E-02  1.80301553645930215E-02  1.84822530916672854E-02
  1.89455738338016287E-02  1.94203903660550639E-02  1.99069817906558089E-02
  2.04056336677724826E-02  2.09166381481044328E-02  2.14402941072666664E-02
  2.19769072819339002E-02  2.25267904077059052E-02  2.30902633586513202E-02
  2.36676532884817006E-02  2.42592947733017393E-02  2.48655299558737039E-02
  2.54867086913327795E-02  2.61231886942751221E-02  2.67753356871424306E-02
  2.74435235498090707E-02  2.81281344702809209E-02  2.88295590963931897E-02
  2.95481966883981567E-02  3.02844552723155781E-02  3.10387517939089280E-02
  3.18115122731443337E-02  3.26031719589718327E-02  3.34141754842611077E-02
  3.42449770207049267E-02  3.50960404334981838E-02  3.59678394355746472E-02
  3.68608577411812591E-02  3.77755892185414818E-02  3.87125380413496575E-02
  3.96722188388175662E-02  4.06551568439751376E-02  4.16618880399084457E-02
  4.26929593035956859E-02  4.37489285469793224E-02  4.48303648548898578E-02
  4.59378486194101932E-02  4.70719716702481875E-02  4.82333374006462742E-02
  4.94225608883454917E-02  5.06402690110715065E-02  5.18871005559928683E-02
  5.31637063225593107E-02  5.44707492180964842E-02  5.58089043454946393E-02
  5.71788590822878903E-02  5.85813131503856929E-02  6.00169786756620388E-02
  6.14865802365784017E-02  6.29908549009565027E-02  6.45305522499683842E-02
  6.61064343883650957E-02  6.77192759399042193E-02  6.93698640268738259E-02
  7.10589982325655206E-02  7.27874905454639759E-02  7.45561652838725442E-02
  7.63658589996103199E-02  7.82174203593513084E-02  8.01117100020939943E-02
  8.20496003711693733E-02  8.40319755191178547E-02  8.60597308836708180E-02
  8.81337730329716934E-02  9.02550193780981003E-02  9.24243978508136194E-02
  9.46428465444080352E-02  9.69113133153377965E-02  9.92307553432939249E-02
  1.01602138647183801E-01  1.04026437554394877E-01  1.06504634120571845E-01
  1.09037717497022096E-01  1.11626683242676453E-01  1.14272532577438496E-01
  1.16976271573554710E-01  1.19738910281503699E-01  1.22561461786714357E-01
  1.25444941193267240E-01  1.28390364530531376E-01  1.31398747578505420E-01
  1.34471104607448849E-01  1.37608447027148556E-01  1.40811781940994779E-01
  1.44082110599782071E-01  1.47420426749944600E-01  1.50827714870685692E-01
  1.54304948294206878E-01  1.57853087203004838E-01  1.61473076497935575E-01
  1.65165843530450246E-01  1.68932295692134860E-01  1.72773317854396563E-01
  1.76689769650827055E-01  1.80682482594465038E-01  1.84752257021864152E-01
  1.88899858855507946E-01  1.93126016175825643E-01  1.97431415593638859E-01
  2.01816698413575357E-01  2.06282456578551765E-01  2.10829228385106454E-01
  2.15457493958899127E-01  2.20167670479359423E-01  2.24960107142022220E-01
  2.29835079846645585E-01  2.34792785598849946E-01  2.39833336612485154E-01
  2.44956754099588003E-01  2.50162961734247402E-01  2.55451778776308258E-01
  2.60822912840346144E-01  2.66275952294901364E-01  2.71810358276445285E-01
  2.77425456302119955E-01  2.83120427464820912E-01  2.88894299193703963E-01
  2.94745935562732597E-01  3.00674027129342492E-01  3.06677080284936288E-01
  3.12753406098443376E-01  3.18901108633624752E-01  3.25118072720536555E-01
  3.31401951160990138E-01  3.37750151347504579E-01  3.44159821274878319E-01
  3.50627834923084358E-01  3.57150776989869967E-01  3.63724926951184913E-01
  3.70346242427191830E-01  3.77010341831441165E-01  3.83712486280562259E-01
  3.90447560741690958E-01  3.97210054394719736E-01  4.03994040186456405E-01
  4.10793153553759449E-01  4.17600570292790574E-01  4.24408983551768759E-01
  4.31210579924742543E-01  4.37997014624286307E-01  4.44759385711441024E-01
  4.51488207361729177E-01  4.58173382146760955E-01  4.64804172311622021E-01
  4.71369170029114548E-01  4.77856266612990299E-01  4.84252620673381151E-01
  4.90544625199048567E-01  4.96717873552376343E-01  5.02757124364797692E-01
  5.08646265322047264E-01  5.14368275830645594E-01  5.19905188559243614E-01
  5.25238049850683675E-01  5.30346879003442573E-01  5.35210626423662128E-01
  5.39807130652218303E-01  5.44113074274385045E-01  5.48103938723097706E-01
  5.51753957990789856E-01  5.55036071268325659E-01  5.57921874534156759E-01
  5.60381571120959876E-01  5.62383921291868760E-01  5.63896190863308555E-01
  5.64884098916481503E-01  5.65311764645103465E-01  5.65141653392678300E-01
  5.64334521937606137E-01  5.62849363091194155E-01  5.60643349679841752E-01
  5.57671777988330786E-01  5.53888010748055160E-01  5.49243419760264140E-01
  5.43687328250912150E-01  5.37166953060281505E-01  5.29627346777234997E-01
  5.21011339933889372E-01  5.11259483383377122E-01  5.00309990989052489E-01
  4.88098682759394498E-01  4.74558928568638960E-01  4.59621592607852070E-01
  4.43214978716491070E-01  4.25264776747881379E-01  4.05694010126376958E-01
  3.84422984756263242E-01  3.61369239444971346E-01  3.36447498004340595E-01
  3.09569623194297872E-01  2.80644572672620773E-01  2.49578357113464766E-01
  2.16274000655055282E-01  1.80631503834218915E-01  1.42547809155559008E-01
  1.01916769446911595E-01  5.86291191415207469E-02  1.25724486214235688E-02
 -3.63688182504183985E-02 -8.83134432890166493E-02 -1.43383389724052596E-01
 -2.01703834407896354E-01 -2.63403176393874672E-01 -3.28613041787554294E-01
 -3.97468284775308822E-01 -4.70106984732160171E-01 -5.46670439304772215E-01
 -6.27303153353181098E-01 -7.12152823615700536E-01 -8.01370318933546155E-01
 -8.95109655833065010E-01 -9.93527969211747242E-01 -1.09678547780793179E+00
 -1.20504544404867620E+00 -1.31847412776474759E+00 -1.43724073313072243E+00
 -1.56151734802962450E+00 -1.69147887484936255E+00 -1.82730295148669764E+00
 -1.96916986107301017E+00 -2.11726242861284542E+00 -2.27176590234592979E+00
 -2.43286781722277690E+00 -2.60075783738477773E+00 -2.77562757396991788E+00
 -2.95767037391701315E+00 -3.14708107470638065E+00 -3.34405571914617772E+00
 -3.54879122338544795E+00 -3.76148499029893424E+00 -3.98233445923997254E+00
 -4.21153658189163416E+00 -4.44928721255620552E+00 -4.69578039970931371E+00
 -4.95120756400398765E+00 -5.21575654614484030E+00 -5.48961050616640822E+00
 -5.77294665365098325E+00 -6.06593478632091188E+00 -6.36873561225585494E+00
 -6.68149882873747281E+00 -7.00436092844418212E+00 -7.33744270143904753E+00
 -7.68084639915266276E+00 -8.03465252442893885E+00 -8.39891620983129528E+00
 -8.77366314455184870E+00 -9.15888500894832269E+00 -9.55453437479046030E+00
 -9.96051902891100482E+00 -1.03766956783922826E+01 -1.08028629986450078E+01
 -1.12387700747953971E+01 -1.16842808491459618E+01 -1.21393411980702712E+01
 -1.26038830368292931E+01 -1.30778220187847722E+01 -1.35610567040436418E+01
 -1.40534677047484706E+01 -1.45549168068050925E+01 -1.50652460686893566E+01
 -1.55842768981947959E+01 -1.61118091081576225E+01 -1.66476199523843498E+01
 -1.71914631432034426E+01 -1.77430678522683536E+01 -1.83021376964607256E+01
 -1.88683497109704454E+01 -1.94413533118724686E+01 -2.00207692507773771E+01
 -2.06061885643729248E+01 -2.11971715219692776E+01 -2.17932465744487125E+01
 -2.23939093083026570E+01 -2.29986214087510490E+01 -2.36068096362549475E+01
 -2.42178648210582850E+01 -2.48311408807239182E+01 -2.54459538660195896E+01
 -2.60615810407578472E+01 -2.66772600016794783E+01 -2.72921878447700337E+01
 -2.79055203847878417E+01 -2.85163714351696207E+01 -2.91238121558718746E+01
 -2.97268704770956589E+01 -3.03245306072453111E+01 -3.09157326338708778E+01
 -3.14993722267466758E+01 -3.20743004526453745E+01 -3.26393237117660391E+01
 -3.31932038061794827E+01 -3.37346581510470784E+01 -3.42623601397641693E+01
 -3.47749396746067561E+01 -3.52709838747085342E+01 -3.57490379735988526E+01
 -3.62076064190140698E+01 -3.66451541878805145E+01 -3.70601083297051943E+01
 -3.74508597518944981E+01 -3.78157652607703483E+01 -3.81531498722694309E+01
 -3.84613094064893986E+01 -3.87385133803790325E+01 -3.89830082129548501E+01
 -3.91930207574530911E+01 -3.93667621747922709E+01 -3.95024321626152570E+01
 -3.95982235539948917E+01 -3.96523272996141287E+01 -3.96629378468598475E+01
 -3.96282589287899683E+01 -3.95465097753311454E+01 -3.94159317583304016E+01
 -3.92347954812017576E+01 -3.90014083228648616E+01 -3.87141224444505028E+01
 -3.83713432658319604E+01 -3.79715384175107644E+01 -3.75132471713325444E+01
 -3.69950903511807567E+01 -3.64157807231298207E+01 -3.57741338613042572E+01
 -3.50690794827731409E+01 -3.42996732414752969E+01 -3.34651089674347233E+01
 -3.25647313333983561E+01 -3.15980489264648448E+01 -3.05647476972655383E+01
 -2.94647047537653606E+01 -2.82980024607472345E+01 -2.70649427995190095E+01
 -2.57660619352818934E+01 -2.44021449319402954E+01 -2.29742405458585743E+01
 -2.14836760211927036E+01 -1.99320717999230830E+01 -1.83213560495747174E+01
 -1.66537789008560289E+01 -1.49319262760644147E+01 -1.31587331771379006E+01
 -1.13374962896877438E+01 -9.47188574628331281E+00 -7.56595587875813713E+00
 -5.62415477530328545E+00 -3.65133244394562206E+00 -1.65274736991600513E+00
  3.65928760275223253E-01  2.39860840942762366E+00  4.43878787015936727E+00
  6.47954954393479898E+00  8.51356709969575753E+00  1.05331138045518333E+01
  1.25300743288584489E+01  1.44959603360170011E+01  1.64219301730521501E+01
  1.82988129809631381E+01  2.01171375435121682E+01  2.18671661889116251E+01
  2.35389340502137507E+01  2.51222939764336104E+01  2.66069673668264635E+01
  2.79826011746090764E+01  2.92388312929386558E+01  3.03653524944139477E+01
  3.13519950449025586E+01  3.21888080523426083E+01  3.28661495405499480E+01
  3.33747831566508637E+01  3.37059813277363460E+01  3.38516345701656860E+01
  3.38043665439610521E+01  3.35576543088320065E+01  3.31059530914256257E+01
  3.24448247145288917E+01  3.15710686663693814E+01  3.04828546031755501E+01
  2.91798548818309911E+01  2.76633755132703705E+01  2.59364837132060515E+01
  2.40041300074020718E+01  2.18732626271692396E+01  1.95529317109108902E+01
  1.70543806139527021E+01  1.43911214269264978E+01  1.15789916188099014E+01
  8.63618856138389646E+00  5.58327856523936017E+00  2.44317697228060382E+00
 -7.58904184528149339E-01 -3.99554441640638425E+00 -7.23724227201524961E+00
 -1.04525852690769128E+01 -1.36084651671833239E+01 -1.66703411026505677E+01
 -1.96025525949103354E+01 -2.23686838074351542E+01 -2.49319796785398218E+01
 -2.72558136179422803E+01 -2.93042053975843899E+01 -3.10423866428991317E+01
 -3.24374099553285049E+01 -3.34587961741780191E+01 -3.40792126269587072E+01
 -3.42751734396943988E+01 -3.40277511068239278E+01 -3.33232865869832295E+01
 -3.21540832375402275E+01 -3.05190679782162988E+01 -2.84244012433094788E+01
 -2.58840156139846052E+01 -2.29200615978898590E+01 -1.95632379336682867E+01
 -1.58529831419256695E+01 -1.18375049280454157E+01 -7.57362457669813605E+00
                              </PP_PSWFC.4>
                             </PP_FULL_WFC> 
 <PP_RHOATOM type="real" size="   999" columns="3">
 -8.42040183685293048E-09 -8.63356532110724229E-09 -8.85212506449745836E-09
 -9.07621767396577194E-09 -9.30598321467518034E-09 -9.54156529755475393E-09
 -9.78311116906113034E-09 -1.00307718032121349E-08 -1.02847019959505473E-08
 -1.05450604618967148E-08 -1.08120099335500479E-08 -1.10857172630021270E-08
 -1.13663535262248225E-08 -1.16540941299982127E-08 -1.19491189215453747E-08
 -1.22516123009428006E-08 -1.25617633363764959E-08 -1.28797658823154393E-08
 -1.32058187006769855E-08 -1.35401255850597263E-08 -1.38828954881206217E-08
 -1.42343426521773308E-08 -1.45946867431167402E-08 -1.49641529876929223E-08
 -1.53429723143012479E-08 -1.57313814973161509E-08 -1.61296233050825354E-08
 -1.65379466516538377E-08 -1.69566067523715306E-08 -1.73858652833826523E-08
 -1.78259905451958506E-08 -1.82772576303780805E-08 -1.87399485954957976E-08
 -1.92143526374097949E-08 -1.97007662740325098E-08 -2.01994935296607889E-08
 -2.07108461250014065E-08 -2.12351436720060598E-08 -2.17727138736391458E-08
 -2.23238927287030473E-08 -2.28890247418473355E-08 -2.34684631388959771E-08
 -2.40625700876243081E-08 -2.46717169241254752E-08 -2.52962843849078929E-08
 -2.59366628448668002E-08 -2.65932525612819484E-08 -2.72664639239905023E-08
 -2.79567177118941139E-08 -2.86644453559592506E-08 -2.93900892088747471E-08
 -3.01341028215370800E-08 -3.08969512265333067E-08 -3.16791112288019899E-08
 -3.24810717036508273E-08 -3.33033339023196554E-08 -3.41464117652780043E-08
 -3.50108322434546144E-08 -3.58971356275980844E-08 -3.68058758859760765E-08
 -3.77376210106226784E-08 -3.86929533723514710E-08 -3.96724700847559402E-08
 -4.06767833774239064E-08 -4.17065209786009769E-08 -4.27623265075396612E-08
 -4.38448598767823967E-08 -4.49547977046272264E-08 -4.60928337380356996E-08
 -4.72596792862466860E-08 -4.84560636653665725E-08 -4.96827346542150985E-08
 -5.09404589617102021E-08 -5.22300227060854792E-08 -5.35522319062383462E-08
 -5.49079129855173775E-08 -5.62979132882620418E-08 -5.77231016094203028E-08
 -5.91843687375714690E-08 -6.06826280116977255E-08 -6.22188158920487251E-08
 -6.37938925454583285E-08 -6.54088424454793459E-08 -6.70646749877087423E-08
 -6.87624251206925041E-08 -7.05031539927993552E-08 -7.22879496154714297E-08
 -7.41179275432655470E-08 -7.59942315711080501E-08 -7.79180344492028413E-08
 -7.98905386160356032E-08 -8.19129769499343405E-08 -8.39866135396567827E-08
 -8.61127444744836994E-08 -8.82926986543149109E-08 -9.05278386202715563E-08
 -9.28195614063255585E-08 -9.51692994124882728E-08 -9.75785213001042755E-08
 -1.00048732909809026E-07 -1.02581478202723119E-07 -1.05178340225476206E-07
 -1.07840942099658079E-07 -1.10570948036317095E-07 -1.13370064376143730E-07
 -1.16240040655982932E-07 -1.19182670702346812E-07 -1.22199793752609406E-07
 -1.25293295604584715E-07 -1.28465109795206605E-07 -1.31717218809044510E-07
 -1.35051655317415542E-07 -1.38470503448863610E-07 -1.41975900091800407E-07
 -1.45570036230122914E-07 -1.49255158312641276E-07 -1.53033569657174685E-07
 -1.56907631890191529E-07 -1.60879766422894110E-07 -1.64952455964668714E-07
 -1.69128246074850895E-07 -1.73409746753772152E-07 -1.77799634074083182E-07
 -1.82300651853376632E-07 -1.86915613369148979E-07 -1.91647403117177004E-07
 -1.96498978614409342E-07 -2.01473372247496085E-07 -2.06573693168114367E-07
 -2.11803129236274466E-07 -2.17164949012817673E-07 -2.22662503802357025E-07
 -2.28299229747934045E-07 -2.34078649978700128E-07 -2.40004376811966389E-07
 -2.46080114011000450E-07 -2.52309659099973811E-07 -2.58696905737517096E-07
 -2.65245846150357654E-07 -2.71960573628564961E-07 -2.78845285083965669E-07
 -2.85904283673317459E-07 -2.93141981487895083E-07 -3.00562902311157743E-07
 -3.08171684446228822E-07 -3.15973083614952434E-07 -3.23971975930334270E-07
 -3.32173360944236068E-07 -3.40582364772215264E-07 -3.49204243297471687E-07
 -3.58044385455903645E-07 -3.67108316604316757E-07 -3.76401701973905868E-07
 -3.85930350211154317E-07 -3.95700217008373420E-07 -4.05717408826148692E-07
 -4.15988186710011437E-07 -4.26518970203735994E-07 -4.37316341361695049E-07
 -4.48387048862786588E-07 -4.59738012228509532E-07 -4.71376326147804751E-07
 -4.83309264911387792E-07 -4.95544286958334862E-07 -5.08089039537752525E-07
 -5.20951363488472926E-07 -5.34139298139722570E-07 -5.47661086335865760E-07
 -5.61525179588339352E-07 -5.75740243358006972E-07 -5.90315162471233156E-07
 -6.05259046673059092E-07 -6.20581236320954071E-07 -6.36291308222704095E-07
 -6.52399081622077454E-07 -6.68914624336019523E-07 -6.85848259047196677E-07
 -7.03210569755837788E-07 -7.21012408394897105E-07 -7.39264901612673761E-07
 -7.57979457727131520E-07 -7.77167773856254739E-07 -7.96841843228903132E-07
 -8.17013962680745246E-07 -8.37696740339924245E-07 -8.58903103507301771E-07
 -8.80646306736164204E-07 -9.02939940116464812E-07 -9.25797937768774858E-07
 -9.49234586553244595E-07 -9.73264534999029149E-07 -9.97902802459746199E-07
 -1.02316478850069236E-06 -1.04906628252368566E-06 -1.07562347363555851E-06
 -1.10285296076645311E-06 -1.13077176304423100E-06 -1.15939733043152466E-06
 -1.18874755463203764E-06 -1.21884078027291465E-06 -1.24969581637019547E-06
 -1.28133194808447351E-06 -1.31376894877416634E-06 -1.34702709235384462E-06
 -1.38112716596545003E-06 -1.41609048297022761E-06 -1.45193889626951327E-06
 -1.48869481196275687E-06 -1.52638120335124319E-06 -1.56502162529628623E-06
 -1.60464022894090207E-06 -1.64526177680409556E-06 -1.68691165825724776E-06
 -1.72961590539227442E-06 -1.77340120929139297E-06 -1.81829493670880529E-06
 -1.86432514717455924E-06 -1.91152061053140544E-06 -1.95991082491554855E-06
 -2.00952603519250739E-06 -2.06039725185969321E-06 -2.11255627042738051E-06
 -2.16603569129031469E-06 -2.22086894010230186E-06 -2.27709028866649222E-06
 -2.33473487635450547E-06 -2.39383873206763193E-06 -2.45443879675400700E-06
 -2.51657294649564650E-06 -2.58028001617993608E-06 -2.64559982377026002E-06
 -2.71257319519090550E-06 -2.78124198984193667E-06 -2.85164912675980978E-06
 -2.92383861144018550E-06 -2.99785556333967417E-06 -3.07374624407362615E-06
 -3.15155808632769484E-06 -3.23133972350116025E-06 -3.31314102010052060E-06
 -3.39701310290245614E-06 -3.48300839290542051E-06 -3.57118063809003925E-06
 -3.66158494700867144E-06 -3.75427782322509426E-06 -3.84931720062592798E-06
 -3.94676247962567868E-06 -4.04667456428832429E-06 -4.14911590038815908E-06
 -4.25415051443427265E-06 -4.36184405368242049E-06 -4.47226382715977044E-06
 -4.58547884772787193E-06 -4.70155987521015929E-06 -4.82057946061113309E-06
 -4.94261199145441274E-06 -5.06773373826850095E-06 -5.19602290224884489E-06
 -5.32755966412618402E-06 -5.46242623427178034E-06 -5.60070690407046474E-06
 -5.74248809859409736E-06 -5.88785843060786067E-06 -6.03690875594334341E-06
 -6.18973223027311437E-06 -6.34642436732183854E-06 -6.50708309855070633E-06
 -6.67180883435229443E-06 -6.84070452679379195E-06 -7.01387573394834809E-06
 -7.19143068585417906E-06 -7.37348035214280688E-06 -7.56013851137870789E-06
 -7.75152182215372546E-06 -7.94774989598021066E-06 -8.14894537202900566E-06
 -8.35523399375856038E-06 -8.56674468748284570E-06 -8.78360964292764094E-06
 -9.00596439582512820E-06 -9.23394791259808823E-06 -9.46770267718727758E-06
 -9.70737478007556381E-06 -9.95311400956451606E-06 -1.02050739453605630E-05
 -1.04634120545290809E-05 -1.07282897898762026E-05 -1.09998726908195715E-05
 -1.12783304868116210E-05 -1.15638372033791943E-05 -1.18565712708459050E-05
 -1.21567156358052184E-05 -1.24644578754138142E-05 -1.27799903145762956E-05
 -1.31035101460943164E-05 -1.34352195538554387E-05 -1.37753258391384800E-05
 -1.41240415501135667E-05 -1.44815846146183364E-05 -1.48481784762929157E-05
 -1.52240522341584543E-05 -1.56094407857262673E-05 -1.60045849737266285E-05
 -1.64097317365493522E-05 -1.68251342624893428E-05 -1.72510521478934843E-05
 -1.76877515593072184E-05 -1.81355053997223048E-05 -1.85945934790293162E-05
 -1.90653026887808371E-05 -1.95479271813742910E-05 -2.00427685537661798E-05
 -2.05501360358324279E-05 -2.10703466834919251E-05 -2.16037255767136777E-05
 -2.21506060225305418E-05 -2.27113297631866566E-05 -2.32862471895478159E-05
 -2.38757175599080047E-05 -2.44801092243279356E-05 -2.50997998546454360E-05
 -2.57351766803008761E-05 -2.63866367301247764E-05 -2.70545870802379754E-05
 -2.77394451082183224E-05 -2.84416387536923588E-05 -2.91616067855139186E-05
 -2.98997990756964565E-05 -3.06566768802689498E-05 -3.14327131272307153E-05
 -3.22283927117832691E-05 -3.30442127990241471E-05 -3.38806831342893311E-05
 -3.47383263613388176E-05 -3.56176783485826021E-05 -3.65192885235492436E-05
 -3.74437202158058515E-05 -3.83915510085420557E-05 -3.93633730990360978E-05
 -4.03597936682280261E-05 -4.13814352596283502E-05 -4.24289361677988885E-05
 -4.35029508366457110E-05 -4.46041502677720637E-05 -4.57332224391451578E-05
 -4.68908727343353275E-05 -4.80778243825955679E-05 -4.92948189100537133E-05
 -5.05426166022967396E-05 -5.18219969786354011E-05 -5.31337592783415628E-05
 -5.44787229591606997E-05 -5.58577282084094027E-05 -5.72716364669715144E-05
 -5.87213309665220133E-05 -6.02077172803065628E-05 -6.17317238878227405E-05
 -6.32943027537485517E-05 -6.48964299214786224E-05 -6.65391061216348301E-05
 -6.82233573959276589E-05 -6.99502357367547215E-05 -7.17208197429314238E-05
 -7.35362152919590061E-05 -7.53975562292460088E-05 -7.73060050747084975E-05
 -7.92627537471859783E-05 -8.12690243071200212E-05 -8.33260697179531663E-05
 -8.54351746267197255E-05 -8.75976561643083485E-05 -8.98148647658905327E-05
 -9.20881850120214263E-05 -9.44190364909295460E-05 -9.68088746825283505E-05
 -9.92591918646930035E-05 -1.01771518042360025E-04 -1.04347421900023417E-04
 -1.06988511778209397E-04 -1.09696436674534383E-04 -1.12472887269957338E-04
 -1.15319596980860563E-04 -1.18238343037601487E-04 -1.21230947590199940E-04
 -1.24299278841838207E-04 -1.27445252210868764E-04 -1.30670831522040643E-04
 -1.33978030227677956E-04 -1.37368912659552143E-04 -1.40845595312220591E-04
 -1.44410248158609501E-04 -1.48065095998652562E-04 -1.51812419841802114E-04
 -1.55654558324261306E-04 -1.59593909161800940E-04 -1.63632930639044812E-04
 -1.67774143136133896E-04 -1.72020130693698508E-04 -1.76373542617085717E-04
 -1.80837095120828034E-04 -1.85413573014340778E-04 -1.90105831429879653E-04
 -1.94916797593805050E-04 -1.99849472642224854E-04 -2.04906933482118216E-04
 -2.10092334699066578E-04 -2.15408910512742752E-04 -2.20859976781346027E-04
 -2.26448933056185454E-04 -2.32179264687657670E-04 -2.38054544983884784E-04
 -2.44078437423312771E-04 -2.50254697922601703E-04 -2.56587177161170081E-04
 -2.63079822963788363E-04 -2.69736682742652907E-04 -2.76561906000398006E-04
 -2.83559746895550087E-04 -2.90734566871950705E-04 -2.98090837353725733E-04
 -3.05633142507396975E-04 -3.13366182072794593E-04 -3.21294774264438822E-04
 -3.29423858745128413E-04 -3.37758499673489882E-04 -3.46303888827296277E-04
 -3.55065348804402953E-04 -3.64048336303191358E-04 -3.73258445484453427E-04
 -3.82701411416698771E-04 -3.92383113606906868E-04 -4.02309579618801577E-04
 -4.12486988780762503E-04 -4.22921675985545628E-04 -4.33620135584033054E-04
 -4.44589025375276324E-04 -4.55835170695162244E-04 -4.67365568606064382E-04
 -4.79187392189922958E-04 -4.91307994947221146E-04 -5.03734915304406092E-04
 -5.16475881232348667E-04 -5.29538814978488853E-04 -5.42931837915393940E-04
 -5.56663275508488303E-04 -5.70741662405796165E-04 -5.85175747652592676E-04
 -5.99974500033928840E-04 -6.15147113548045014E-04 -6.30703013013776074E-04
 -6.46651859815086682E-04 -6.63003557785997303E-04 -6.79768259239149110E-04
 -6.96956371141415113E-04 -7.14578561439965917E-04 -7.32645765542312461E-04
 -7.51169192953900894E-04 -7.70160334076919976E-04 -7.89630967174052584E-04
 -8.09593165500980703E-04 -8.30059304611520323E-04 -8.51042069839371687E-04
 -8.72554463960507703E-04 -8.94609815040343795E-04 -9.17221784469879537E-04
 -9.40404375195122628E-04 -9.64171940144136473E-04 -9.88539190856206791E-04
 -1.01352120631763428E-03 -1.03913344200880502E-03 -1.06539173916723540E-03
 -1.09231233427140311E-03 -1.11991186875024700E-03 -1.14820739892331457E-03
 -1.17721640617662014E-03 -1.20695680737935816E-03 -1.23744696554673687E-03
 -1.26870570075423368E-03 -1.30075230130871373E-03 -1.33360653518191374E-03
 -1.36728866171188400E-03 -1.40181944357807803E-03 -1.43722015905587905E-03
 -1.47351261455638100E-03 -1.51071915745744335E-03 -1.54886268923196948E-03
 -1.58796667887960001E-03 -1.62805517666797061E-03 -1.66915282818985732E-03
 -1.71128488874253745E-03 -1.75447723803582190E-03 -1.79875639523529424E-03
 -1.84414953434730339E-03 -1.89068449995240815E-03 -1.93838982329398420E-03
 -1.98729473872877619E-03 -2.03742920054626785E-03 -2.08882390016375307E-03
 -2.14151028370408074E-03 -2.19552056996307181E-03 -2.25088776877364373E-03
 -2.30764569977374946E-03 -2.36582901158520400E-03 -2.42547320141054583E-03
 -2.48661463505509646E-03 -2.54929056738131517E-03 -2.61353916320266992E-03
 -2.67939951862407235E-03 -2.74691168283609398E-03 -2.81611668036993706E-03
 -2.88705653382029291E-03 -2.95977428704299970E-03 -3.03431402883445065E-03
 -3.11072091709956294E-03 -3.18904120351505430E-03 -3.26932225869456432E-03
 -3.35161259786226438E-03 -3.43596190704108457E-03 -3.52242106976185815E-03
 -3.61104219429930848E-03 -3.70187864144058817E-03 -3.79498505279198591E-03
 -3.89041737962891789E-03 -3.98823291229428046E-03 -4.08849031014977757E-03
 -4.19124963208443793E-03 -4.29657236758437984E-03 -4.40452146836717816E-03
 -4.51516138058398984E-03 -4.62855807759193251E-03 -4.74477909329875779E-03
 -4.86389355608128366E-03 -4.98597222327842957E-03 -5.11108751625897594E-03
 -5.23931355606356997E-03 -5.37072619961959010E-03 -5.50540307652670844E-03
 -5.64342362641022041E-03 -5.78486913683799470E-03 -5.92982278179609006E-03
 -6.07836966071699254E-03 -6.23059683805301384E-03 -6.38659338338657366E-03
 -6.54645041206718906E-03 -6.71026112636421805E-03 -6.87812085712225137E-03
 -7.05012710590495906E-03 -7.22637958761114443E-03 -7.40698027354517313E-03
 -7.59203343492157161E-03 -7.78164568678222941E-03 -7.97592603230169728E-03
 -8.17498590745426197E-03 -8.37893922601377558E-03 -8.58790242485461992E-03
 -8.80199450951943581E-03 -9.02133710001637272E-03 -9.24605447680517875E-03
 -9.47627362692868638E-03 -9.71212429024211239E-03 -9.95373900568938957E-03
 -1.02012531575715239E-02 -1.04548050217480783E-02 -1.07145358117080886E-02
 -1.09805897244426038E-02 -1.12531139860456396E-02 -1.15322588969656512E-02
 -1.18181778768236198E-02 -1.21110275087086567E-02 -1.24109675828553579E-02
 -1.27181611396013916E-02 -1.30327745115161944E-02 -1.33549773645853104E-02
 -1.36849427383270369E-02 -1.40228470847096765E-02 -1.43688703057303444E-02
 -1.47231957895063905E-02 -1.50860104447219628E-02 -1.54575047332620244E-02
 -1.58378727008563203E-02 -1.62273120055442983E-02 -1.66260239437610140E-02
 -1.70342134738324623E-02 -1.74520892366555117E-02 -1.78798635733245330E-02
 -1.83177525394530895E-02 -1.87659759159241116E-02 -1.92247572157870361E-02
 -1.96943236870039257E-02 -2.01749063107296255E-02 -2.06667397947933873E-02
 -2.11700625620306997E-02 -2.16851167330939926E-02 -2.22121481033510822E-02
 -2.27514061134581440E-02 -2.33031438131709075E-02 -2.38676178179354874E-02
 -2.44450882577737089E-02 -2.50358187179525495E-02 -2.56400761709004374E-02
 -2.62581308988034286E-02 -2.68902564062852324E-02 -2.75367293225432311E-02
 -2.81978292922802423E-02 -2.88738388547368253E-02 -2.95650433100935646E-02
 -3.02717305724749530E-02 -3.09941910087474515E-02 -3.17327172622626358E-02
 -3.24876040606545125E-02 -3.32591480067544534E-02 -3.40476473516407169E-02
 -3.48534017487904038E-02 -3.56767119882509046E-02 -3.65178797096974220E-02
 -3.73772070931836786E-02 -3.82549965263363698E-02 -3.91515502466849366E-02
 -4.00671699577551180E-02 -4.10021564174896380E-02 -4.19568089974912822E-02
 -4.29314252115129136E-02 -4.39263002115463583E-02 -4.49417262497856587E-02
 -4.59779921046596790E-02 -4.70353824690489808E-02 -4.81141772987152827E-02
 -4.92146511188831445E-02 -5.03370722868229439E-02 -5.14817022081880682E-02
 -5.26487945047619810E-02 -5.38385941311676566E-02 -5.50513364379886377E-02
 -5.62872461786408720E-02 -5.75465364572225052E-02 -5.88294076144534120E-02
 -6.01360460486978360E-02 -6.14666229689383031E-02 -6.28212930764456973E-02
 -6.42001931717580548E-02 -6.56034406834487271E-02 -6.70311321150264400E-02
 -6.84833414061669227E-02 -6.99601182043503994E-02 -7.14614860428071236E-02
 -7.29874404205369254E-02 -7.45379467800158652E-02 -7.61129383780471264E-02
 -7.77123140450582395E-02 -7.93359358279850380E-02 -8.09836265117240550E-02
 -8.26551670139711453E-02 -8.43502936481014542E-02 -8.60686952485845702E-02
 -8.78100101532600097E-02 -8.95738230366409788E-02 -9.13596615882484586E-02
 -9.31669930298187204E-02 -9.49952204650730825E-02 -9.68436790555808474E-02
 -9.87116320161006561E-02 -1.00598266422643259E-01 -1.02502688826357893E-01
 -1.04423920666221803E-01 -1.06360893473390367E-01 -1.08312443859957933E-01
 -1.10277308284786824E-01 -1.12254117588977340E-01 -1.14241391293493630E-01
 -1.16237531651402493E-01 -1.18240817447170854E-01 -1.20249397535483069E-01
 -1.22261284112016949E-01 -1.24274345708700842E-01 -1.26286299906059579E-01
 -1.28294705755372496E-01 -1.30296955903531519E-01 -1.32290268413683104E-01
 -1.34271678274992312E-01 -1.36238028595169314E-01 -1.38185961469749846E-01
 -1.40111908522544015E-01 -1.42012081112150190E-01 -1.43882460199988599E-01
 -1.45718785875939866E-01 -1.47516546538400406E-01 -1.49270967726369302E-01
 -1.50977000602093459E-01 -1.52629310083817332E-01 -1.54222262629308021E-01
 -1.55749913672077883E-01 -1.57205994713621594E-01 -1.58583900076492895E-01
 -1.59876673324740148E-01 -1.61076993360041359E-01 -1.62177160203902243E-01
 -1.63169080478472062E-01 -1.64044252600927171E-01 -1.64793751708874614E-01
 -1.65408214337176451E-01 -1.65877822869559960E-01 -1.66192289791684489E-01
 -1.66340841775870024E-01 -1.66312203631518413E-01 -1.66094582159356741E-01
 -1.65675649952033516E-01 -1.65042529188306586E-01 -1.64181775473118907E-01
 -1.63079361781216875E-01 -1.61720662567727852E-01 -1.60090438115194883E-01
 -1.58172819193074826E-01 -1.55951292112559953E-01 -1.53408684266881840E-01
 -1.50527150254944730E-01 -1.47288158694246524E-01 -1.43672479837594708E-01
 -1.39660174117109154E-01 -1.35230581748398332E-01 -1.30362313537678465E-01
 -1.25033243044852360E-01 -1.19220500266322152E-01 -1.12900467012463493E-01
 -1.06048774166597332E-01 -9.86403010226789695E-02 -9.06491769128934394E-02
 -8.20487853486710078E-02 -7.28117709110361055E-02 -6.29100491395462175E-02
 -5.23148196824537517E-02 -4.09965829841559340E-02 -2.89251607995462019E-02
 -1.60697208384020379E-02 -2.39880585630652043E-03  1.21196324782093089E-02
  2.75181945978193072E-02  4.38299885769872360E-02  6.10885798324549631E-02
  7.93279346061668000E-02  9.85823568432311476E-02  1.18886418068799279E-01
  1.40274879860393054E-01  1.62782608506547355E-01  1.86444481438902965E-01
  2.11295285023294338E-01  2.37369603296441606E-01  2.64701697238636291E-01
  2.93325374179919773E-01  3.23273846947598809E-01  3.54579582376020608E-01
  3.87274138826515901E-01  4.21387992380325926E-01  4.56950351398662136E-01
  4.93988959182136589E-01  5.32529884502330519E-01  5.72597299827200201E-01
  6.14213247118262751E-01  6.57397391141996801E-01  7.02166760311093485E-01
  7.48535475153534247E-01  7.96514464599853977E-01  8.46111170381619093E-01
  8.97329239947830093E-01  9.50168208431246941E-01  1.00462317033374049E+00
  1.06068444174949361E+00  1.11833721410729381E+00  1.17756120058873659E+00
  1.23833027656810013E+00  1.30061211562194723E+00  1.36436782287233127E+00
  1.42955156765641633E+00  1.49611021775727027E+00  1.56398297768483863E+00
  1.63310103376106119E+00  1.70338720904085750E+00  1.77475563139251191E+00
  1.84711141833995995E+00  1.92035038257898005E+00  1.99435876238135590E+00
  2.06901298140430701E+00  2.14417944272419536E+00  2.21971436220961404E+00
  2.29546364663537439E+00  2.37126282221083828E+00  2.44693701944880049E+00
  2.52230102052870109E+00  2.59715937550413578E+00  2.67130659386292857E+00
  2.74452741806032119E+00  2.81659718570467055E+00  2.88728228707120715E+00
  2.95634072454389507E+00  3.02352278042806599E+00  3.08857179932701209E+00
  3.15122509092301950E+00  3.21121495853588135E+00  3.26826985823819172E+00
  3.32211569257442640E+00  3.37247724204870680E+00  3.41907973652397557E+00
  3.46165056738939336E+00  3.49992113996765841E+00  3.53362886410230459E+00
  3.56251927901739540E+00  3.58634830714216779E+00  3.60488463927421598E+00
  3.61791240893032695E+00  3.62523677594814808E+00  3.62676308188002539E+00
  3.62470861559619628E+00  3.62025911116471200E+00  3.61339747380215837E+00
  3.60412948449073278E+00  3.59246903055459210E+00  3.57843684224754899E+00
  3.56206011764602382E+00  3.54337211975815780E+00  3.52241167731450311E+00
  3.49922258199941760E+00  3.47385288018002081E+00  3.44635405867200628E+00
  3.41678012542804010E+00  3.38518658750787438E+00  3.35162933031821675E+00
  3.31616340390500408E+00  3.27884172407534047E+00  3.23971369840229251E+00
  3.19882378955821434E+00  3.15621003124761978E+00  3.11190251515766780E+00
  3.06592187090941470E+00  3.01827776506959777E+00  2.96896745015017149E+00
  2.91798293445309609E+00  2.86539760171251379E+00  2.81133979781650778E+00
  2.75593901182675927E+00  2.69932462393145922E+00  2.64162548101961514E+00
  2.58296948863295883E+00  2.52348322064242803E+00  2.46329154791354732E+00
  2.40251728706390955E+00  2.34128087025043641E+00  2.27970003673497246E+00
  2.21788954694559726E+00  2.15596091927678302E+00  2.09402219012587265E+00
  2.03217769722228336E+00  1.97052788627192155E+00  1.90916914078043032E+00
  1.84819363485377175E+00  1.78768920858127345E+00  1.72773926551560497E+00
  1.66842269169237012E+00  1.60981379553108717E+00  1.55198226788020932E+00
  1.49499316139961880E+00  1.43890688841265346E+00  1.38377923631495126E+00
  1.32966139957176410E+00  1.27660002731821987E+00  1.22463728554274787E+00
  1.17381093281808968E+00  1.12415440853581550E+00  1.07569693259689192E+00
  1.02846361551498466E+00  9.82475577898592300E-01  9.37750078293464906E-01
  8.94300648386978092E-01  8.52137234600457871E-01  8.11266345124215360E-01
  7.71691201481718103E-01  7.33411893744403298E-01  6.96425538555864976E-01
  6.60726439164814661E-01  6.26306246705961356E-01  5.93154122005952078E-01
  5.61256897241109054E-01  5.30599236815345265E-01  5.01163796869981026E-01
  4.72931382880765805E-01  4.45881104840680775E-01  4.19990529569792215E-01
  3.95235829735218536E-01  3.71591929205177418E-01  3.49032644400659064E-01
  3.27530821346777412E-01  3.07058468162732967E-01  2.87586882764843843E-01
  2.69086775591000416E-01  2.51528387187178792E-01  2.34881600527350604E-01
  2.19116047966986471E-01  2.04201212757731343E-01  1.90106525076448318E-01
  1.76801452545781779E-01  1.64255585245797003E-01  1.52438715237036143E-01
  1.41320910634679636E-01  1.30872584295452982E-01  1.21064557186541452E-01
  1.11868116513676535E-01  1.03255068729716945E-01  9.51977875331070783E-02
  8.76692569815815947E-02  8.06431098577410632E-02  7.40936614322164483E-02
  6.79959387783382468E-02  6.23257057993687191E-02  5.70594841356876978E-02
  5.21745701247396804E-02  4.76490479911488365E-02  4.34617994482797906E-02
  3.95925098955623236E-02  3.60216713983000994E-02  3.27305826383236589E-02
  2.97013460248524083E-02  2.69168621552755005E-02  2.43608218152460178E-02
  2.20176957065781678E-02  1.98727220898992571E-02  1.79118925268985964E-02
  1.61219359043102556E-02  1.44903009185081873E-02  1.30051371970613377E-02
  1.16552752278677608E-02  1.04302052542573111E-02  9.32005530617106837E-03
  8.31556852007095740E-03  7.40807989528248934E-03  6.58949262883042584E-03
  5.85225416388791830E-03  5.18933207971705029E-03  4.59418994345229832E-03
  4.06076323633251541E-03  3.58343545906015864E-03  3.15701451290471705E-03
  2.77670944502732752E-03  2.43810763832920906E-03  2.13715251797470807E-03
  1.87012183865481463E-03  1.63360660868970098E-03  1.42449069926979034E-03
  1.23993117954131205E-03  1.07733941090541741E-03  9.34362926849824750E-04
  8.08868117909737009E-04  6.98923734989162796E-04  6.02785218289728086E-04
  5.18879853641286107E-04  4.45792752908109804E-04  3.82253648955742105E-04
  3.27124494160065278E-04  2.79387845946337259E-04  2.38136019413909999E-04
  2.02560984400848229E-04  1.71944981826869907E-04  1.45651832053622106E-04
  1.23118906302967945E-04  1.03849730856945616E-04  8.74071928059708266E-05
  7.34073154911975761E-05  6.15135714771075848E-05  5.14317008654177610E-05
  4.29050029938160749E-05  3.57100700256384338E-05  2.96529316017929144E-05
  2.45655805670357298E-05  2.03028507727190079E-05  1.67396190719664604E-05
  1.37683048366508196E-05  1.12966416157103280E-05  9.24569690005411231E-06
  7.54811734086592729E-06  6.14657817112021881E-06  4.99241698859218535E-06
  4.04443338243693935E-06  3.26783736435497783E-06  2.63333083490576250E-06
  2.11630758724443387E-06  1.69615860059721934E-06  1.35567055284290843E-06
  1.08050659701078503E-06  8.58759497380373880E-07  6.80568205316841104E-07
  5.37789872178301771E-07  4.23720146710840411E-07  3.32855388208037251E-07
  2.60691145947664867E-07  2.03551912175972862E-07  1.58447752790583751E-07
  1.22953959828761005E-07  9.51103561051051986E-08  7.33373182452199614E-08
  5.63659734101427610E-08  4.31803707170671821E-08  3.29697342297121768E-08
                             </PP_RHOATOM> 
<PP_PAW paw_data_format="2"> 
   <PP_OCCUPATIONS type="real" columns="3" size=" 4">
  2.00000000000000000E+00  0.00000000000000000E+00  4.00000000000000000E+00
  0.00000000000000000E+00
                             </PP_OCCUPATIONS> 
 <PP_AE_NLCC type="real" size="   999" columns="3">
  2.90386579195417289E+03  2.90330270383049992E+03  2.90273888460366743E+03
  2.90217432541560356E+03  2.90160902022174014E+03  2.90104295714529508E+03
  2.90047612135252211E+03  2.89990850615879526E+03  2.89934010277029302E+03
  2.89877089656387625E+03  2.89820087604259061E+03  2.89763003407828364E+03
  2.89705835805803554E+03  2.89648583319306726E+03  2.89591245172737263E+03
  2.89533820258803735E+03  2.89476307012946972E+03  2.89418704465062956E+03
  2.89361011586970471E+03  2.89303226817895893E+03  2.89245349017140006E+03
  2.89187377162492294E+03  2.89129309691346498E+03  2.89071145368556063E+03
  2.89012883123104530E+03  2.88954521360606714E+03  2.88896058820421422E+03
  2.88837494340666035E+03  2.88778826274953644E+03  2.88720053386168729E+03
  2.88661174374817710E+03  2.88602187561270648E+03  2.88543091740254476E+03
  2.88483885421134255E+03  2.88424566978468010E+03  2.88365135162044135E+03
  2.88305588283786756E+03  2.88245924865030838E+03  2.88186143470582965E+03
  2.88126242332334186E+03  2.88066220074247394E+03  2.88006074980087897E+03
  2.87945805430881910E+03  2.87885409892165671E+03  2.87824886530935191E+03
  2.87764233850519213E+03  2.87703450009715834E+03  2.87642533361839014E+03
  2.87581482166779097E+03  2.87520294591916172E+03  2.87458968969387251E+03
  2.87397503348317832E+03  2.87335896048629820E+03  2.87274145084651855E+03
  2.87212248693254742E+03  2.87150204897427147E+03  2.87088011828396566E+03
  2.87025667518938735E+03  2.86963170003725872E+03  2.86900517308233202E+03
  2.86837707387811497E+03  2.86774738241319983E+03  2.86711607760374682E+03
  2.86648313901229085E+03  2.86584854503393308E+03  2.86521227468152847E+03
  2.86457430591563752E+03  2.86393461709702206E+03  2.86329318582347651E+03
  2.86264998971174009E+03  2.86200500605630987E+03  2.86135821165650805E+03
  2.86070958352938896E+03  2.86005909763738600E+03  2.85940673066066574E+03
  2.85875245782711545E+03  2.85809625526841819E+03  2.85743809774858119E+03
  2.85677796052279382E+03  2.85611581814819374E+03  2.85545164480658195E+03
  2.85478541485719552E+03  2.85411710156751315E+03  2.85344667871888396E+03
  2.85277411916696292E+03  2.85209939561552983E+03  2.85142248071293307E+03
  2.85074334619067258E+03  2.85006196404547200E+03  2.84937830563106399E+03
  2.84869234179948035E+03  2.84800404351733687E+03  2.84731338096577065E+03
  2.84662032407096740E+03  2.84592484265028634E+03  2.84522690578692391E+03
  2.84452648234984235E+03  2.84382354099816575E+03  2.84311804972290929E+03
  2.84240997622547138E+03  2.84169928799780701E+03  2.84098595192407129E+03
  2.84026993446481220E+03  2.83955120189747186E+03  2.83882971996974447E+03
  2.83810545390506559E+03  2.83737836865282588E+03  2.83664842877394949E+03
  2.83591559829363905E+03  2.83517984076912671E+03  2.83444111945064287E+03
  2.83369939712535279E+03  2.83295463606646035E+03  2.83220679806891894E+03
  2.83145584455514927E+03  2.83070173648782429E+03  2.82994443431821310E+03
  2.82918389799695706E+03  2.82842008701006898E+03  2.82765296040875774E+03
  2.82688247673479964E+03  2.82610859401338075E+03  2.82533126975565665E+03
  2.82455046096432943E+03  2.82376612415822774E+03  2.82297821533778051E+03
  2.82218668996646738E+03  2.82139150296911703E+03  2.82059260872904179E+03
  2.81978996108419506E+03  2.81898351332733682E+03  2.81817321820518373E+03
  2.81735902789873626E+03  2.81654089401627698E+03  2.81571876758826784E+03
  2.81489259906179041E+03  2.81406233829458552E+03  2.81322793454879638E+03
  2.81238933648448483E+03  2.81154649215290192E+03  2.81069934898980910E+03
  2.80984785380911353E+03  2.80899195279460946E+03  2.80813159149246712E+03
  2.80726671480426694E+03  2.80639726697990454E+03  2.80552319161038440E+03
  2.80464443162051066E+03  2.80376092926147567E+03  2.80287262610337439E+03
  2.80197946302763194E+03  2.80108138021935383E+03  2.80017831715959164E+03
  2.79927021261755135E+03  2.79835700464269667E+03  2.79743863055679913E+03
  2.79651502694589044E+03  2.79558612965213342E+03  2.79465187376560425E+03
  2.79371219361599515E+03  2.79276702276426977E+03  2.79181629399496614E+03
  2.79085993930779978E+03  2.78989788990871375E+03  2.78893007620115168E+03
  2.78795642777724970E+03  2.78697687340892298E+03  2.78599134103881397E+03
  2.78499975777112149E+03  2.78400204986232166E+03  2.78299814271178229E+03
  2.78198796085525964E+03  2.78097142795787067E+03  2.77994846680072578E+03
  2.77891899927071518E+03  2.77788294635049260E+03  2.77684022810834813E+03
  2.77579076368873893E+03  2.77473447131077864E+03  2.77367126825561490E+03
  2.77260107085054278E+03  2.77152379445811312E+03  2.77043935346535409E+03
  2.76934766128197089E+03  2.76824863033491692E+03  2.76714217204556689E+03
  2.76602819681716846E+03  2.76490661402567275E+03  2.76377733202622403E+03
  2.76264025813270246E+03  2.76149529859653376E+03  2.76034235859657565E+03
  2.75918134224877167E+03  2.75801215258642878E+03  2.75683469153410761E+03
  2.75564885990178209E+03  2.75445455739794625E+03  2.75325168259551128E+03
  2.75204013291114643E+03  2.75081980461818193E+03  2.74959059283453826E+03
  2.74835239148516075E+03  2.74710509330819514E+03  2.74584858985979236E+03
  2.74458277146789169E+03  2.74330752723531896E+03  2.74202274504986599E+03
  2.74072831153385368E+03  2.73942411205238113E+03  2.73811003071696041E+03
  2.73678595033407373E+03  2.73545175242771165E+03  2.73410731722066157E+03
  2.73275252359555270E+03  2.73138724912803582E+03  2.73001137003496797E+03
  2.72862476117540155E+03  2.72722729605589757E+03  2.72581884677723701E+03
  2.72439928407086973E+03  2.72296847724506415E+03  2.72152629419391496E+03
  2.72007260138676520E+03  2.71860726383143674E+03  2.71713014510192761E+03
  2.71564110727626758E+03  2.71414001097438859E+03  2.71262671529915997E+03
  2.71110107786098888E+03  2.70956295473764976E+03  2.70801220047829565E+03
  2.70644866808288634E+03  2.70487220898889791E+03  2.70328267306487169E+03
  2.70167990858628718E+03  2.70006376223660800E+03  2.69843407907873961E+03
  2.69679070255756096E+03  2.69513347447266233E+03  2.69346223497694700E+03
  2.69177682255590298E+03  2.69007707401721154E+03  2.68836282448143629E+03
  2.68663390735822941E+03  2.68489015435198871E+03  2.68313139542270756E+03
  2.68135745880607465E+03  2.67956817096330542E+03  2.67776335660659925E+03
  2.67594283865202078E+03  2.67410643823256669E+03  2.67225397467248149E+03
  2.67038526547286028E+03  2.66850012631571099E+03  2.66659837102419669E+03
  2.66467981158178281E+03  2.66274425809367995E+03  2.66079151878773291E+03
  2.65882140000662685E+03  2.65683370617675700E+03  2.65482823982308628E+03
  2.65280480153543840E+03  2.65076318996407645E+03  2.64870320181894886E+03
  2.64662463183713498E+03  2.64452727279156761E+03  2.64241091547344695E+03
  2.64027534867138320E+03  2.63812035918071388E+03  2.63594573177838447E+03
  2.63375124921139286E+03  2.63153669220273196E+03  2.62930183942562189E+03
  2.62704646749631775E+03  2.62477035097767248E+03  2.62247326235552464E+03
  2.62015497203205496E+03  2.61781524832933383E+03  2.61545385746862166E+03
  2.61307056356229941E+03  2.61066512861815590E+03  2.60823731252317521E+03
  2.60578687303316110E+03  2.60331356577601537E+03  2.60081714424309939E+03
  2.59829735977650807E+03  2.59575396156855868E+03  2.59318669666243295E+03
  2.59059530993902399E+03  2.58797954411262572E+03  2.58533913973459448E+03
  2.58267383518767292E+03  2.57998336667837884E+03  2.57726746823671283E+03
  2.57452587172062567E+03  2.57175830680951276E+03  2.56896450100154925E+03
  2.56614417961577919E+03  2.56329706579735375E+03  2.56042288051356991E+03
  2.55752134255446435E+03  2.55459216853666885E+03  2.55163507291071801E+03
  2.54864976796091878E+03  2.54563596380841636E+03  2.54259336841692357E+03
  2.53952168760215454E+03  2.53642062503732541E+03  2.53328988225812327E+03
  2.53012915867117499E+03  2.52693815156444225E+03  2.52371655611966662E+03
  2.52046406542030991E+03  2.51718037046273139E+03  2.51386516016908126E+03
  2.51051812140235052E+03  2.50713893898243350E+03  2.50372729569936837E+03
  2.50028287232981302E+03  2.49680534765496577E+03  2.49329439848014999E+03
  2.48974969965645778E+03  2.48617092410007353E+03  2.48255774281413869E+03
  2.47890982491241266E+03  2.47522683764418525E+03  2.47150844642154880E+03
  2.46775431484684214E+03  2.46396410474007507E+03  2.46013747616901219E+03
  2.45627408748071412E+03  2.45237359533455992E+03  2.44843565473748367E+03
  2.44445991908003498E+03  2.44044604017281245E+03  2.43639366828544689E+03
  2.43230245218729488E+03  2.42817203918975065E+03  2.42400207519038440E+03
  2.41979220471941380E+03  2.41554207098659936E+03  2.41125131593008382E+03
  2.40691958026752764E+03  2.40254650354909745E+03  2.39813172421238960E+03
  2.39367487963931899E+03  2.38917560621543907E+03  2.38463353939079070E+03
  2.38004831374237847E+03  2.37541956303926872E+03  2.37074692030985716E+03
  2.36603001791135284E+03  2.36126848760149915E+03  2.35646196061260889E+03
  2.35161006772814471E+03  2.34671243936158498E+03  2.34176870563721104E+03
  2.33677849647367884E+03  2.33174144167016902E+03  2.32665717099510448E+03
  2.32152531427744452E+03  2.31634550150064615E+03  2.31111736289931468E+03
  2.30584052905863246E+03  2.30051463101675063E+03  2.29513930036958709E+03
  2.28971416937858248E+03  2.28423887108151757E+03  2.27871303940626194E+03
  2.27313630928754355E+03  2.26750831678677559E+03  2.26182869921498286E+03
  2.25609709525886956E+03  2.25031314511006758E+03  2.24447649059765445E+03
  2.23858677532401225E+03  2.23264364480384484E+03  2.22664674660652827E+03
  2.22059573050194649E+03  2.21449024860978079E+03  2.20832995555226626E+03
  2.20211450861048615E+03  2.19584356788421655E+03  2.18951679645537160E+03
  2.18313386055507590E+03  2.17669442973442392E+03  2.17019817703893386E+03
  2.16364477918673720E+03  2.15703391675055536E+03  2.15036527434352001E+03
  2.14363854080871715E+03  2.13685340941261029E+03  2.13000957804236623E+03
  2.12310674940711760E+03  2.11614463124310942E+03  2.10912293652283188E+03
  2.10204138366810685E+03  2.09489969676714463E+03  2.08769760579562035E+03
  2.08043484684173518E+03  2.07311116233531084E+03  2.06572630128088849E+03
  2.05828001949486497E+03  2.05077207984663983E+03  2.04320225250379349E+03
  2.03557031518127542E+03  2.02787605339458878E+03  2.02011926071698076E+03
  2.01229973904061171E+03  2.00441729884164806E+03  1.99647175944929290E+03
  1.98846294931871580E+03  1.98039070630784909E+03  1.97225487795802292E+03
  1.96405532177836926E+03  1.95579190553397962E+03  1.94746450753773615E+03
  1.93907301694578064E+03  1.93061733405655013E+03  1.92209737061330043E+03
  1.91351305011006434E+03  1.90486430810095521E+03  1.89615109251272247E+03
  1.88737336396048272E+03  1.87853109606651674E+03  1.86962427578203142E+03
  1.86065290371177116E+03  1.85161699444137889E+03  1.84251657686734075E+03
  1.83335169452943182E+03  1.82412240594547779E+03  1.81482878494831425E+03
  1.80547092102477063E+03  1.79604891965652291E+03  1.78656290266263181E+03
  1.77701300854360125E+03  1.76739939282675050E+03  1.75772222841271287E+03
  1.74798170592284237E+03  1.73817803404732172E+03  1.72831143989373436E+03
  1.71838216933587751E+03  1.70839048736255040E+03  1.69833667842608520E+03
  1.68822104679032918E+03  1.67804391687782163E+03  1.66780563361587519E+03
  1.65750656278125507E+03  1.64714709134314489E+03  1.63672762780410835E+03
  1.62624860253868292E+03  1.61571046812928171E+03  1.60511369969905513E+03
  1.59445879524133125E+03  1.58374627594529443E+03  1.57297668651747267E+03
  1.56215059549867624E+03  1.55126859557595935E+03  1.54033130388918585E+03
  1.52933936233178019E+03  1.51829343784521188E+03  1.50719422270676182E+03
  1.49604243481010622E+03  1.48483881793825708E+03  1.47358414202834797E+03
  1.46227920342778862E+03  1.45092482514127687E+03  1.43952185706814271E+03
  1.42807117622950636E+03  1.41657368698470805E+03  1.40503032123646244E+03
  1.39344203862418181E+03  1.38180982670490539E+03  1.37013470112124378E+03
  1.35841770575579062E+03  1.34665991287137012E+03  1.33486242323654687E+03
  1.32302636623580202E+03  1.31115289996372530E+03  1.29924321130265957E+03
  1.28729851598312166E+03  1.27532005862642472E+03  1.26330911276882648E+03
  1.25126698086660031E+03  1.23919499428138442E+03  1.22709451324516226E+03
  1.21496692680425917E+03  1.20281365274169048E+03  1.19063613747724889E+03
  1.17843585594468345E+03  1.16621431144534677E+03  1.15397303547767274E+03
  1.14171358754188282E+03  1.12943755491929687E+03  1.11714655242563026E+03
  1.10484222213771318E+03  1.09252623309300702E+03  1.08020028096137776E+03
  1.06786608768854035E+03  1.05552540111064809E+03  1.04317999453947846E+03
  1.03083166631771292E+03  1.01848223934382997E+03  1.00613356056610667E+03
  9.93787500445317733E+02  9.81445952385678197E+02  9.69110832133650206E+02
  9.56784077144227808E+02  9.44467645914369996E+02  9.32163517283266629E+02
  9.19873689699158263E+02  9.07600180452478980E+02  8.95345024875096783E+02
  8.83110275505510003E+02  8.70898001219854905E+02  8.58710286328655570E+02
  8.46549229639263558E+02  8.34416943484010289E+02  8.22315552714125261E+02
  8.10247193659508071E+02  7.98214013054553220E+02  7.86218166930188772E+02
  7.74261819472448224E+02  7.62347141847862531E+02  7.50476310996081793E+02
  7.38651508390157915E+02  7.26874918765005305E+02  7.15148728814614174E+02
  7.03475125858644105E+02  6.91856296479116736E+02  6.80294425127971749E+02
  6.68791692706337585E+02  6.57350275116426701E+02  6.45972341787044002E+02
  6.34660054173770277E+02  6.23415564234950011E+02  6.12241012884698648E+02
  6.01138528424202036E+02  5.90110224952678891E+02  5.79158200759435317E+02
  5.68284536698515808E+02  5.57491294547550865E+02  5.46780515352448901E+02
  5.36154217759681501E+02  5.25614396337969538E+02  5.15163019891305680E+02
  5.04802029765150394E+02  4.94533338147892380E+02  4.84358826369709959E+02
  4.74280343200975665E+02  4.64299703152438212E+02  4.54418684779482646E+02
  4.44639028992830220E+02  4.34962437378096013E+02  4.25390570526687782E+02
  4.15925046380571644E+02  4.06567438593487736E+02  3.97319274911246112E+02
  3.88182035573765120E+02  3.79157151741572022E+02  3.70246003949496355E+02
  3.61449920590336831E+02  3.52770176431292555E+02  3.44207991165974875E+02
  3.35764528004829117E+02  3.27440892306803107E+02  3.19238130255100543E+02
  3.11157227579855203E+02  3.03199108330550132E+02  2.95364633700988861E+02
  2.87654600909604937E+02  2.80069742137861567E+02  2.72610723529456550E+02
  2.65278144253004882E+02  2.58072535630816446E+02  2.50994360336327929E+02
  2.44044011662675899E+02  2.37221812864833055E+02  2.30528016577631860E+02
  2.23962804311921673E+02  2.17526286031002883E+02  2.11218499809520068E+02
  2.05039411576477931E+02  1.98988914944063936E+02  1.93066831124316479E+02
  1.87272908935025100E+02  1.81606824896233235E+02  1.76068183418571067E+02
  1.70656517084491725E+02  1.65371287023309662E+02  1.60211883380772321E+02
  1.55177625883712011E+02  1.50267764500139748E+02  1.45481480194952411E+02
  1.40817885781222600E+02  1.36276026866845427E+02  1.31854882896100008E+02
  1.27553368285483316E+02  1.23370333652949213E+02  1.19304567139477257E+02
  1.15354795821668802E+02  1.11519687213852038E+02  1.07797850857952369E+02
  1.04187839999160133E+02  1.00688153345210281E+02  9.72972369068598510E+01
  9.40134859169348687E+01  9.08352468250977410E+01  8.77608193652718711E+01
  8.47884586924521670E+01  8.19163775854211309E+01  7.91427487116946509E+01
  7.64657069509316187E+01  7.38833517728742351E+01  7.13937496646955623E+01
  6.89949366042153827E+01  6.66849205743271511E+01  6.44616841138136323E+01
  6.23231868997051279E+01  6.02673683562074345E+01  5.82921502851160227E+01
  5.63954395125204186E+01  5.45751305466296799E+01  5.28291082411711841E+01
  5.11552504592049857E+01  4.95514307318082672E+01  4.80155209062093959E+01
  4.65453937779241755E+01  4.51389257014565644E+01  4.37939991741580599E+01
  4.25085053878883699E+01  4.12803467431838627E+01  4.01074393207238273E+01
  3.89877153049848602E+01  3.79191253550900100E+01  3.68996409179943186E+01
  3.59272564792971920E+01  3.49999917471398447E+01  3.41158937648259837E+01
  3.32730389480005755E+01  3.24695350424308486E+01  3.17035229987279372E+01
  3.09731787606936138E+01  3.02767149631743919E+01  2.96123825371753711E+01
  2.89784722195172080E+01  2.83733159644312920E+01  2.77952882549173310E+01
  2.72428073119738201E+01  2.67143362001037943E+01  2.62083838277929928E+01
  2.57235058419559444E+01  2.52583054156438820E+01  2.48114339286089169E+01
  2.43815915406174994E+01  2.39675276577032541E+01  2.35680412918445974E+01
  2.31819813148426839E+01  2.28082466074608945E+01  2.24457861051685406E+01
  2.20935987421032856E+01  2.17507332951345944E+01  2.14162881301657961E+01
  2.10894108530628763E+01  2.07692978678336360E+01  2.04551938449098110E+01
  2.01463911025990541E+01  1.98422289049767677E+01  1.95420926796784720E+01
  1.92454131592861870E+01  1.89516654500828743E+01  1.86603680318321530E+01
  1.83710816930555083E+01  1.80834084059022580E+01  1.77969901448760552E+01
  1.75115076538016119E+01  1.72266791654843878E+01  1.69422590785700677E+01
  1.66580365961467756E+01  1.63738343306546135E+01  1.60895068796716778E+01
  1.58049393771346391E+01  1.55200460245255893E+01  1.52347686065149173E+01
  1.49490749954935147E+01  1.46629576493561569E+01  1.43764321068138017E+01
  1.40895354844136946E+01  1.38023249793358911E+01  1.35148763819121598E+01
  1.32272826016796472E+01  1.29396522106371883E+01  1.26521080072188798E+01
  1.23647856043368307E+01  1.20778320446749987E+01  1.17914044462388645E+01
  1.15056686809805839E+01  1.12207980891270012E+01  1.09369722316653064E+01
  1.06543756832309899E+01  1.03731968674382049E+01  1.00936269364990387E+01
  9.81585869677778788E+00  9.54008558172640520E+00  9.26650067344769823E+00
  8.99529577393549751E+00  8.72666052684620652E+00  8.46078159046400913E+00
  8.19784186233476042E+00  7.93801975585974340E+00  7.68148852896259360E+00
  7.42841566477027815E+00  7.17896230408208602E+00  6.93328272924149136E+00
  6.69152389887211108E+00  6.45382503279402453E+00  6.22031724629837068E+00
  5.99112323282804216E+00  5.76635699399042068E+00  5.54612361571376500E+00
  5.33051908925382190E+00  5.11963017565939627E+00  4.91353431221655157E+00
  4.71229955930898292E+00  4.51598458607905329E+00  4.32463869317506777E+00
  4.13830187083307699E+00  3.95700489049901760E+00  3.78076942815215178E+00
  3.60960821745956517E+00  3.44352523086632489E+00  3.28251588670935046E+00
  3.12656728043254883E+00  2.97565843797752017E+00  2.82976058942762165E+00
  2.68883746099211596E+00  2.55284558343309831E+00  2.42173461505873178E+00
  2.29544767743285361E+00  2.17392170198287049E+00  2.05708778572408058E+00
  1.94487155436039783E+00  1.83719353106391381E+00  1.73396950928709281E+00
  1.63511092802126434E+00  1.54052524795313817E+00  1.45011632704854287E+00
  1.36378479414802212E+00  1.28142841921715545E+00  1.20294247900597995E+00
  1.12822011682301215E+00  1.05715269532672829E+00  9.89630141274843833E-01
  9.25541281220755074E-01  8.64774167233708591E-01  8.07216391794487342E-01
  7.52755391094109050E-01  7.01278736039128159E-01  6.52674410342825473E-01
  6.06831075157444055E-01  5.63638319777575059E-01  5.22986898019345281E-01
  4.84768949953521988E-01  4.48878208742933660E-01  4.15210192405879197E-01
  3.83662380396630698E-01  3.54134374962403631E-01  3.26528047302494684E-01
  3.00747668619928632E-01  2.76700026218802797E-01  2.54294524861260418E-01
  2.33443273656869815E-01  2.14061158813660390E-01  1.96065902634266792E-01
  1.79378109198931240E-01  1.63921297221583467E-01  1.49621920559781796E-01
  1.36409377002935872E-01  1.24216005936629653E-01  1.12977075517291844E-01
  1.02630760025062842E-01  9.31181080848353798E-02  8.43830024618262425E-02
  7.63721121484345344E-02  6.90348374635223055E-02  6.23232488837113102E-02
  5.61920203189745573E-02  5.05983575321576340E-02  4.55019223844253945E-02
  4.08647535666387257E-02  3.66511844508234444E-02  3.28277586668721325E-02
  2.93631439780251170E-02  2.62280449950804927E-02  2.33951152343192907E-02
  2.08388689882318887E-02  1.85355934418430027E-02  1.64632614310970676E-02
  1.46014452037724566E-02  1.29312315081924409E-02  1.14351383041173746E-02
  1.00970333435014079E-02  8.90205484739027379E-03  7.83653448230681691E-03
  6.88792279552970232E-03  6.04471724553780430E-03  5.29639293775381083E-03
  4.63333615091109704E-03  4.04678071616401073E-03  3.52874728948668641E-03
  3.07198553794332894E-03  2.66991924206634547E-03  2.31659429982169780E-03
  2.00662960245311280E-03  1.73517073884473763E-03  1.49784647288570103E-03
  1.29072792762037806E-03  1.11029040067079439E-03  9.53377727469269221E-04
  8.17169102181794461E-04  6.99148260769429509E-04  5.97074926360602982E-04
  5.08958413918517518E-04  4.33033289013261442E-04  3.67736974270492967E-04
  3.11689196859341522E-04  2.63673170559265734E-04  2.22618406107452546E-04
  1.87585047743508109E-04  1.57749634281139733E-04  1.32392186068334381E-04
  1.10884522535745336E-04  9.26797185534743287E-05  7.73026116118819890E-05
  6.43412758516640745E-05  5.34393831350920130E-05  4.42893756212037532E-05
  3.66263786348250227E-05  3.02227869586146199E-05  2.48834619899979564E-05
  2.04414814561020365E-05  1.67543875396209106E-05  1.37008833112073669E-05
  1.11779312678042859E-05  9.09821152379957111E-06  7.38790077900216459E-06
  5.98473658381272715E-06  4.83633463030486517E-06  3.89872981384106992E-06
  3.13511463154909428E-06  2.51475111332759937E-06  2.01203492263769872E-06
  1.60569247816243060E-06  1.27809407432842304E-06  1.01466784523321309E-06
  8.03401131168804965E-07  6.34417385505830159E-07  4.99618178664575517E-07
  3.92381134611890309E-07  3.07305783337490609E-07  2.40000339552896141E-07
  1.86903332786934030E-07  1.45134826287131000E-07  1.12372680544029887E-07
  8.67499503461500425E-08  6.67700601426356509E-08  5.12368887818556627E-08
  3.91973185736013472E-08  2.98941717609611660E-08  2.27277760587985935E-08
  1.72246755948873285E-08  1.30122395667860097E-08  9.79812292045913844E-09
  7.35370563124895505E-09  5.50078356126708213E-09  4.10090781485167240E-09
  3.04687410068484672E-09  2.25595133663321694E-09  1.66451249639605808E-09
  1.22379208620814635E-09  8.96545495761544825E-10  6.54427787207206395E-10
  4.75944328766420659E-10  3.44854306211754613E-10  2.48931577462741184E-10
  1.79006441191308075E-10  1.28227407646140570E-10  9.14946132447317039E-11
  6.50266357042854035E-11  4.60305844952064299E-11  3.24518302314705113E-11
  2.27849020732931334E-11  1.59311772826951696E-11  1.10922200604448558E-11
  7.69016847250799165E-12  5.30855799657421393E-12  3.64852117695092664E-12
  2.49650659107005284E-12  1.70059046041202649E-12  1.15316978656087303E-12
  7.78373903163277779E-13  5.22949151429125379E-13  3.49688407118625154E-13
  2.32716757341115334E-13  1.54124783091069745E-13  1.01575535880118680E-13
  6.66117251093961805E-14  4.34640223242210497E-14  2.82162469444490358E-14
  1.82234568344188843E-14  1.17083635846012925E-14  7.48284854296089629E-15
  4.75679099142982257E-15  3.00751797624612963E-15  1.89112297839908894E-15
  1.18254766435619098E-15  7.35316783528263794E-16  4.54628302731752507E-16
  2.79468891544415300E-16  1.70794527869151438E-16  1.03763827313224951E-16
  6.26638741647296771E-17  3.76144751348276666E-17  2.24401700607001760E-17
  1.33044555082585584E-17  7.83851723308896381E-18  4.58883244267427085E-18
  2.66911466964071408E-18  1.54238889860647367E-18  8.85414497980901820E-19
  5.04881515804065842E-19  2.85947304108259392E-19  1.60841969948308620E-19
  8.98446671865067653E-20  4.98341456064516999E-20  2.74451310955309822E-20
  1.50061230774023863E-20  8.14511926177710890E-21  4.38846365228341374E-21
  2.34678634967684655E-21  1.24548920570726450E-21  6.55949822059064497E-22
  3.42786616415350951E-22  1.77728677015826231E-22  9.14173981277802854E-23
  4.66438764808361479E-23  2.36053812153303956E-23  1.18476875794800657E-23
  5.89681303958254205E-24  2.91015887519339419E-24  1.42391927849592004E-24
  6.90679445030451238E-25  3.32080213360226270E-25  1.58247586495426102E-25
  7.47326793239920785E-26  3.49715202828590208E-26  1.62143487771565042E-26
  7.44758507907240827E-27  3.38853288826628340E-27  1.52699242238986378E-27
  6.81457913025129962E-28  3.01137999496076625E-28  1.31753806413824772E-28
  5.70660637166741990E-29  2.44655599384542737E-29  1.03810086004260040E-29
  4.35887754133306059E-30  1.81093536386396047E-30  7.44334018245313211E-31
  3.02629338498951276E-31  1.21695146354334639E-31  4.83943369058421689E-32
  1.90289138816937315E-32  7.39724197117469465E-33  2.84249199543764870E-33
  1.07953938866154210E-33  4.05156502539455695E-34  1.50240622761370346E-34
  5.50385448157261395E-35  1.99156961432666043E-35  7.11715123347303776E-36
  2.51148977116785867E-36  8.74989197687366651E-37  3.00919781116170370E-37
  1.02142249165000697E-37  3.42133607914344417E-38  1.13070635091571397E-38
  3.68633618935665781E-39  1.18537943301408297E-39  3.75891548191606366E-40
  1.17526248825607605E-40  3.62241112266860019E-41  1.10045810550857093E-41
  3.29445409254269956E-42  9.71734624659145964E-43  2.82348204806008116E-43
  8.08003157435903534E-44  2.27692061897662938E-44  6.31687161747986326E-45
                             </PP_AE_NLCC> 
 <PP_AE_VLOC type="real" size="   999" columns="3">
 -5.61366036859678454E+05 -5.54391267770623672E+05 -5.47503140654739807E+05
 -5.40700579228152172E+05 -5.33982520576797542E+05 -5.27347914990344318E+05
 -5.20795725798172294E+05 -5.14324929207389767E+05 -5.07934514142865839E+05
 -5.01623482089244819E+05 -4.95390846934929315E+05 -4.89235634817996703E+05
 -4.83156883974031545E+05 -4.77153644585848146E+05 -4.71224978635078121E+05
 -4.65369959755605727E+05 -4.59587673088819720E+05 -4.53877215140664717E+05
 -4.48237693640469632E+05 -4.42668227401526121E+05 -4.37167946183404361E+05
 -4.31735990555974247E+05 -4.26371511765118514E+05 -4.21073671600112983E+05
 -4.15841642262653389E+05 -4.10674606237512489E+05 -4.05571756164799503E+05
 -4.00532294713809679E+05 -3.95555434458439820E+05 -3.90640397754149570E+05
 -3.85786416616455535E+05 -3.80992732600930205E+05 -3.76258596684694581E+05
 -3.71583269149381144E+05 -3.66966019465551071E+05 -3.62406126178548555E+05
 -3.57902876795771474E+05 -3.53455567675343016E+05 -3.49063503916166374E+05
 -3.44725999249343877E+05 -3.40442375930948299E+05 -3.36211964636122109E+05
 -3.32034104354494950E+05 -3.27908142286899500E+05 -3.23833433743368951E+05
 -3.19809342042405100E+05 -3.15835238411493949E+05 -3.11910501888859086E+05
 -3.08034519226435688E+05 -3.04206684794047964E+05 -3.00426400484779850E+05
 -2.96693075621518481E+05 -2.93006126864660066E+05 -2.89364978120962158E+05
 -2.85769060453526676E+05 -2.82217811992904055E+05 -2.78710677849299100E+05
 -2.75247110025868227E+05 -2.71826567333094601E+05 -2.68448515304224624E+05
 -2.65112426111758279E+05 -2.61817778484973911E+05 -2.58564057628478884E+05
 -2.55350755141771951E+05 -2.52177368939803739E+05 -2.49043403174526291E+05
 -2.45948368157414923E+05 -2.42891780282953579E+05 -2.39873161953070841E+05
 -2.36892041502513224E+05 -2.33947953125147877E+05 -2.31040436801178585E+05
 -2.28169038225266937E+05 -2.25333308735546510E+05 -2.22532805243517418E+05
 -2.19767090164814406E+05 -2.17035731350832502E+05 -2.14338302021202922E+05
 -2.11674380697108136E+05 -2.09043551135424204E+05 -2.06445402263683092E+05
 -2.03879528115840803E+05 -2.01345527768844768E+05 -1.98843005279988924E+05
 -1.96371569625046104E+05 -1.93930834637170890E+05 -1.91520418946559337E+05
 -1.89139945920859580E+05 -1.86789043606322259E+05 -1.84467344669681421E+05
 -1.82174486340758944E+05 -1.79910110355780227E+05 -1.77673862901395012E+05
 -1.75465394559393404E+05 -1.73284360252107930E+05 -1.71130419188495609E+05
 -1.69003234810887632E+05 -1.66902474742402148E+05 -1.64827810735009465E+05
 -1.62778918618242285E+05 -1.60755478248544241E+05 -1.58757173459246202E+05
 -1.56783692011164734E+05 -1.54834725543814246E+05 -1.52909969527224428E+05
 -1.51009123214357824E+05 -1.49131889594116801E+05 -1.47277975344935141E+05
 -1.45447090788946050E+05 -1.43638949846718926E+05 -1.41853269992559653E+05
 -1.40089772210364928E+05 -1.38348180950025358E+05 -1.36628224084370537E+05
 -1.34929632866648055E+05 -1.33252141888532002E+05 -1.31595489038651926E+05
 -1.29959415461637429E+05 -1.28343665517671718E+05 -1.26747986742546913E+05
 -1.25172129808216618E+05 -1.23615848483837457E+05 -1.22078899597295211E+05
 -1.20561042997208671E+05 -1.19062041515405203E+05 -1.17581660929863297E+05
 -1.16119669928114483E+05 -1.14675840071100451E+05 -1.13249945757479014E+05
 -1.11841764188373127E+05 -1.10451075332558685E+05 -1.09077661892083721E+05
 -1.07721309268315468E+05 -1.06381805528408673E+05 -1.05058941372190864E+05
 -1.03752510099458377E+05 -1.02462307577679661E+05 -1.01188132210098745E+05
 -9.99297849042353628E+04 -9.86870690407765651E+04 -9.74597904428541515E+04
 -9.62477573457046819E+04 -9.50507803667054541E+04 -9.38686724757832999E+04
 -9.27012489661906875E+04 -9.15483274256447621E+04 -9.04097277078254265E+04
 -8.92852719042268000E+04 -8.81747843163588841E+04 -8.70780914282942540E+04
 -8.59950218795555847E+04 -8.49254064383407385E+04 -8.38690779750796210E+04
 -8.28258714363199106E+04 -8.17956238189372962E+04 -8.07781741446655215E+04
 -7.97733634349436907E+04 -7.87810346860753198E+04 -7.78010328446961648E+04
 -7.68332047835470294E+04 -7.58773992775469669E+04 -7.49334669801644632E+04
 -7.40012604000815627E+04 -7.30806338781481027E+04 -7.21714435646221973E+04
 -7.12735473966932332E+04 -7.03868050762846542E+04 -6.95110780481318798E+04
 -6.86462294781328092E+04 -6.77921242319673183E+04 -6.69486288539819943E+04
 -6.61156115463378228E+04 -6.52929421484162958E+04 -6.44804921164815605E+04
 -6.36781345035953927E+04 -6.28857439397811468E+04 -6.21031966124348692E+04
 -6.13303702469791097E+04 -6.05671440877573696E+04 -5.98133988791657757E+04
 -5.90690168470190765E+04 -5.83338816801484281E+04 -5.76078785122274203E+04
 -5.68908939038239696E+04 -5.61828158246753737E+04 -5.54835336361830341E+04
 -5.47929380741254136E+04 -5.41109212315850018E+04 -5.34373765420877389E+04
 -5.27721987629519281E+04 -5.21152839588435963E+04 -5.14665294855367465E+04
 -5.08258339738748400E+04 -5.01930973139317139E+04 -4.95682206393692468E+04
 -4.89511063119892133E+04 -4.83416579064773614E+04 -4.77397801953366506E+04
 -4.71453791340078096E+04 -4.65583618461747683E+04 -4.59786366092524040E+04
 -4.54061128400550151E+04 -4.48407010806423641E+04 -4.42823129843417555E+04
 -4.37308613019437907E+04 -4.31862598680693700E+04 -4.26484235877064566E+04
 -4.21172684229136939E+04 -4.15927113796893755E+04 -4.10746704950035710E+04
 -4.05630648239910661E+04 -4.00578144273039361E+04 -3.95588403586206332E+04
 -3.90660646523106552E+04 -3.85794103112522789E+04 -3.80988012948015239E+04
 -3.76241625069109141E+04 -3.71554197843954753E+04 -3.66924998853446741E+04
 -3.62353304776783043E+04 -3.57838401278443853E+04 -3.53379582896577631E+04
 -3.48976152932770565E+04 -3.44627423343187111E+04 -3.40332714631062408E+04
 -3.36091355740528888E+04 -3.31902683951765357E+04 -3.27766044777444404E+04
 -3.23680791860468998E+04 -3.19646286872978562E+04 -3.15661899416608430E+04
 -3.11727006923991394E+04 -3.07840994561479747E+04 -3.04003255133077582E+04
 -3.00213188985565685E+04 -2.96470203914804733E+04 -2.92773715073204294E+04
 -2.89123144878339008E+04 -2.85517922922701218E+04 -2.81957485884574853E+04
 -2.78441277440015110E+04 -2.74968748175923865E+04 -2.71539355504203013E+04
 -2.68152563576974972E+04 -2.64807843202856129E+04 -2.61504671764271079E+04
 -2.58242533135792874E+04 -2.55020917603499183E+04 -2.51839321785328975E+04
 -2.48697248552428937E+04 -2.45594206951477936E+04 -2.42529712127974599E+04
 -2.39503285250480149E+04 -2.36514453435800278E+04 -2.33562749675097584E+04
 -2.30647712760922077E+04 -2.27768887215147079E+04 -2.24925823217802099E+04
 -2.22118076536788103E+04 -2.19345208458466623E+04 -2.16606785719111977E+04
 -2.13902380437213251E+04 -2.11231570046619381E+04 -2.08593937230513329E+04
 -2.05989069856206479E+04 -2.03416560910744665E+04 -2.00876008437312048E+04
 -1.98367015472426829E+04 -1.95889189983916367E+04 -1.93442144809662605E+04
 -1.91025497597109570E+04 -1.88638870743521002E+04 -1.86281891336981498E+04
 -1.83954191098129922E+04 -1.81655406322616545E+04 -1.79385177824275888E+04
 -1.77143150879004388E+04 -1.74928975169336809E+04 -1.72742304729709904E+04
 -1.70582797892406561E+04 -1.68450117234172103E+04 -1.66343929523492698E+04
 -1.64263905668530097E+04 -1.62209720665702298E+04 -1.60181053548902946E+04
 -1.58177587339352958E+04 -1.56199008996073335E+04 -1.54245009366975009E+04
 -1.52315283140555366E+04 -1.50409528798195024E+04 -1.48527448567048159E+04
 -1.46668748373516573E+04 -1.44833137797303734E+04 -1.43020330026038191E+04
 -1.41230041810461244E+04 -1.39461993420172057E+04 -1.37715908599921513E+04
 -1.35991514526450246E+04 -1.34288541765862137E+04 -1.32606724231527824E+04
 -1.30945799142511569E+04 -1.29305506982513998E+04 -1.27685591459325697E+04
 -1.26085799464784377E+04 -1.24505881035229322E+04 -1.22945589312448010E+04
 -1.21404680505106990E+04 -1.19882913850663062E+04 -1.18380051577747145E+04
 -1.16895858869015610E+04 -1.15430103824463731E+04 -1.13982557425194391E+04
 -1.12552993497637563E+04 -1.11141188678214439E+04 -1.09746922378440031E+04
 -1.08369976750460610E+04 -1.07010136653018108E+04 -1.05667189617838867E+04
 -1.04340925816439103E+04 -1.03031138027343259E+04 -1.01737621603710049E+04
 -1.00460174441360450E+04 -9.91985969472033503E+03 -9.79526920080537093E+03
 -9.67222649598377939E+03 -9.55071235571819489E+03 -9.43070779433787538E+03
 -9.31219406207266184E+03 -9.19515264212385409E+03 -9.07956524777141385E+03
 -8.96541381951721451E+03 -8.85268052226374675E+03 -8.74134774252790703E+03
 -8.63139808568944500E+03 -8.52281437327358435E+03 -8.41557964026746595E+03
 -8.30967713246992389E+03 -8.20509030387420717E+03 -8.10180281408328210E+03
 -7.99979852575721543E+03 -7.89906150209234784E+03 -7.79957600433177777E+03
 -7.70132648930680352E+03 -7.60429760700896350E+03 -7.50847419819221795E+03
 -7.41384129200500956E+03 -7.32038410365172240E+03 -7.22808803208323206E+03
 -7.13693865771620040E+03 -7.04692174018070364E+03 -6.95802321609589944E+03
 -6.87022919687334161E+03 -6.78352596654760964E+03 -6.69789997963395490E+03
 -6.61333785901255033E+03 -6.52982639383909464E+03 -6.44735253748138257E+03
 -6.36590340548155109E+03 -6.28546627354368775E+03 -6.20602857554644106E+03
 -6.12757790158040370E+03 -6.05010199600986562E+03 -5.97358875555870327E+03
 -5.89802622742009862E+03 -5.82340260738973575E+03 -5.74970623802228147E+03
 -5.67692560681075884E+03 -5.60504934438858345E+03 -5.53406622275401151E+03
 -5.46396515351662219E+03 -5.39473518616568072E+03 -5.32636550636001266E+03
 -5.25884543423917057E+03 -5.19216442275563986E+03 -5.12631205602777027E+03
 -5.06127804771323372E+03 -4.99705223940271844E+03 -4.93362459903360832E+03
 -4.87098521932343010E+03 -4.80912431622277654E+03 -4.74803222738750992E+03
 -4.68769941066997217E+03 -4.62811644262897153E+03 -4.56927401705834291E+03
 -4.51116294353379362E+03 -4.45377414597787720E+03 -4.39709866124280234E+03
 -4.34112763771089703E+03 -4.28585233391250495E+03 -4.23126411716107395E+03
 -4.17735446220525682E+03 -4.12411494989777657E+03 -4.07153726588087011E+03
 -4.01961319928811054E+03 -3.96833464146236884E+03 -3.91769358468976361E+03
 -3.86768212094935416E+03 -3.81829244067839727E+03 -3.76951683155299997E+03
 -3.72134767728392262E+03 -3.67377745642739228E+03 -3.62679874121071225E+03
 -3.58040419637248669E+03 -3.53458657801728987E+03 -3.48933873248458303E+03
 -3.44465359523170901E+03 -3.40052418973079011E+03 -3.35694362637935092E+03
 -3.31390510142449602E+03 -3.27140189590047066E+03 -3.22942737457943758E+03
 -3.18797498493531066E+03 -3.14703825612046467E+03 -3.10661079795518071E+03
 -3.06668629992964725E+03 -3.02725853021837065E+03 -2.98832133470683948E+03
 -2.94986863603027541E+03 -2.91189443262433724E+03 -2.87439279778760783E+03
 -2.83735787875572851E+03 -2.80078389578702718E+03 -2.76466514125949743E+03
 -2.72899597877897941E+03 -2.69377084229840739E+03 -2.65898423524797909E+03
 -2.62463072967610742E+03 -2.59070496540101931E+03 -2.55720164917286047E+03
 -2.52411555384618259E+03 -2.49144151756266865E+03 -2.45917444294396682E+03
 -2.42730929629451748E+03 -2.39584110681421635E+03 -2.36476496582081927E+03
 -2.33407602598193944E+03 -2.30376950055652424E+03 -2.27384066264568582E+03
 -2.24428484445276126E+03 -2.21509743655249213E+03 -2.18627388716919086E+03
 -2.15780970146378786E+03 -2.12970044082964114E+03 -2.10194172219698521E+03
 -2.07452921734591973E+03 -2.04745865222781367E+03 -2.02072580629501999E+03
 -1.99432651183879284E+03 -1.96825665333528900E+03 -1.94251216679955746E+03
 -1.91708903914740699E+03 -1.89198330756504174E+03 -1.86719105888636886E+03
 -1.84270842897786929E+03 -1.81853160213093156E+03 -1.79465681046155123E+03
 -1.77108033331729098E+03 -1.74779849669141004E+03 -1.72480767264405608E+03
 -1.70210427873043204E+03 -1.67968477743584026E+03 -1.65754567561750309E+03
 -1.63568352395308398E+03 -1.61409491639579051E+03 -1.59277648963599609E+03
 -1.57172492256927171E+03 -1.55093693577074282E+03 -1.53040929097569278E+03
 -1.51013879056630822E+03 -1.49012227706449744E+03 -1.47035663263068568E+03
 -1.45083877856850972E+03 -1.43156567483532422E+03 -1.41253431955843962E+03
 -1.39374174855701222E+03 -1.37518503486950249E+03 -1.35686128828662640E+03
 -1.33876765488972001E+03 -1.32090131659443819E+03 -1.30325949069971534E+03
 -1.28583942944191108E+03 -1.26863841955406497E+03 -1.25165378183019084E+03
 -1.23488287069453645E+03 -1.21832307377573625E+03 -1.20197181148579125E+03
 -1.18582653660380242E+03 -1.16988473386439318E+03 -1.15414391955075257E+03
 -1.13860164109223274E+03 -1.12325547666643888E+03 -1.10810303480574316E+03
 -1.09314195400816516E+03 -1.07836990235255598E+03 -1.06378457711802230E+03
 -1.04938370440753670E+03 -1.03516503877567311E+03 -1.02112636286041027E+03
 -1.00726548701895092E+03 -9.93580248967498278E+02 -9.80068513424939169E+02
 -9.66728171760383134E+02 -9.53557141644502849E+02 -9.40553366704631117E+02
 -9.27714816183563471E+02 -9.15039484602021844E+02 -9.02525391424731538E+02
 -8.90170580730071379E+02 -8.77973120883249180E+02 -8.65931104212967853E+02
 -8.54042646691537016E+02 -8.42305887618395786E+02 -8.30718989307006609E+02
 -8.19280136775087612E+02 -8.07987537438149843E+02 -7.96839420806304702E+02
 -7.85834038184312590E+02 -7.74969662374845029E+02 -7.64244587384929787E+02
 -7.53657128135555354E+02 -7.43205620174410683E+02 -7.32888419391734715E+02
 -7.22703901739258981E+02 -7.12650462952220778E+02 -7.02726518274429736E+02
 -6.92930502186373019E+02 -6.83260868136345039E+02 -6.73716088274585331E+02
 -6.64294653190419581E+02 -6.54995071652390266E+02 -6.45815870351369881E+02
 -6.36755593646653324E+02 -6.27812803315021370E+02 -6.18986078302776946E+02
 -6.10274014480750679E+02 -6.01675224402275262E+02 -5.93188337064136135E+02
 -5.84811997670496112E+02 -5.76544867399804389E+02 -5.68385623174694615E+02
 -5.60332957434880427E+02 -5.52385577913060729E+02 -5.44542207413843016E+02
 -5.36801583595700663E+02 -5.29162458755975649E+02 -5.21623599618944127E+02
 -5.14183787126960624E+02 -5.06841816234698513E+02 -4.99596495706506403E+02
 -4.92446647916898939E+02 -4.85391108654203549E+02 -4.78428726927385071E+02
 -4.71558364776069141E+02 -4.64778897083789332E+02 -4.58089211394478582E+02
 -4.51488207732231899E+02 -4.44974798424362575E+02 -4.38547907927775668E+02
 -4.32206472658685414E+02 -4.25949440825698957E+02 -4.19775772266290289E+02
 -4.13684438286690181E+02 -4.07674421505212706E+02 -4.01744715699043638E+02
 -3.95894325654509089E+02 -3.90122267020849392E+02 -3.84427566167513362E+02
 -3.78809260044995938E+02 -3.73266396049231503E+02 -3.67798031889561571E+02
 -3.62403235460288158E+02 -3.57081084715826137E+02 -3.51830667549461452E+02
 -3.46651081675723276E+02 -3.41541434516375205E+02 -3.36500843090024546E+02
 -3.31528433905350312E+02 -3.26623342857944863E+02 -3.21784715130759992E+02
 -3.17011705098147957E+02 -3.12303476233480410E+02 -3.07659201020329078E+02
 -3.03078060867181023E+02 -2.98559246025664038E+02 -2.94101955512249162E+02
 -2.89705397033394831E+02 -2.85368786914092709E+02 -2.81091350029766716E+02
 -2.76872319741478236E+02 -2.72710937834377717E+02 -2.68606454459344775E+02
 -2.64558128077748734E+02 -2.60565225409258517E+02 -2.56627021382624150E+02
 -2.52742799089347528E+02 -2.48911849740153912E+02 -2.45133472624169372E+02
 -2.41406975070706039E+02 -2.37731672413547528E+02 -2.34106887957626469E+02
 -2.30531952947974077E+02 -2.27006206540822490E+02 -2.23528995776731335E+02
 -2.20099675555604705E+02 -2.16717608613461579E+02 -2.13382165500815859E+02
 -2.10092724562517873E+02 -2.06848671918904159E+02 -2.03649401448098786E+02
 -2.00494314769303998E+02 -1.97382821226913933E+02 -1.94314337875283343E+02
 -1.91288289463977549E+02 -1.88304108423331996E+02 -1.85361234850129165E+02
 -1.82459116493223803E+02 -1.79597208738931727E+02 -1.76774974595995701E+02
 -1.73991884679943183E+02 -1.71247417196649820E+02 -1.68541057924921319E+02
 -1.65872300197908174E+02 -1.63240644883166880E+02 -1.60645600361185075E+02
 -1.58086682502186306E+02 -1.55563414641037070E+02 -1.53075327550076935E+02
 -1.50621959409700736E+02 -1.48202855776522654E+02 -1.45817569548957891E+02
 -1.43465660930063251E+02 -1.41146697387483783E+02 -1.38860253610358512E+02
 -1.36605911463045459E+02 -1.34383259935534312E+02 -1.32191895090423600E+02
 -1.30031420006345598E+02 -1.27901444717734819E+02 -1.25801586150843633E+02
 -1.23731468055918143E+02 -1.21690720935461087E+02 -1.19678981968517490E+02
 -1.17695894930933747E+02 -1.15741110111538546E+02 -1.13814284224228643E+02
 -1.11915080315943058E+02 -1.10043167670523175E+02 -1.08198221708469930E+02
 -1.06379923882622492E+02 -1.04587961569798054E+02 -1.02822027958444721E+02
 -1.01081821932374552E+02 -9.93670479506575646E+01 -9.76774159237713917E+01
 -9.60126410861156216E+01 -9.43724438650136648E+01 -9.27565497463389477E+01
 -9.11646891369161239E+01 -8.95965972238604849E+01 -8.80520138310336336E+01
 -8.65306832728044810E+01 -8.50323542053179438E+01 -8.35567794754864792E+01
 -8.21037159679290767E+01 -8.06729244500958913E+01 -7.92641694158245826E+01
 -7.78772189275863411E+01 -7.65118444576873316E+01 -7.51678207287004767E+01
 -7.38449255534091691E+01 -7.25429396745523150E+01 -7.12616466046658132E+01
 -7.00008324663218673E+01 -6.87602858330694318E+01 -6.75397975713839998E+01
 -6.63391606839370240E+01 -6.51581701544962186E+01 -6.39966227947691308E+01
 -6.28543170935016349E+01 -6.17310530681402057E+01 -6.06266321193663984E+01
 -5.95408568888062746E+01 -5.84735311202136501E+01 -5.74244595244206906E+01
 -5.63934476483416915E+01 -5.53803017483089945E+01 -5.43848286680108757E+01
 -5.34068357212916851E+01 -5.24461305800635600E+01 -5.15025211675678634E+01
 -5.05758155572121169E+01 -4.96658218771944249E+01 -4.87723482211137096E+01
 -4.78952025647491553E+01 -4.70341926891763649E+01 -4.61891261103719799E+01
 -4.53598100154401109E+01 -4.45460512055787134E+01 -4.37476560458886965E+01
 -4.29644304221008326E+01 -4.21961797042839351E+01 -4.14427087175771121E+01
 -4.07038217199696106E+01 -3.99793223871313614E+01 -3.92690138042779964E+01
 -3.85726984650343994E+01 -3.78901782772403237E+01 -3.72212545756222752E+01
 -3.65657281412358870E+01 -3.59233992275637704E+01 -3.52940675931338532E+01
 -3.46775325405056236E+01 -3.40735929614514106E+01 -3.34820473881432008E+01
 -3.29026940501373630E+01 -3.23353309369325785E+01 -3.17797558658602455E+01
 -3.12357665550508798E+01 -3.07031607012054373E+01 -3.01817360618860064E+01
 -2.96712905420279327E+01 -2.91716222843628330E+01 -2.86825297634312228E+01
 -2.82038118828560016E+01 -2.77352680755279586E+01 -2.72766984063580402E+01
 -2.68279036772436612E+01 -2.63886855338862603E+01 -2.59588465740943946E+01
 -2.55381904572039105E+01 -2.51265220142444470E+01 -2.47236473584813048E+01
 -2.43293739959621362E+01 -2.39435109357000790E+01 -2.35658687991280260E+01
 -2.31962599284636930E+01 -2.28344984936304591E+01 -2.24804005973870069E+01
 -2.21337843783259594E+01 -2.17944701114128563E+01 -2.14622803057464573E+01
 -2.11370397992339569E+01 -2.08185758498883011E+01 -2.05067182234677610E+01
 -2.02012992771952646E+01 -1.99021540393092415E+01 -1.96091202842163526E+01
 -1.93220386030343292E+01 -1.90407524693327090E+01 -1.87651082999048455E+01
 -1.84949555103959327E+01 -1.82301465656692656E+01 -1.79705370248037148E+01
 -1.77159855806283346E+01 -1.74663540937264123E+01 -1.72215076208628588E+01
 -1.69813144378116831E+01 -1.67456460565815171E+01 -1.65143772370595343E+01
 -1.62873859931153326E+01 -1.60645535932278278E+01 -1.58457645557185671E+01
 -1.56309066386952331E+01 -1.54198708248283758E+01 -1.52125513011028488E+01
 -1.50088454337033657E+01 -1.48086537382097614E+01 -1.46118798452934193E+01
 -1.44184304621202379E+01 -1.42282153296788554E+01 -1.40411471762640776E+01
 -1.38571416673556929E+01 -1.36761173521418922E+01 -1.34979956069429985E+01
 -1.33227005757993098E+01 -1.31501591084895928E+01 -1.29803006962333303E+01
 -1.28130574053623931E+01 -1.26483638092271455E+01 -1.24861569186013259E+01
 -1.23263761108480612E+01 -1.21689630581047030E+01 -1.20138616547380543E+01
 -1.18610179443139199E+01 -1.17103800463173648E+01 -1.15618980828498277E+01
 -1.14155241055202126E+01 -1.12712120227355879E+01 -1.11289175275859886E+01
 -1.09885980265062653E+01 -1.08502125688852118E+01 -1.07137217777803002E+01
 -1.05790877818830893E+01 -1.04462741488681470E+01 -1.03152458202452113E+01
 -1.01859690478218354E+01 -1.00584113318709125E+01 -9.93254136108569163E+00
 -9.80832895439193209E+00 -9.68574500467614108E+00 -9.56476142447768041E+00
 -9.44535109367807735E+00 -9.32748780921323473E+00 -9.21114623682691658E+00
 -9.09630186487015990E+00 -8.98293096014304204E+00 -8.87101052576770677E+00
 -8.76051826107317666E+00 -8.65143252346570790E+00 -8.54373229225144826E+00
 -8.43739713437247296E+00 -8.33240717201165637E+00 -8.22874305201740164E+00
 -8.12638591709472280E+00 -8.02531737870569017E+00 -7.92551949161946645E+00
 -7.82697473004947852E+00 -7.72966596531330818E+00 -7.63357644494966436E+00
 -7.53868977322571698E+00 -7.44498989296772251E+00 -7.35246106864749294E+00
 -7.26108787065810990E+00 -7.17085516071235674E+00 -7.08174807829896924E+00
 -6.99375202813258223E+00 -6.90685266853506175E+00 -6.82103590068755317E+00
 -6.73628785869470370E+00 -6.65259490040484014E+00 -6.56994359893159263E+00
 -6.48832073482534888E+00 -6.40771328884499702E+00 -6.32810843528308276E+00
 -6.24949353580023637E+00 -6.17185613372673014E+00 -6.09518394879214753E+00
 -6.01946487224615989E+00 -5.94468696233616267E+00 -5.87083844010975309E+00
 -5.79790768551228730E+00 -5.72588323375218877E+00 -5.65475377190863249E+00
 -5.58450813575837834E+00 -5.51513530680034236E+00 -5.44662440945849990E+00
 -5.37896470844538310E+00 -5.31214560626992593E+00 -5.24615664087517786E+00
 -5.18098748339255710E+00 -5.11662793600092503E+00 -5.05306792987959863E+00
 -4.99029752324589104E+00 -4.92830689946853440E+00 -4.86708636524946492E+00
 -4.80662634886711970E+00 -4.74691739847524286E+00 -4.68795018045199541E+00
 -4.62971547779459680E+00 -4.57220418855537680E+00 -4.51540732431566560E+00
 -4.45931600869433442E+00 -4.40392147588823057E+00 -4.34921506924199353E+00
 -4.29518823984527298E+00 -4.24183254515541019E+00 -4.18913964764399793E+00
 -4.13710131346592735E+00 -4.08570941114972896E+00 -4.03495591030810452E+00
 -3.98483288036776973E+00 -3.93533248931775415E+00 -3.88644700247551000E+00
 -3.83816878127018635E+00 -3.79049028204247485E+00 -3.74340405486063554E+00
 -3.69690274235220828E+00 -3.65097907855105230E+00 -3.60562588775936144E+00
 -3.56083608342430136E+00 -3.51660266702910240E+00 -3.47291872699821358E+00
 -3.42977743761628240E+00 -3.38717205796090015E+00 -3.34509593084863921E+00
 -3.30354248179440857E+00 -3.26250521798378967E+00 -3.22197772725822684E+00
 -3.18195367711293287E+00 -3.14242681370722643E+00 -3.10339096088723920E+00
 -3.06484001922078608E+00 -3.02676796504423784E+00 -2.98916884952126738E+00
 -2.95203679771327865E+00 -2.91536600766142229E+00 -2.87915074947999150E+00
 -2.84338536446111290E+00 -2.80806426419052402E+00 -2.77318192967439670E+00
 -2.73873291047695488E+00 -2.70471182386883902E+00 -2.67111335398602501E+00
 -2.63793225099922335E+00 -2.60516333029358282E+00 -2.57280147165855766E+00
 -2.54084161848789813E+00 -2.50927877698951995E+00 -2.47810801540522219E+00
 -2.44732446324008635E+00 -2.41692331050145226E+00 -2.38689980694735793E+00
 -2.35724926134428525E+00 -2.32796704073416194E+00 -2.29904856971043836E+00
 -2.27048932970318784E+00 -2.24228485827305235E+00 -2.21443074841398690E+00
 -2.18692264786465573E+00 -2.15975625842838515E+00 -2.13292733530155765E+00
 -2.10643168641034340E+00 -2.08026517175570280E+00 -2.05442370276648401E+00
 -2.02890324166057878E+00 -2.00369980081402144E+00 -1.97880944213790144E+00
 -1.95422827646304054E+00 -1.92995246293228417E+00 -1.90597820840038179E+00
 -1.88230176684128714E+00 -1.85891943876283827E+00 -1.83582757062869795E+00
 -1.81302255428748560E+00 -1.79050082640900854E+00 -1.76825886792746001E+00
 -1.74629320349157613E+00 -1.72460040092160027E+00 -1.70317707067299806E+00
 -1.68201986530683101E+00 -1.66112547896671225E+00 -1.64049064686227175E+00
 -1.62011214475901011E+00 -1.59998678847451026E+00 -1.58011143338090743E+00
 -1.56048297391353552E+00 -1.54109834308566729E+00 -1.52195451200929410E+00
 -1.50304848942186253E+00 -1.48437732121887866E+00 -1.46593808999232866E+00
 -1.44772791457481254E+00 -1.42974394958937667E+00 -1.41198338500490284E+00
 -1.39444344569703715E+00 -1.37712139101458009E+00 -1.36001451435124454E+00
 -1.34312014272275104E+00 -1.32643563634915562E+00 -1.30995838824239308E+00
 -1.29368582379892816E+00 -1.27761540039745469E+00 -1.26174460700162561E+00
 -1.24607096376767901E+00 -1.23059202165697412E+00 -1.21530536205331319E+00
 -1.20020859638503130E+00 -1.18529936575177852E+00 -1.17057534055593537E+00
 -1.15603422013860935E+00 -1.14167373242014758E+00 -1.12749163354513260E+00
 -1.11348570753175991E+00 -1.09965376592559405E+00 -1.08599364745761706E+00
 -1.07250321770652635E+00 -1.05918036876523036E+00 -1.04602301891147209E+00
 -1.03302911228256789E+00 -1.02019661855417243E+00 -1.00752353262303429E+00
 -9.95007874293690642E-01 -9.82647687969065875E-01 -9.70441042344899918E-01
 -9.58386030107977072E-01 -9.46480767638111287E-01 -9.34723394713819600E-01
 -9.23112074221663970E-01 -9.11644991869191568E-01 -9.00320355901453984E-01
 -8.89136396821043173E-01 -8.78091367111597632E-01 -8.67183540964755917E-01
 -8.56411214010487143E-01 -8.45772703050790553E-01 -8.35266345796683796E-01
 -8.24890500608469690E-01 -8.14643546239229521E-01 -8.04523881581493572E-01
                             </PP_AE_VLOC> 
                                      </PP_PAW> 
 <PP_GIPAW gipaw_data_format="2">
  <PP_GIPAW_CORE_ORBITALS number_of_core_orbitals=" 3">
   <PP_GIPAW_CORE_ORBITAL.1 type="real" size="   999" columns="3" index="1" label="1S" n="1" l="0">
  7.42125620716155548E-03  7.51387552174765088E-03  7.60764965465704403E-03
  7.70259297641582175E-03  7.79872003446559648E-03  7.89604555905227060E-03
  7.99458446419229300E-03  8.09435184501951580E-03  8.19536298464208432E-03
  8.29763335812144787E-03  8.40117863067568055E-03  8.50601465949128721E-03
  8.61215750071311903E-03  8.71962341027496257E-03  8.82842884191675260E-03
  8.93859045470125901E-03  9.05012511612704462E-03  9.16304989938794730E-03
  9.27738208926230136E-03  9.39313918712103742E-03  9.51033890858430861E-03
  9.62899918779668192E-03  9.74913818360033033E-03  9.87077427755234278E-03
  9.99392607760581954E-03  1.01186124246719703E-02  1.02448523906170496E-02
  1.03726652824846343E-02  1.05020706487028870E-02  1.06330882767924698E-02
  1.07657381991327177E-02  1.09000406978126772E-02  1.10360163025002411E-02
  1.11736857981678799E-02  1.13130702272184400E-02  1.14541908894540342E-02
  1.15970693504006093E-02  1.17417274403249713E-02  1.18881872586089187E-02
  1.20364711794760590E-02  1.21866018504876994E-02  1.23386022008711519E-02
  1.24924954418864260E-02  1.26483050704091649E-02  1.28060548750618917E-02
  1.29657689352432551E-02  1.31274716296035775E-02  1.32911876356901788E-02
  1.34569419357742897E-02  1.36247598204832336E-02  1.37946668906393996E-02
  1.39666890644395761E-02  1.41408525769973637E-02  1.43171839887484484E-02
  1.44957101851413209E-02  1.46764583841537313E-02  1.48594561376250572E-02
  1.50447313370744087E-02  1.52323122169064750E-02  1.54222273587146796E-02
  1.56145056959467402E-02  1.58091765172205245E-02  1.60062694718964005E-02
  1.62058145729440765E-02  1.64078422029293146E-02  1.66123831168807634E-02
  1.68194684482885770E-02  1.70291297123465850E-02  1.72413988116118591E-02
  1.74563080399657601E-02  1.76738900876062567E-02  1.78941780460404633E-02
  1.81172054121445797E-02  1.83430060943765225E-02  1.85716144158573314E-02
  1.88030651216405283E-02  1.90373933812757364E-02  1.92746347963250568E-02
  1.95148254035510428E-02  1.97580016814009191E-02  2.00042005549799125E-02
  2.02534594007357342E-02  2.05058160533321751E-02  2.07613088092663198E-02
  2.10199764340549544E-02  2.12818581669510301E-02  2.15469937264467226E-02
  2.18154233170602396E-02  2.20871876336729417E-02  2.23623278684819959E-02
  2.26408857167739105E-02  2.29229033821007171E-02  2.32084235834874204E-02
  2.34974895608829476E-02  2.37901450811273431E-02  2.40864344450530329E-02
  2.43864024931229502E-02  2.46900946117973585E-02  2.49975567406477937E-02
  2.53088353783793157E-02  2.56239775893091146E-02  2.59430310106305712E-02
  2.62660438589211211E-02  2.65930649366082697E-02  2.69241436393929182E-02
  2.72593299632433138E-02  2.75986745110730555E-02  2.79422285000472705E-02
  2.82900437690393504E-02  2.86421727858309980E-02  2.89986686542239198E-02
  2.93595851217454615E-02  2.97249765872784240E-02  3.00948981086285074E-02
  3.04694054100445033E-02  3.08485548901484379E-02  3.12324036298992046E-02
  3.16210094005335840E-02  3.20144306715435187E-02  3.24127266187442045E-02
  3.28159571326219895E-02  3.32241828266514466E-02  3.36374650456819080E-02
  3.40558658744060244E-02  3.44794481458781388E-02  3.49082754502372319E-02
  3.53424121434937691E-02  3.57819233563753808E-02  3.62268750032669618E-02
  3.66773337912458045E-02  3.71333672292015679E-02  3.75950436370523153E-02
  3.80624321550965261E-02  3.85356027534354897E-02  3.90146262414882358E-02
  3.94995742776052469E-02  3.99905193787807103E-02  4.04875349304647872E-02
  4.09906951964759889E-02  4.15000753290141536E-02  4.20157513787748280E-02
  4.25378003051639988E-02  4.30662999866203225E-02  4.36013292310384604E-02
  4.41429677862948400E-02  4.46912963508782554E-02  4.52463965846253008E-02
  4.58083511195621698E-02  4.63772435708525652E-02  4.69531585478527511E-02
  4.75361816652745406E-02  4.81263995544559675E-02  4.87238998747412735E-02
  4.93287713249701762E-02  4.99411036550768753E-02  5.05609876778000331E-02
  5.11885152805032009E-02  5.18237794371073299E-02  5.24668742201350874E-02
  5.31178948128679107E-02  5.37769375216160805E-02  5.44440997880995328E-02
  5.51194802019449107E-02  5.58031785132983710E-02  5.64952956455520017E-02
  5.71959337081857158E-02  5.79051960097244633E-02  5.86231870708117525E-02
  5.93500126373992659E-02  6.00857796940533762E-02  6.08305964773783112E-02
  6.15845724895456720E-02  6.23478185119425293E-02  6.31204466189587282E-02
  6.39025701918811834E-02  6.46943039329049840E-02  6.54957638792622310E-02
  6.63070674174661562E-02  6.71283332976419789E-02  6.79596816480168842E-02
  6.88012339895414798E-02  6.96531132506099382E-02  7.05154437818975438E-02
  7.13883513712782747E-02  7.22719632588722655E-02  7.31664081522835491E-02
  7.40718162419127246E-02  7.49883192163723067E-02  7.59160502779479135E-02
  7.68551441582913802E-02  7.78057371342348314E-02  7.87679670436710749E-02
  7.97419733014563953E-02  8.07278969155589138E-02  8.17258805033526520E-02
  8.27360683079305520E-02  8.37586062144335952E-02  8.47936417667179282E-02
  8.58413241840702279E-02  8.69018043778641003E-02  8.79752349684452262E-02
  8.90617703022555246E-02  9.01615664688396046E-02  9.12747813179579787E-02
  9.24015744770723263E-02  9.35421073686737298E-02  9.46965432276664631E-02
  9.58650471191835746E-02  9.70477859561765660E-02  9.82449285171207443E-02
  9.94566454641292591E-02  1.00683109360733589E-01  1.01924494689989320E-01
  1.03180977872792207E-01  1.04452737285846517E-01  1.05739953280228047E-01
  1.07042808199706921E-01  1.08361486399117732E-01  1.09696174263174656E-01
  1.11047060224786609E-01  1.12414334784022907E-01  1.13798190526735982E-01
  1.15198822143374860E-01  1.16616426448034813E-01  1.18051202397125798E-01
  1.19503351108709799E-01  1.20973075881192868E-01  1.22460582212742655E-01
  1.23966077820152815E-01  1.25489772658211374E-01  1.27031878938778875E-01
  1.28592611150077141E-01  1.30172186075946328E-01  1.31770822815071076E-01
  1.33388742800353455E-01  1.35026169818102837E-01  1.36683330027457695E-01
  1.38360451979562926E-01  1.40057766636975251E-01  1.41775507392848082E-01
  1.43513910090252689E-01  1.45273213041391180E-01  1.47053657046762987E-01
  1.48855485414422922E-01  1.50678943978930113E-01  1.52524281120645006E-01
  1.54391747784432098E-01  1.56281597498932417E-01  1.58194086395066630E-01
  1.60129473225126273E-01  1.62088019381209453E-01  1.64069988913918746E-01
  1.66075648550847998E-01  1.68105267714760309E-01  1.70159118542078214E-01
  1.72237475900640979E-01  1.74340617407897358E-01  1.76468823448539397E-01
  1.78622377192048404E-01  1.80801564610314963E-01  1.83006674494569227E-01
  1.85237998472632448E-01  1.87495831025638104E-01  1.89780469504475469E-01
  1.92092214146354884E-01  1.94431368090649676E-01  1.96798237394767400E-01
  1.99193131049785921E-01  2.01616360995431870E-01  2.04068242135160088E-01
  2.06549092350748947E-01  2.09059232516335097E-01  2.11598986512483489E-01
  2.14168681239660291E-01  2.16768646631167933E-01  2.19399215666027408E-01
  2.22060724381220292E-01  2.24753511883343665E-01  2.27477920360130315E-01
  2.30234295091325675E-01  2.33022984458883309E-01  2.35844339956928384E-01
  2.38698716201103389E-01  2.41586470937151715E-01  2.44507965049086479E-01
  2.47463562566818396E-01  2.50453630672975491E-01  2.53478539709041883E-01
  2.56538663181037963E-01  2.59634377764364099E-01  2.62766063307789677E-01
  2.65934102836834385E-01  2.69138882556405779E-01  2.72380791852515680E-01
  2.75660223293074880E-01  2.78977572628010817E-01  2.82333238788434027E-01
  2.85727623884798720E-01  2.89161133204053289E-01  2.92634175205969960E-01
  2.96147161518380386E-01  2.99700506931306565E-01  3.03294629389937953E-01
  3.06929949986634032E-01  3.10606892951718339E-01  3.14325885643033931E-01
  3.18087358534200559E-01  3.21891745201685842E-01  3.25739482310589412E-01
  3.29631009599020364E-01  3.33566769861053269E-01  3.37547208928218656E-01
  3.41572775649627292E-01  3.45643921870522397E-01  3.49761102409247737E-01
  3.53924775032571803E-01  3.58135400429350825E-01  3.62393442182568026E-01
  3.66699366739570154E-01  3.71053643380490350E-01  3.75456744184796853E-01
  3.79909143995912635E-01  3.84411320383956312E-01  3.88963753606437146E-01
  3.93566926566869701E-01  3.98221324771258878E-01  4.02927436282378981E-01
  4.07685751671836516E-01  4.12496763969871505E-01  4.17360968612769612E-01
  4.22278863387845926E-01  4.27250948375950346E-01  4.32277725891399178E-01
  4.37359700419311659E-01  4.42497378550306408E-01  4.47691268912418505E-01
  4.52941882100204363E-01  4.58249730600959526E-01  4.63615328717975506E-01
  4.69039192490749546E-01  4.74521839612133289E-01  4.80063789342299208E-01
  4.85665562419443919E-01  4.91327680967155733E-01  4.97050668398378914E-01
  5.02835049315881633E-01  5.08681349409142447E-01  5.14590095347598253E-01
  5.20561814670171374E-01  5.26597035670960834E-01  5.32696287281020586E-01
  5.38860098946143617E-01  5.45089000500560972E-01  5.51383522036463236E-01
  5.57744193769249441E-01  5.64171545898414228E-01  5.70666108464008226E-01
  5.77228411198532632E-01  5.83858983374185958E-01  5.90558353645372902E-01
  5.97327049886364092E-01  6.04165599024019451E-01  6.11074526865468259E-01
  6.18054357920636899E-01  6.25105615219526234E-01  6.32228820124149493E-01
  6.39424492135008293E-01  6.46693148692004338E-01  6.54035304969668774E-01
  6.61451473666617829E-01  6.68942164789112614E-01  6.76507885428619837E-01
  6.84149139533262507E-01  6.91866427673040074E-01  6.99660246798717855E-01
  7.07531089994253404E-01  7.15479446222674675E-01  7.23505800065278315E-01
  7.31610631454027271E-01  7.39794415397043825E-01  7.48057621697072239E-01
  7.56400714662803120E-01  7.64824152812942581E-01  7.73328388572899983E-01
  7.81913867963992981E-01  7.90581030285040232E-01  7.99330307786233818E-01
  8.08162125335172510E-01  8.17076900074935386E-01  8.26075041074088579E-01
  8.35156948968508561E-01  8.44323015594908965E-01  8.53573623615954014E-01
  8.62909146136847771E-01  8.72329946313288751E-01  8.81836376950679512E-01
  8.91428780094487339E-01  9.01107486611643083E-01  9.10872815762876042E-01
  9.20725074765885165E-01  9.30664558349240112E-01  9.40691548296916702E-01
  9.50806312983372592E-01  9.61009106899063381E-01  9.71300170166317423E-01
  9.81679728045474098E-01  9.92147990431206828E-01  1.00270515133894778E+00
  1.01335138838133676E+00  1.02408686223462642E+00  1.03491171609497457E+00
  1.04582607512455450E+00  1.05683004588743068E+00  1.06792371577514356E+00
  1.07910715242195598E+00  1.09038040310972151E+00  1.10174349416233164E+00
  1.11319643032972415E+00  1.12473919416141666E+00  1.13637174536955943E+00
  1.14809402018149354E+00  1.15990593068181957E+00  1.17180736414397635E+00
  1.18379818235135681E+00  1.19587822090797902E+00  1.20804728853874743E+00
  1.22030516637935338E+00  1.23265160725587086E+00  1.24508633495410614E+00
  1.25760904347878477E+00  1.27021939630266556E+00  1.28291702560567744E+00
  1.29570153150419753E+00  1.30857248127059633E+00  1.32152940854318768E+00
  1.33457181252674362E+00  1.34769915718374000E+00  1.36091087041651604E+00
  1.37420634324055690E+00  1.38758492894910468E+00  1.40104594226934176E+00
  1.41458865851039528E+00  1.42821231270342697E+00  1.44191609873411131E+00
  1.45569916846779224E+00  1.46956063086765965E+00  1.48349955110629472E+00
  1.49751494967094301E+00  1.51160580146291945E+00  1.52577103489155852E+00
  1.54000953096313986E+00  1.55432012236526251E+00  1.56870159254714481E+00
  1.58315267479636912E+00  1.59767205131261170E+00  1.61225835227890979E+00
  1.62691015493107671E+00  1.64162598262586767E+00  1.65640430390856297E+00
  1.67124353158063199E+00  1.68614202176819661E+00  1.70109807299203242E+00
  1.71610992523987016E+00  1.73117575904182486E+00  1.74629369454975425E+00
  1.76146179062144870E+00  1.77667804391053763E+00  1.79194038796305688E+00
  1.80724669232165347E+00  1.82259476163843681E+00  1.83798233479751993E+00
  1.85340708404834187E+00  1.86886661415088473E+00  1.88435846153394970E+00
  1.89988009346769848E+00  1.91542890725167880E+00  1.93100222941962785E+00
  1.94659731496237343E+00  1.96221134657016916E+00  1.97784143389589273E+00
  1.99348461284051259E+00  2.00913784486234226E+00  2.02479801631156420E+00
  2.04046193779161955E+00  2.05612634354905088E+00  2.07178789089344439E+00
  2.08744315964917737E+00  2.10308865164066994E+00  2.11872079021294812E+00
  2.13433591978929416E+00  2.14993030546787045E+00  2.16550013265917718E+00
  2.18104150676630804E+00  2.19655045290995066E+00  2.21202291570015008E+00
  2.22745475905689538E+00  2.24284176608159047E+00  2.25817963898155361E+00
  2.27346399904968255E+00  2.28869038670149250E+00  2.30385426157172901E+00
  2.31895100267281684E+00  2.33397590861744231E+00  2.34892419790754037E+00
  2.36379100929206398E+00  2.37857140219586061E+00  2.39326035722205921E+00
  2.40785277673034903E+00  2.42234348549358147E+00  2.43672723143511760E+00
  2.45099868644935848E+00  2.46515244730793226E+00  2.47918303665395312E+00
  2.49308490408685746E+00  2.50685242734023550E+00  2.52047991355513545E+00
  2.53396160065126752E+00  2.54729165879854635E+00  2.56046419199139397E+00
  2.57347323972816033E+00  2.58631277879808152E+00  2.59897672517805178E+00
  2.61145893604155832E+00  2.62375321188199839E+00  2.63585329875261865E+00
  2.64775289062520747E+00  2.65944563186966176E+00  2.67092511985645675E+00
  2.68218490768397499E+00  2.69321850703259802E+00  2.70401939114734313E+00
  2.71458099795077823E+00  2.72489673328781556E+00  2.73495997430389348E+00
  2.74476407295794722E+00  2.75430235967143489E+00  2.76356814711457632E+00
  2.77255473413078546E+00  2.78125540980020025E+00  2.78966345764297863E+00
  2.79777215996292572E+00  2.80557480233182588E+00  2.81306467821466422E+00
  2.82023509373574832E+00  2.82707937258552722E+00  2.83359086106764613E+00
  2.83976293328575569E+00  2.84558899646915986E+00  2.85106249643617415E+00
  2.85617692319387873E+00  2.86092581667268675E+00  2.86530277259385979E+00
  2.86930144846785318E+00  2.87291556972104267E+00  2.87613893594815107E+00
  2.87896542728732685E+00  2.88138901091454391E+00  2.88340374765368201E+00
  2.88500379869825574E+00  2.88618343244049980E+00  2.88693703140308777E+00
  2.88725909926846080E+00  2.88714426800033896E+00  2.88658730505163552E+00
  2.88558312065258349E+00  2.88412677517254190E+00  2.88221348654849008E+00
  2.87983863777286864E+00  2.87699778443299126E+00  2.87368666229383951E+00
  2.86990119491565920E+00  2.86563750129731121E+00  2.86089190353595946E+00
  2.85566093449321246E+00  2.84994134545743671E+00  2.84373011379151830E+00
  2.83702445055492003E+00  2.82982180808849781E+00  2.82211988755005994E+00
  2.81391664638829608E+00  2.80521030574224639E+00  2.79599935775286790E+00
  2.78628257277350100E+00  2.77605900646550285E+00  2.76532800676402069E+00
  2.75408922069946227E+00  2.74234260105963923E+00  2.73008841287717718E+00
  2.71732723972655510E+00  2.70405998981477724E+00  2.69028790184947297E+00
  2.67601255066795130E+00  2.66123585261053952E+00  2.64596007062136396E+00
  2.63018781905954757E+00  2.61392206820374362E+00  2.59716614843276616E+00
  2.57992375406513341E+00  2.56219894684023641E+00  2.54399615902399123E+00
  2.52532019612184211E+00  2.50617623918217003E+00  2.48656984667334724E+00
  2.46650695591787272E+00  2.44599388406741713E+00  2.42503732860284638E+00
  2.40364436734380504E+00  2.38182245795287972E+00  2.35957943691987060E+00
  2.33692351801239573E+00  2.31386329017961323E+00  2.29040771489669570E+00
  2.26656612293814508E+00  2.24234821056893407E+00  2.21776403514583142E+00
  2.19282401011812000E+00  2.16753889942023115E+00  2.14191981125000863E+00
  2.11597819122733055E+00  2.08972581492900789E+00  2.06317477979729302E+00
  2.03633749642025963E+00  2.00922667918688314E+00  1.98185533631267163E+00
  1.95423675924515483E+00  1.92638451145084688E+00  1.89831241659070460E+00
  1.87003454609219144E+00  1.84156520612759911E+00  1.81291892401002919E+00
  1.78411043402011793E+00  1.75515466267825548E+00  1.72606671347877128E+00
  1.69686185110418908E+00  1.66755548513939367E+00  1.63816315330710549E+00
  1.60870050424775135E+00  1.57918327986839424E+00  1.54962729728691406E+00
  1.52004843039922055E+00  1.49046259109869461E+00  1.46088571017835656E+00
  1.43133371794716124E+00  1.40182252459689871E+00  1.37236800035196027E+00
  1.34298595543797217E+00  1.31369211990711277E+00  1.28450212335854275E+00
  1.25543147459359328E+00  1.22649554124633187E+00  1.19770952943119102E+00
  1.16908846345023720E+00  1.14064716560354418E+00  1.11240023614690231E+00
  1.08436203344175697E+00  1.05654665434294870E+00  1.02896791487018713E+00
  1.00163933120970050E+00  9.74574101092659628E-01  9.47785085597145249E-01
  9.21284791420395321E-01  8.95085353667883221E-01  8.69198519205512943E-01
  8.43635630620613086E-01  8.18407610836892618E-01  7.93524948427523302E-01
  7.68997683669605414E-01  7.44835395382004162E-01  7.21047188587101484E-01
  6.97641683035392646E-01  6.74627002630213801E-01  6.52010765788271551E-01
  6.29800076768017081E-01  6.08001517996842877E-01  5.86621143425188341E-01
  5.65664472932888129E-01  5.45136487810198411E-01  5.25041627332795469E-01
  5.05383786446921057E-01  4.86166314577396008E-01  4.67392015567818730E-01
  4.49063148758620356E-01  4.31181431204952059E-01  4.13748041032677372E-01
  3.96763621926788990E-01  3.80228288742820664E-01  3.64141634227800326E-01
  3.48502736833465887E-01  3.33310169600516959E-01  3.18562010088812686E-01
  3.04255851324651605E-01  2.90388813732470830E-01  2.76957558014730543E-01
  2.63958298940164537E-01  2.51386819997226063E-01  2.39238488866333060E-01
  2.27508273662139215E-01  2.16190759893306328E-01  2.05280168081750397E-01
  1.94770371987562557E-01  1.84654917379224653E-01  1.74927041287406826E-01
  1.65579691679193730E-01  1.56605547488252339E-01  1.47997038935372416E-01
  1.39746368073023597E-01  1.31845529487129715E-01  1.24286331089070806E-01
  1.17060414931106901E-01  1.10159277978857037E-01  1.03574292775254484E-01
  9.72967279314796568E-02  9.13177683817413266E-02  8.56285353404765692E-02
  8.02201059024635482E-02  7.50835322286038109E-02  7.02098602625992052E-02
  6.55901479264852649E-02  6.12154827459482492E-02  5.70769988595096200E-02
  5.31658933690359672E-02  4.94734419925386623E-02  4.59910139842184262E-02
  4.27100862915796228E-02  3.96222569169803335E-02  3.67192574634376268E-02
  3.39929648459490821E-02  3.14354121516655302E-02  2.90387986373761252E-02
  2.67954988568336848E-02  2.46980709144300342E-02  2.27392638456742832E-02
  2.09120241287586196E-02  1.92095013352253791E-02  1.76250529313493921E-02
  1.61522482452817195E-02  1.47848716182823348E-02  1.35169247614474984E-02
  1.23426283422206958E-02  1.12564228276431540E-02  1.02529686137358394E-02
  9.32714547260829127E-03  8.47405135084277131E-03  7.68900055440962290E-03
  6.96752135681666905E-03  6.30535306838916204E-03  5.69844260551231104E-03
  5.14294059934650334E-03  4.63519708409150261E-03  4.17175680552516349E-03
  3.74935418749596525E-03  3.36490799799566472E-03  3.01551575444263843E-03
  2.69844790616107074E-03  2.41114183169210570E-03  2.15119568748236038E-03
  1.91636214323456376E-03  1.70454203779535178E-03  1.51377798790811751E-03
  1.34224798049692299E-03  1.18825897738246899E-03  1.05024055948469168E-03
  9.26738635653135030E-04  8.16409239303803155E-04  7.18012434047679928E-04
  6.30406347485046835E-04  5.52541350330179397E-04  4.83454396035028851E-04
  4.22263534113849590E-04  3.68162608446204285E-04  3.20416149964873002E-04
  2.78354471329905198E-04  2.41368969459036700E-04  2.08907640137589811E-04
  1.80470807426476819E-04  1.55607069072976305E-04  1.33909457423685797E-04
  1.15011814897056870E-04  9.85853813550346606E-05  8.43355897381801631E-05
  7.19990654547175192E-05  6.13408241972264782E-05  5.21516621514176291E-05
  4.42457319570407757E-05  3.74582972782533914E-05  3.16436584357821969E-05
  2.66732412412031107E-05  2.24338409496080558E-05  1.88260131049987780E-05
  1.57626029870383244E-05  1.31674053718563414E-05  1.09739463869734624E-05
  9.12437936441620948E-06  7.56848677006759801E-06  6.26278050469958399E-06
  5.16969312646216116E-06  4.25685282969781597E-06  3.49643532482162484E-06
  2.86458609306969844E-06  2.34090683315437897E-06  1.90800027334249377E-06
  1.55106786105931968E-06  1.25755521848320838E-06  1.01684061311039634E-06
  8.19962021328197279E-07  6.59378710816456697E-07  5.28763597000909399E-07
  4.22822945023096589E-07  3.37140290668688102E-07  2.68041740276377767E-07
  2.12480080016222302E-07  1.67935378562595574E-07  1.32330003835741845E-07
  1.03956194126675865E-07  8.14145267348953597E-08  6.35618135941767581E-08
  4.94671237426684214E-08  3.83747875324275393E-08  2.96733778887601045E-08
  2.28697905107945780E-08  1.75676584913266416E-08  1.34494382974938803E-08
  1.02615942798444912E-08  7.80238875156249950E-09  5.91185507479971391E-09
  4.46359297647869371E-09  3.35807923074584780E-09  2.51723369141020987E-09
  1.88002157381531314E-09  1.39890763808636223E-09  1.03700804329514767E-09
  7.65811344798361346E-10  5.63361951101905293E-10  4.12817855131119641E-10
  3.01310050214647198E-10  2.19044130089331183E-10  1.58595508166022353E-10
  1.14358786989143032E-10  8.21193395251336954E-11  5.87213703718123549E-11
  4.18118165081191920E-11  2.96436047372639087E-11  2.09251620139394324E-11
  1.47058082605638547E-11  1.02888619642575320E-11  7.16605218396952670E-12
  4.96823671325474290E-12  3.42854197493415652E-12  2.35492137322972707E-12
  1.60982122862713448E-12  1.09518480551317204E-12  7.41446129939977468E-13
  4.99491177133747930E-13  3.34815322160424978E-13  2.23298101981295180E-13
  1.48162917169024160E-13  9.78004866261700799E-14  6.42186735048869165E-14
  4.19441494731057658E-14  2.72485239416936857E-14  1.76054392291247077E-14
  1.13123662042674057E-14  7.22824383601522394E-15  4.59255683282804781E-15
  2.90126875973687952E-15  1.82222474630853662E-15  1.13779744925000424E-15
  7.06228249146290744E-16  4.35722508773707095E-16  2.67194144543911984E-16
  1.62840615573464173E-16  9.86242671879657573E-17  5.93548289142700642E-17
  3.54931916697178666E-17  2.10870506181040203E-17  1.24460922714812524E-17
  7.29727596563061826E-18  4.24974524065961770E-18  2.45811803681466137E-18
  1.41202751946928622E-18  8.05464843154620176E-19  4.56220667253229511E-19
  2.56560454964618835E-19  1.43235888272750552E-19  7.93819604144591307E-20
  4.36676297800055229E-20  2.38410137171359123E-20  1.29174286324762000E-20
  6.94499445385464035E-21  3.70484022246394389E-21  1.96077142716430478E-21
  1.02944025046347298E-21  5.36103026452660854E-22  2.76900663543390198E-22
  1.41835015969195272E-22  7.20412378905787350E-23  3.62803121906875158E-23
  1.81136633057838552E-23  8.96478001743869462E-24  4.39767409619609344E-24
  2.13800056187529065E-24  1.03001776177374858E-24  4.91681776398026923E-25
  2.32528288350244293E-25  1.08935372096010188E-25  5.05489357044670014E-26
  2.32302006810205671E-26  1.05715578005813783E-26  4.76339577902316661E-27
  2.12486771442415402E-27  9.38274467687046206E-28  4.10067353506330967E-28
  1.77358350403134813E-28  7.59033908924267780E-29  3.21385988797982618E-29
  1.34614156559456427E-29  5.57690718591370212E-30  2.28494123511507115E-30
  9.25709717188211490E-31  3.70792695995688012E-31  1.46818776452036879E-31
  5.74596170050127238E-32  2.22233854541611635E-32  8.49295363943038598E-33
  3.20657912644095972E-33  1.19589311457174268E-33  4.40495667570983414E-34
  1.60221745946556841E-34  5.75390700870569830E-35  2.03983922233496942E-35
  7.13756457427398528E-36  2.46464053379993984E-36  8.39718826943361106E-37
  2.82238352824924958E-37  9.35679803582711114E-38  3.05908998001541986E-38
  9.86131353015930114E-39  3.13384542342288328E-39  9.81617787107466619E-40
  3.03005156240987795E-40  9.21552308808233137E-41  2.76102810290447809E-41
  8.14741486465218034E-42  2.36746223668567097E-42  6.77290910517365565E-43
  1.90725915774046907E-43  5.28564799892026389E-44  1.44128866545987970E-44
  3.86612806415282955E-45  1.01995346459984114E-45  2.64586351261823925E-46
  6.74745228601414123E-47  1.69122501992078306E-47  4.16539195115688394E-48
  1.00787286000553531E-48  2.39525789235163446E-49  5.58978957250892594E-50
  1.28066049778257455E-50  2.87982020577373542E-51  6.35456245140188022E-52
  1.37559189002949117E-52  2.92059009613496903E-53  6.08023813072419511E-54
  1.24088056188800404E-54  2.48191923626936811E-55  4.86385664543595190E-56
  9.33672869136957328E-57  1.75514504318149780E-57  3.23010689246058122E-58
  5.81815540766559235E-59  1.02540287151319073E-59  1.76773727148084132E-60
  2.98005680963365343E-61  4.91111994084605469E-62  7.90945207636641136E-63
  1.24444883435478842E-63  1.91215096675960919E-64  2.86838752230079969E-65
  4.19935969268992778E-66  5.99811902297237938E-67  8.35581879347552799E-68
  1.13490125502824832E-68  1.50235817996738663E-69  1.93769076111364845E-70
  2.43409903402452229E-71  2.97700798457459998E-72  3.54366652642456725E-73
  4.10390928590478907E-74  4.62225010024810365E-75  5.06123132130495927E-76
  5.38558246595448465E-77  5.55447213645614425E-78  0.00000000000000000E+00
  0.00000000000000000E+00  0.00000000000000000E+00  0.00000000000000000E+00
  0.00000000000000000E+00  0.00000000000000000E+00  0.00000000000000000E+00
   </PP_GIPAW_CORE_ORBITAL.1>
   <PP_GIPAW_CORE_ORBITAL.2 type="real" size="   999" columns="3" index="2" label="2S" n="2" l="0">
 -2.04678466495103071E-03 -2.07232900959749200E-03 -2.09819185003536817E-03
 -2.12437714955619403E-03 -2.15088892024194352E-03 -2.17773122458907783E-03
 -2.20490817577495514E-03 -2.23242393692599890E-03 -2.26028272300875114E-03
 -2.28848880192719780E-03 -2.31704649402714701E-03 -2.34596017259582415E-03
 -2.37523426578961031E-03 -2.40487325686301184E-03 -2.43488168362169686E-03
 -2.46526414049550455E-03 -2.49602527939688998E-03 -2.52716980896497021E-03
 -2.55870249618966048E-03 -2.59062816779279895E-03 -2.62295170958171163E-03
 -2.65567806762819110E-03 -2.68881224997093941E-03 -2.72235932606860499E-03
 -2.75632442781489255E-03 -2.79071275134826083E-03 -2.82552955649932516E-03
 -2.86078016795521467E-03 -2.89646997697139705E-03 -2.93260444073934834E-03
 -2.96918908397671676E-03 -3.00622950026507418E-03 -3.04373135146204527E-03
 -3.08170036983190223E-03 -3.12014235863167797E-03 -3.15906319210239664E-03
 -3.19846881776480801E-03 -3.23836525614808754E-03 -3.27875860199601651E-03
 -3.31965502584624563E-03 -3.36106077361523385E-03 -3.40298216889499275E-03
 -3.44542561305398757E-03 -3.48839758622508222E-03 -3.53190464899630612E-03
 -3.57595344214286766E-03 -3.62055068896447070E-03 -3.66570319518722898E-03
 -3.71141785057046633E-03 -3.75770162990820417E-03 -3.80456159353605985E-03
 -3.85200488931103065E-03 -3.90003875248498251E-03 -3.94867050802253077E-03
 -3.99790757051541549E-03 -4.04775744625522453E-03 -4.09822773360052003E-03
 -4.14932612458113713E-03 -4.20106040578200040E-03 -4.25343845952956979E-03
 -4.30646826517823260E-03 -4.36015790002442730E-03 -4.41451554084310721E-03
 -4.46954946467800675E-03 -4.52526805049235665E-03 -4.58167977995912676E-03
 -4.63879323911500340E-03 -4.69661711925411628E-03 -4.75516021848848645E-03
 -4.81443144283999046E-03 -4.87443980761674989E-03 -4.93519443878955803E-03
 -4.99670457411108011E-03 -5.05897956482876093E-03 -5.12202887653410727E-03
 -5.18586209116701346E-03 -5.25048890772220316E-03 -5.31591914432163852E-03
 -5.38216273909313848E-03 -5.44922975195807121E-03 -5.51713036600234071E-03
 -5.58587488876767166E-03 -5.65547375414664818E-03 -5.72593752337960393E-03
 -5.79727688703589056E-03 -5.86950266631390462E-03 -5.94262581455803213E-03
 -6.01665741912963108E-03 -6.09160870260237308E-03 -6.16749102467890279E-03
 -6.24431588378229156E-03 -6.32209491848270428E-03 -6.40083990948426412E-03
 -6.48056278112744619E-03 -6.56127560303381568E-03 -6.64299059206352287E-03
 -6.72572011386922668E-03 -6.80947668465095492E-03 -6.89427297311700354E-03
 -6.98012180214369581E-03 -7.06703615056097651E-03 -7.15502915515459255E-03
 -7.24411411245968768E-03 -7.33430448054280329E-03 -7.42561388104787373E-03
 -7.51805610112374952E-03 -7.61164509526455341E-03 -7.70639498732322587E-03
 -7.80232007256656968E-03 -7.89943481965942225E-03 -7.99775387262443953E-03
 -8.09729205296563261E-03 -8.19806436177092368E-03 -8.30008598179747190E-03
 -8.40337227954389421E-03 -8.50793880743549655E-03 -8.61380130601869208E-03
 -8.72097570614910680E-03 -8.82947813118963032E-03 -8.93932489923346570E-03
 -9.05053252540424097E-03 -9.16311772414758405E-03 -9.27709741154178827E-03
 -9.39248870763098251E-03 -9.50930893877202643E-03 -9.62757564003771139E-03
 -9.74730655763748725E-03 -9.86851965135437242E-03 -9.99123309700779456E-03
 -1.01154652889425753E-02 -1.02412348425411619E-02 -1.03685605967623468E-02
 -1.04974616167173174E-02 -1.06279571962650463E-02 -1.07600668606330999E-02
 -1.08938103690655787E-02 -1.10292077174981192E-02 -1.11662791412603657E-02
 -1.13050451178059366E-02 -1.14455263694700164E-02 -1.15877438662547790E-02
 -1.17317188286423582E-02 -1.18774727304373183E-02 -1.20250273016369227E-02
 -1.21744045313294264E-02 -1.23256266706211863E-02 -1.24787162355925237E-02
 -1.26336960102827554E-02 -1.27905890497043186E-02 -1.29494186828862743E-02
 -1.31102085159474305E-02 -1.32729824351989507E-02 -1.34377646102769293E-02
 -1.36045794973049285E-02 -1.37734518420865523E-02 -1.39444066833284593E-02
 -1.41174693558935669E-02 -1.42926654940849929E-02 -1.44700210349605948E-02
 -1.46495622216783351E-02 -1.48313156068726089E-02 -1.50153080560608450E-02
 -1.52015667510818873E-02 -1.53901191935660597E-02 -1.55809932084362644E-02
 -1.57742169474406439E-02 -1.59698188927167549E-02 -1.61678278603874896E-02
 -1.63682730041887284E-02 -1.65711838191288686E-02 -1.67765901451802230E-02
 -1.69845221709993312E-02 -1.71950104376796843E-02 -1.74080858425424249E-02
 -1.76237796429561423E-02 -1.78421234601885276E-02 -1.80631492832900586E-02
 -1.82868894730090492E-02 -1.85133767657301510E-02 -1.87426442774562864E-02
 -1.89747255078264315E-02 -1.92096543441599953E-02 -1.94474650655331871E-02
 -1.96881923468768226E-02 -1.99318712631095137E-02 -2.01785372933226889E-02
 -2.04282263249856710E-02 -2.06809746581785893E-02 -2.09368190098371786E-02
 -2.11957965180609477E-02 -2.14579447464540198E-02 -2.17233016884836420E-02
 -2.19919057718440288E-02 -2.22637958628872749E-02 -2.25390112710936730E-02
 -2.28175917535464109E-02 -2.30995775194100111E-02 -2.33850092345009725E-02
 -2.36739280258709342E-02 -2.39663754863726798E-02 -2.42623936792882404E-02
 -2.45620251430219150E-02 -2.48653128957599251E-02 -2.51723004401583246E-02
 -2.54830317681325573E-02 -2.57975513656025189E-02 -2.61159042172518403E-02
 -2.64381358114049204E-02 -2.67642921448406276E-02 -2.70944197276364457E-02
 -2.74285655881240584E-02 -2.77667772777516059E-02 -2.81091028760341380E-02
 -2.84555909955607096E-02 -2.88062907869039292E-02 -2.91612519436920438E-02
 -2.95205247076130370E-02 -2.98841598734302140E-02 -3.02522087941185826E-02
 -3.06247233858617622E-02 -3.10017561332261889E-02 -3.13833600942389629E-02
 -3.17695889055162467E-02 -3.21604967874546954E-02 -3.25561385493155844E-02
 -3.29565695944912598E-02 -3.33618459255912089E-02 -3.37720241497259793E-02
 -3.41871614836358750E-02 -3.46073157589562100E-02 -3.50325454273998638E-02
 -3.54629095659951613E-02 -3.58984678823121711E-02 -3.63392807196773887E-02
 -3.67854090624262497E-02 -3.72369145411015554E-02 -3.76938594377128136E-02
 -3.81563066909248808E-02 -3.86243199013056801E-02 -3.90979633365098264E-02
 -3.95773019364958484E-02 -4.00624013187098338E-02 -4.05533277832521369E-02
 -4.10501483180651869E-02 -4.15529306040318333E-02 -4.20617430201650488E-02
 -4.25766546486293362E-02 -4.30977352799142219E-02 -4.36250554177908048E-02
 -4.41586862844253122E-02 -4.46986998253065676E-02 -4.52451687142402387E-02
 -4.57981663582791507E-02 -4.63577669025626304E-02 -4.69240452352357174E-02
 -4.74970769921600963E-02 -4.80769385617383430E-02 -4.86637070895774779E-02
 -4.92574604831211432E-02 -4.98582774162949077E-02 -5.04662373339539588E-02
 -5.10814204564114319E-02 -5.17039077838124805E-02 -5.23337811004235542E-02
 -5.29711229789462112E-02 -5.36160167846230287E-02 -5.42685466793417851E-02
 -5.49287976256655278E-02 -5.55968553906712737E-02 -5.62728065498060565E-02
 -5.69567384905990057E-02 -5.76487394162078226E-02 -5.83488983489633059E-02
 -5.90573051337374422E-02 -5.97740504411511872E-02 -6.04992257707545403E-02
 -6.12329234540172004E-02 -6.19752366571436134E-02 -6.27262593838368021E-02
 -6.34860864778699630E-02 -6.42548136254554869E-02 -6.50325373575339344E-02
 -6.58193550518764714E-02 -6.66153649349605220E-02 -6.74206660837137067E-02
 -6.82353584270902896E-02 -6.90595427474062634E-02 -6.98933206814678354E-02
 -7.07367947215523790E-02 -7.15900682161393354E-02 -7.24532453703828766E-02
 -7.33264312463955958E-02 -7.42097317633037129E-02 -7.51032536970244052E-02
 -7.60071046797650696E-02 -7.69213931993093930E-02 -7.78462285980153629E-02
 -7.87817210715084787E-02 -7.97279816670681679E-02 -8.06851222817584063E-02
 -8.16532556602264092E-02 -8.26324953921653144E-02 -8.36229559094265468E-02
 -8.46247524828290659E-02 -8.56380012186011425E-02 -8.66628190544444649E-02
 -8.76993237552027571E-02 -8.87476339081648968E-02 -8.98078689179730716E-02
 -9.08801490011014734E-02 -9.19645951799004657E-02 -9.30613292761924421E-02
 -9.41704739044445099E-02 -9.52921524644605444E-02 -9.64264891335871871E-02
 -9.75736088584156364E-02 -9.87336373459728883E-02 -9.99067010544103379E-02
 -1.01092927183139072E-01 -1.02292443662406585E-01 -1.03505379142296461E-01
 -1.04731862981133544E-01 -1.05972025233306205E-01 -1.07225996636457419E-01
 -1.08493908598033165E-01 -1.09775893181171633E-01 -1.11072083089910137E-01
 -1.12382611653704279E-01 -1.13707612811243641E-01 -1.15047221093526650E-01
 -1.16401571606181017E-01 -1.17770800011012450E-01 -1.19155042506753059E-01
 -1.20554435808999869E-01 -1.21969117129327703E-01 -1.23399224153535006E-01
 -1.24844895019010124E-01 -1.26306268291193513E-01 -1.27783482939112125E-01
 -1.29276678309958148E-01 -1.30785994102704306E-01 -1.32311570340718276E-01
 -1.33853547343349533E-01 -1.35412065696464690E-01 -1.36987266221907600E-01
 -1.38579289945854583E-01 -1.40188278066035593E-01 -1.41814371917802273E-01
 -1.43457712939011994E-01 -1.45118442633694833E-01 -1.46796702534473078E-01
 -1.48492634163708226E-01 -1.50206378993342243E-01 -1.51938078403402982E-01
 -1.53687873639141187E-01 -1.55455905766767322E-01 -1.57242315627763946E-01
 -1.59047243791729354E-01 -1.60870830507721413E-01 -1.62713215654070459E-01
 -1.64574538686623056E-01 -1.66454938585383683E-01 -1.68354553799518664E-01
 -1.70273522190682508E-01 -1.72211980974631890E-01 -1.74170066661093165E-01
 -1.76147914991842375E-01 -1.78145660876956685E-01 -1.80163438329199621E-01
 -1.82201380396501328E-01 -1.84259619092491389E-01 -1.86338285325045400E-01
 -1.88437508822803079E-01 -1.90557418059614042E-01 -1.92698140176871868E-01
 -1.94859800903687846E-01 -1.97042524474869085E-01 -1.99246433546651308E-01
 -2.01471649110140927E-01 -2.03718290402423202E-01 -2.05986474815289533E-01
 -2.08276317801538102E-01 -2.10587932778802056E-01 -2.12921431030855507E-01
 -2.15276921606352922E-01 -2.17654511214950913E-01 -2.20054304120766236E-01
 -2.22476402033119469E-01 -2.24920903994514837E-01 -2.27387906265807932E-01
 -2.29877502208510581E-01 -2.32389782164183600E-01 -2.34924833330864752E-01
 -2.37482739636481588E-01 -2.40063581609198523E-01 -2.42667436244646373E-01
 -2.45294376869982761E-01 -2.47944473004731880E-01 -2.50617790218350955E-01
 -2.53314389984472532E-01 -2.56034329531769689E-01 -2.58777661691391492E-01
 -2.61544434740919152E-01 -2.64334692244787450E-01 -2.67148472891122146E-01
 -2.69985810324940789E-01 -2.72846732977664763E-01 -2.75731263892892875E-01
 -2.78639420548383088E-01 -2.81571214674194825E-01 -2.84526652066940056E-01
 -2.87505732400092917E-01 -2.90508449030310867E-01 -2.93534788799715840E-01
 -2.96584731834091064E-01 -2.99658251336943959E-01 -3.02755313379390378E-01
 -3.05875876685814507E-01 -3.09019892415260844E-01 -3.12187303938513738E-01
 -3.15378046610824914E-01 -3.18592047540246115E-01 -3.21829225351529025E-01
 -3.25089489945555254E-01 -3.28372742254258221E-01 -3.31678873991004985E-01
 -3.35007767396403644E-01 -3.38359294979507008E-01 -3.41733319254382995E-01
 -3.45129692472026517E-01 -3.48548256347586682E-01 -3.51988841782891249E-01
 -3.55451268584244751E-01 -3.58935345175490028E-01 -3.62440868306312558E-01
 -3.65967622755784039E-01 -3.69515381031133572E-01 -3.73083903061745104E-01
 -3.76672935888380522E-01 -3.80282213347630460E-01 -3.83911455751602460E-01
 -3.87560369562856832E-01 -3.91228647064605251E-01 -3.94915966026194165E-01
 -3.98621989363897145E-01 -4.02346364797044109E-01 -4.06088724499526432E-01
 -4.09848684746713487E-01 -4.13625845557829941E-01 -4.17419790333844132E-01
 -4.21230085490922446E-01 -4.25056280089519956E-01 -4.28897905459169393E-01
 -4.32754474819051271E-01 -4.36625482894428540E-01 -4.40510405529032867E-01
 -4.44408699293507348E-01 -4.48319801090007186E-01 -4.52243127753075957E-01
 -4.56178075646920034E-01 -4.60124020259212063E-01 -4.64080315791565889E-01
 -4.68046294746830405E-01 -4.72021267513366316E-01 -4.76004521946470804E-01
 -4.79995322947132541E-01 -4.83992912038307965E-01 -4.87996506938918051E-01
 -4.92005301135780115E-01 -4.96018463453698322E-01 -5.00035137623948356E-01
 -5.04054441851405688E-01 -5.08075468380578044E-01 -5.12097283060815367E-01
 -5.16118924910987098E-01 -5.20139405683924250E-01 -5.24157709430945418E-01
 -5.28172792066794128E-01 -5.32183580935331246E-01 -5.36188974376346605E-01
 -5.40187841293857884E-01 -5.44179020726297313E-01 -5.48161321418983549E-01
 -5.52133521399312932E-01 -5.56094367555104885E-01 -5.60042575216561866E-01
 -5.63976827742324494E-01 -5.67895776110108885E-01 -5.71798038512449036E-01
 -5.75682199958069352E-01 -5.79546811879442347E-01 -5.83390391747103609E-01
 -5.87211422691312879E-01 -5.91008353131675657E-01 -5.94779596415354495E-01
 -5.98523530464528219E-01 -6.02238497433765896E-01 -6.05922803378022068E-01
 -6.09574717931961052E-01 -6.13192474001358012E-01 -6.16774267467336101E-01
 -6.20318256904222709E-01 -6.23822563311841494E-01 -6.27285269863056438E-01
 -6.30704421667442894E-01 -6.34078025551939040E-01 -6.37404049859403798E-01
 -6.40680424265985815E-01 -6.43905039618266062E-01 -6.47075747791138189E-01
 -6.50190361567430153E-01 -6.53246654540280636E-01 -6.56242361039318656E-01
 -6.59175176081714720E-01 -6.62042755349192547E-01 -6.64842715192117573E-01
 -6.67572632661800447E-01 -6.70230045572179800E-01 -6.72812452592062127E-01
 -6.75317313369132588E-01 -6.77742048686963416E-01 -6.80084040656265154E-01
 -6.82340632941662584E-01 -6.84509131025279216E-01 -6.86586802508446281E-01
 -6.88570877452868046E-01 -6.90458548762594826E-01 -6.92246972608168143E-01
 -6.93933268894327715E-01 -6.95514521772681027E-01 -6.96987780200747142E-01
 -6.98350058548810937E-01 -6.99598337256028269E-01 -7.00729563537232591E-01
 -7.01740652141913945E-01 -7.02628486166836819E-01 -7.03389917923779695E-01
 -7.04021769863881097E-01 -7.04520835560077163E-01 -7.04883880749127112E-01
 -7.05107644434707637E-01 -7.05188840053071142E-01 -7.05124156702744864E-01
 -7.04910260439747360E-01 -7.04543795639787862E-01 -7.04021386428888341E-01
 -7.03339638183897331E-01 -7.02495139104303945E-01 -7.01484461856737074E-01
 -7.00304165293536451E-01 -6.98950796246741057E-01 -6.97420891398813692E-01
 -6.95710979231383586E-01 -6.93817582053252946E-01 -6.91737218108869123E-01
 -6.89466403768418834E-01 -6.87001655800652644E-01 -6.84339493729485326E-01
 -6.81476442275373406E-01 -6.78409033882386381E-01 -6.75133811331840361E-01
 -6.71647330443271406E-01 -6.67946162863460313E-01 -6.64026898944123367E-01
 -6.59886150708806074E-01 -6.55520554909412301E-01 -6.50926776172698118E-01
 -6.46101510236967935E-01 -6.41041487279069733E-01 -6.35743475331694841E-01
 -6.30204283790842590E-01 -6.24420767013182831E-01 -6.18389828002914310E-01
 -6.12108422187559564E-01 -6.05573561282005457E-01 -5.98782317239907935E-01
 -5.91731826291445384E-01 -5.84419293066210543E-01 -5.76841994799853652E-01
 -5.68997285622917293E-01 -5.60882600930081354E-01 -5.52495461827801182E-01
 -5.43833479658259011E-01 -5.34894360597317542E-01 -5.25675910323684215E-01
 -5.16176038756522182E-01 -5.06392764858451638E-01 -4.96324221500611285E-01
 -4.85968660386262130E-01 -4.75324457029094205E-01 -4.64390115782213564E-01
 -4.53164274913467779E-01 -4.41645711722546463E-01 -4.29833347695002144E-01
 -4.17726253688068372E-01 -4.05323655142903305E-01 -3.92624937317560541E-01
 -3.79629650534779095E-01 -3.66337515438337702E-01 -3.52748428251497770E-01
 -3.38862466030745157E-01 -3.24679891907776352E-01 -3.10201160312414737E-01
 -2.95426922168827710E-01 -2.80358030057213881E-01 -2.64995543332788741E-01
 -2.49340733193701314E-01 -2.33395087689224956E-01 -2.17160316659318453E-01
 -2.00638356596437611E-01 -1.83831375420197229E-01 -1.66741777155315879E-01
 -1.49372206502899091E-01 -1.31725553294955139E-01 -1.13804956822595962E-01
 -9.56138100268492802E-02 -7.71557635415357074E-02 -5.84347295774764117E-02
 -3.94548856371167087E-02 -2.02206780483940585E-02 -7.36825306633844923E-04
  1.89916787869935620E-02  3.89595622019781249E-02  5.91612719816254629E-02
  7.95909717846973730E-02  1.00242539677409592E-01  1.21109566187880824E-01
  1.42185352635111423E-01  1.63462909744748308E-01  1.84934956563932967E-01
  2.06593919687608985E-01  2.28431932808721816E-01  2.50440836604787165E-01
  2.72612178973344443E-01  2.94937215628760296E-01  3.17406911072904252E-01
  3.40011939952100828E-01  3.62742688812693059E-01  3.85589258267460266E-01
  4.08541465584914887E-01  4.31588847713342216E-01  4.54720664751244563E-01
  4.77925903875829672E-01  5.01193283738860962E-01  5.24511259341505887E-01
  5.47868027398134116E-01  5.71251532198095324E-01  5.94649471974137311E-01
  6.18049305785313807E-01  6.41438260921469494E-01  6.64803340835441681E-01
  6.88131333608188345E-01  7.11408820950955256E-01  7.34622187747504651E-01
  7.57757632138237658E-01  7.80801176146721621E-01  8.03738676847913669E-01
  8.26555838075875404E-01  8.49238222667422660E-01  8.71771265236631732E-01
  8.94140285473596141E-01  9.16330501959302546E-01  9.38327046486827077E-01
  9.60114978877553038E-01  9.81679302279340860E-01  1.00300497893208007E+00
  1.02407694638429314E+00  1.04488013414287773E+00  1.06539948073645174E+00
  1.08561995117135357E+00  1.10552655475753170E+00  1.12510436327857599E+00
  1.14433852948178316E+00  1.16321430586050334E+00  1.18171706369991192E+00
  1.19983231235605481E+00  1.21754571873672446E+00  1.23484312695150877E+00
  1.25171057809712605E+00  1.26813433014314025E+00  1.28410087788207528E+00
  1.29959697290707465E+00  1.31460964357943122E+00  1.32912621494752159E+00
  1.34313432857815629E+00  1.35662196226072052E+00  1.36957744954415683E+00
  1.38198949906647450E+00  1.39384721363627939E+00  1.40514010902575914E+00
  1.41585813243453984E+00  1.42599168058400472E+00  1.43553161740186153E+00
  1.44446929125714418E+00  1.45279655170626598E+00  1.46050576571131163E+00
  1.46758983329232384E+00  1.47404220257609708E+00  1.47985688420548600E+00
  1.48502846507334696E+00  1.48955212134654524E+00  1.49342363074664330E+00
  1.49663938405502828E+00  1.49919639581151509E+00  1.50109231417676847E+00
  1.50232542993027751E+00  1.50289468457703812E+00  1.50279967753757648E+00
  1.50204067239746353E+00  1.50061860219401089E+00  1.49853507371941364E+00
  1.49579237082120509E+00  1.49239345668249568E+00  1.48834197506609756E+00
  1.48364225050826093E+00  1.47829928744939632E+00  1.47231876829078612E+00
  1.46570705036792659E+00  1.45847116183278902E+00  1.45061879643889413E+00
  1.44215830722475769E+00  1.43309869909284759E+00  1.42344962028259303E+00
  1.41322135273642258E+00  1.40242480136536929E+00  1.39107148221520371E+00
  1.37917350953736539E+00  1.36674358177263811E+00  1.35379496645618058E+00
  1.34034148405433706E+00  1.32639749074530156E+00  1.31197786015758844E+00
  1.29709796408202838E+00  1.28177365217493988E+00  1.26602123067210792E+00
  1.24985744013517275E+00  1.23329943225422678E+00  1.21636474573256170E+00
  1.19907128128184315E+00  1.18143727575839597E+00  1.16348127547378088E+00
  1.14522210871551877E+00  1.12667885751653651E+00  1.10787082871484532E+00
  1.08881752434795875E+00  1.06953861142971940E+00  1.05005389116054526E+00
  1.03038326762800936E+00  1.01054671604307189E+00  9.90564250596262741E-01
  9.70455891981889529E-01  9.50241634667348012E-01  9.29941413977593223E-01
  9.09575073074082363E-01  8.89162329910375027E-01  8.68722744250836398E-01
  8.48275684843089128E-01  8.27840296839139067E-01  8.07435469563997921E-01
  7.87079804734514998E-01  7.66791585234429585E-01  7.46588744554647743E-01
  7.26488837010003108E-01  7.06509008845182973E-01  6.86665970343110388E-01
  6.66975969048264172E-01  6.47454764215549927E-01  6.28117602591785729E-01
  6.08979195631779602E-01  5.90053698244244473E-01  5.71354689154249140E-01
  5.52895152958888914E-01  5.34687463941178165E-01  5.16743371694408093E-01
  4.99073988594927187E-01  4.81689779147445096E-01  4.64600551215728519E-01
  4.47815449130370524E-01  4.31342948656825709E-01  4.15190853794388581E-01
  3.99366295365804813E-01  3.83875731348347848E-01  3.68724948890238269E-01
  3.53919067951181610E-01  3.39462546502433016E-01  3.25359187220116308E-01
  3.11612145605033863E-01  2.98223939462911147E-01  2.85196459680304049E-01
  2.72530982233237684E-01  2.60228181367541334E-01  2.48288143891701674E-01
  2.36710384524664502E-01  2.25493862242116511E-01  2.14636997565545412E-01
  2.04137690738440514E-01  1.93993340733680936E-01  1.84200865035248268E-01
  1.74756720136129029E-01  1.65656922692642095E-01  1.56897071274469918E-01
  1.48472368644873148E-01  1.40377644504517424E-01  1.32607378632988271E-01
  1.25155724357105647E-01  1.18016532274056798E-01  1.11183374155812850E-01
  1.04649566960061696E-01  9.84081968719547340E-02  9.24521433005169035E-02
  8.67741027534856824E-02  8.13666125147730068E-02  7.62220740496101917E-02
  7.13327760638007846E-02  6.66909171453430732E-02  6.22886279189534195E-02
  5.81179926467816910E-02  5.41710702117709775E-02  5.04399144236624131E-02
  4.69165935915873619E-02  4.35932093114362734E-02  4.04619144207598799E-02
  3.75149300787477255E-02  3.47445619338564368E-02  3.21432153468327320E-02
  2.97034096428572050E-02  2.74177913714829385E-02  2.52791465538059583E-02
  2.32804119110107954E-02  2.14146850680342199E-02  1.96752337317033302E-02
  1.80555038483340494E-02  1.65491267507356724E-02  1.51499253093110922E-02
  1.38519191064573281E-02  1.26493286577270391E-02  1.15365787071671604E-02
  1.05083006279121129E-02  9.55933396242599279E-03  8.68472713977847498E-03
  7.87973740996786819E-03  7.13983003757195662E-03  6.46067679892005364E-03
  5.83815382851565930E-03  5.26833886162560074E-03  4.74750792077297239E-03
  4.27213149435097701E-03  3.83887025571980588E-03  3.44457037096866300E-03
  3.08625844304399530E-03  2.76113613926531410E-03  2.46657454866455175E-03
  2.20010831183710875E-03  1.95942956775597803E-03  1.74238175944334164E-03
  1.54695333748984076E-03  1.37127139890514511E-03  1.21359529662981905E-03
  1.07231025277613871E-03  9.45921006322500315E-04  8.33045523588139456E-04
  7.32408797381666160E-04  6.42836758272592214E-04  5.63250318997103204E-04
  4.92659570598327811E-04  4.30158146535014358E-04  3.74917768685184680E-04
  3.26182986939833842E-04  2.83266121936557051E-04  2.45542418437264237E-04
  2.12445414916323131E-04  1.83462533103529812E-04  1.58130889527197973E-04
  1.36033329530082316E-04  1.16794682788881878E-04  1.00078238060917238E-04
  8.55824337733679006E-05  7.30377597625916111E-05  6.22038647762141394E-05
  5.28668637159250532E-05  4.48368376249571091E-05  3.79455189760459724E-05
  3.20441543791383996E-05  2.70015364900892050E-05  2.27021966613206822E-05
  1.90447497257011271E-05  1.59403822383122841E-05  1.33114755096569489E-05
  1.10903548405995259E-05  9.21815650622947699E-06  7.64380422543049429E-06
  6.32308708787251416E-06  5.21783118336775330E-06  4.29515748330461932E-06
  3.52681885380011192E-06  2.88860942934724070E-06  2.35983993851869129E-06
  1.92287294465387465E-06  1.56271233979992061E-06  1.26664180536522388E-06
  1.02390732434864484E-06  8.25439196368006229E-07  6.63609355574024210E-07
  5.32020135021922942E-07  4.25320963194703015E-07  3.39049776771960354E-07
  2.69496235133270336E-07  2.13584102592452074E-07  1.68770426523861084E-07
  1.32959383816909523E-07  1.04428894514128155E-07  8.17683102962029426E-08
  6.38256770923115149E-08  4.96632460822661014E-08  3.85200664031516489E-08
  2.97806367542813574E-08  2.29487226575249954E-08  1.76255622685279114E-08
  1.34917872700171374E-08  1.02924774434479417E-08  7.82484893806588935E-09
  5.92814794888372329E-09  4.47538436179392013E-09  3.36659477449405780E-09
  2.52337196348228830E-09  1.88443910076912606E-09  1.40208254779908246E-09
  1.03928749219405317E-09  7.67446671644882175E-10  5.64534643213846596E-10
  4.13658652202422799E-10  3.01912941688380383E-10  2.19476570395451423E-10
  1.58905843521047771E-10  1.14581635599254989E-10  8.22794762224498762E-11
  5.88365229406932212E-11  4.18946732214438042E-11  2.97032523297779447E-11
  2.09681138046932739E-11  1.47367382592553318E-11  1.03111286186729285E-11
  7.18207194974681026E-12  4.97975058503924067E-12  3.43680580536276637E-12
  2.36084195031681763E-12  1.61405373878631140E-12  1.09820277701126047E-12
  7.43591715568257193E-13  5.01011458883893053E-13  3.35888551845281585E-13
  2.24052682969931644E-13  1.48691163411608000E-13  9.81685902345439867E-14
  6.44739504222505325E-14  4.21202848779884556E-14  2.73694150394476891E-14
  1.76879624760950398E-14  1.13683831591122686E-14  7.26604948439079812E-15
  4.61792131775279370E-15  2.91818369863139550E-15  1.83343555191390838E-15
  1.14518117824298272E-15  7.11060403668166417E-16  4.38864379028897135E-16
  2.69223585933444821E-16  1.64142780439730157E-16  9.94541534598056810E-17
  5.98801170839793511E-17  3.58233843817053513E-17  2.12931579648789008E-17
  1.25738365456330241E-17  7.37588497371512593E-18  4.29776731617172635E-18
  2.48723871379296704E-18  1.42955456116786625E-18  8.15934305144816085E-19
  4.62426700493327499E-19  2.60210876671653513E-19  1.45366361892224615E-19
  8.06155711838304629E-20  4.43762497353421338E-20  2.42447946987208134E-20
  1.31456410325053045E-20  7.07292098152306524E-21  3.77595573435351278E-21
  1.99997427709216126E-21  1.05086829106290362E-21  5.47715384743898281E-22
  2.83139344624899637E-22  1.45157480785742640E-22  7.37950526385799422E-23
  3.71978476840176470E-23  1.85893681928348024E-23  9.20917223044990547E-24
  4.52207720901740516E-24  2.20073818651933114E-24  1.06136011774050435E-24
   </PP_GIPAW_CORE_ORBITAL.2>
   <PP_GIPAW_CORE_ORBITAL.3 type="real" size="   999" columns="3" index="3" label="2P" n="2" l="1">
  8.82104125885085292E-07  9.01588748838169727E-07  9.21506381620260362E-07
  9.41866734857523093E-07  9.62679743827292854E-07  9.83955560528511255E-07
  1.00570456333871269E-06  1.02793737991877632E-06  1.05066487606019569E-06
  1.07389815514025805E-06  1.09764857905245190E-06  1.12192777598699208E-06
  1.14674762924448510E-06  1.17212028934001954E-06  1.19805819705165174E-06
  1.22457407051912199E-06  1.25168090946812897E-06  1.27939202247239181E-06
  1.30772102072704820E-06  1.33668181558707435E-06  1.36628864561873125E-06
  1.39655607738977567E-06  1.42749899897205698E-06  1.45913264691806532E-06
  1.49147261026609518E-06  1.52453482305899074E-06  1.55833559284019793E-06
  1.59289160328851208E-06  1.62821990890642853E-06  1.66433796625572091E-06
  1.70126363088498734E-06  1.73901515868768691E-06  1.77761123802161759E-06
  1.81707097890031249E-06  1.85741392745516799E-06  1.89866009029426538E-06
  1.94082992181844614E-06  1.98394435413189143E-06  2.02802480279553109E-06
  2.07309316698413252E-06  2.11917186346864647E-06  2.16628381519402578E-06
  2.21445247786097555E-06  2.26370185155801902E-06  2.31405648094679024E-06
  2.36554148993432826E-06  2.41818257117119211E-06  2.47200601921969549E-06
  2.52703873370277086E-06  2.58330823412043402E-06  2.64084268389988666E-06
  2.69967088843954575E-06  2.75982233220537705E-06  2.82132717135112055E-06
  2.88421627168827494E-06  2.94852120673211924E-06  3.01427428876327790E-06
  3.08150857678624673E-06  3.15025789923743985E-06  3.22055687123155431E-06
  3.29244091089632686E-06  3.36594626336805322E-06  3.44111001360265735E-06
  3.51797011439347458E-06  3.59656539831241757E-06  3.67693560739325876E-06
  3.75912140647195455E-06  3.84316441249403194E-06  3.92910721132397592E-06
  4.01699338473854028E-06  4.10686753272024988E-06  4.19877529631323755E-06
  4.29276338711343557E-06  4.38887960483787541E-06  4.48717287448044181E-06
  4.58769325950944663E-06  4.69049200413710460E-06  4.79562154698020717E-06
  4.90313556169911500E-06  5.01308897894231648E-06  5.12553801831216716E-06
  5.24054022348867444E-06  5.35815448475728839E-06  5.47844108301525590E-06
  5.60146171271292782E-06  5.72727952134567831E-06  5.85595914544769318E-06
  5.98756673948338541E-06  6.12217002177764655E-06  6.25983830501604208E-06
  6.40064253553074407E-06  6.54465533803722940E-06  6.69195104841954721E-06
  6.84260575942396261E-06  6.99669736457195184E-06  7.15430559591594534E-06
  7.31551207309327839E-06  7.48040034917320456E-06  7.64905595295124388E-06
  7.82156644028336388E-06  7.99802144408105405E-06  8.17851272055272638E-06
  8.36313420236595190E-06  8.55198205397804484E-06  8.74515472209670873E-06
  8.94275299094018465E-06  9.14488004167953495E-06  9.35164150941741114E-06
  9.56314554102718033E-06  9.77950285684384928E-06  1.00008268151105475E-05
  1.02272334742696235E-05  1.04588416579269034E-05  1.06957730224819667E-05
  1.09381521273952444E-05  1.11861065047633667E-05  1.14397667309824036E-05
  1.16992665009842506E-05  1.19647427046779735E-05  1.22363355052475085E-05
  1.25141884179167457E-05  1.27984483915613974E-05  1.30892658924812771E-05
  1.33867949902987927E-05  1.36911934462879391E-05  1.40026228030023524E-05
  1.43212484763331595E-05  1.46472398500991415E-05  1.49807703729624661E-05
  1.53220176577291471E-05  1.56711635831757726E-05  1.60283943983864774E-05
  1.63939008293489922E-05  1.67678781883940957E-05  1.71505264863762242E-05
  1.75420505476231710E-05  1.79426601277240989E-05  1.83525700342277466E-05
  1.87720002503233716E-05  1.92011760615789423E-05  1.96403281858167641E-05
  2.00896929062102128E-05  2.05495122076376687E-05  2.10200339164250904E-05
  2.15015118435587205E-05  2.19942059314408178E-05  2.24983824042758513E-05
  2.30143139221779052E-05  2.35422797390911503E-05  2.40825658646180862E-05
  2.46354652298526147E-05  2.52012778573164787E-05  2.57803110351014261E-05
  2.63728794953206310E-05  2.69793055969759613E-05  2.75999195133508416E-05
  2.82350594240394364E-05  2.88850717117279581E-05  2.95503111638445619E-05
  3.02311411791983833E-05  3.09279339797326213E-05  3.16410708275353014E-05
  3.23709422472036657E-05  3.31179482536961744E-05  3.38824985858294747E-05
  3.46650129455506722E-05  3.54659212431261703E-05  3.62856638483938405E-05
  3.71246918482270088E-05  3.79834673103636558E-05  3.88624635537589784E-05
  3.97621654257106018E-05  4.06830695858254474E-05  4.16256847968152435E-05
  4.25905322225746840E-05  4.35781457336356374E-05  4.45890722201662448E-05
  4.56238719127289541E-05  4.66831187112285914E-05  4.77674005216280350E-05
  4.88773196008701963E-05  5.00134929104830160E-05  5.11765524789218568E-05
  5.23671457731759621E-05  5.35859360794324152E-05  5.48336028925208138E-05
  5.61108423153273674E-05  5.74183674681904435E-05  5.87569089089828788E-05
  6.01272150625665124E-05  6.15300526608017739E-05  6.29662071938213920E-05
  6.44364833732047755E-05  6.59417056054403122E-05  6.74827184767939442E-05
  6.90603872509253704E-05  7.06755983795428387E-05  7.23292600237257141E-05
  7.40223025886190141E-05  7.57556792726957586E-05  7.75303666295077163E-05
  7.93473651421680050E-05  8.12076998138415977E-05  8.31124207727194420E-05
  8.50626038896339705E-05  8.70593514130320095E-05  8.91037926198870190E-05
  9.11970844798711385E-05  9.33404123385162205E-05  9.55349906169589022E-05
  9.77820635262973884E-05  1.00082905802964883E-04  1.02438823460204264E-04
  1.04851154556997561E-04  1.07321269989365376E-04  1.09850574296909101E-04
  1.12440506491731965E-04  1.15092540907901493E-04  1.17808188068762503E-04
  1.20588995580069209E-04  1.23436549040342042E-04  1.26352472976771097E-04
  1.29338431802995596E-04  1.32396130798927473E-04  1.35527317117977987E-04
  1.38733780814062917E-04  1.42017355899148049E-04  1.45379921421306014E-04
  1.48823402573738120E-04  1.52349771827232471E-04  1.55961050092764985E-04
  1.59659307911038962E-04  1.63446666671466330E-04  1.67325299861237391E-04
  1.71297434343802973E-04  1.75365351669963656E-04  1.79531389419124849E-04
  1.83797942575042895E-04  1.88167464933241418E-04  1.92642470544208472E-04
  1.97225535190494389E-04  2.01919297900307045E-04  2.06726462497951137E-04
  2.11649799190949861E-04  2.16692146197575196E-04  2.21856411410922079E-04
  2.27145574107188270E-04  2.32562686690704069E-04  2.38110876486222233E-04
  2.43793347569739200E-04  2.49613382647628627E-04  2.55574344978598588E-04
  2.61679680342821047E-04  2.67932919059921451E-04  2.74337678052593821E-04
  2.80897662964141542E-04  2.87616670322987200E-04  2.94498589762129674E-04
  3.01547406291452892E-04  3.08767202622997313E-04  3.16162161555543885E-04
  3.23736568412935188E-04  3.31494813543130480E-04  3.39441394877568257E-04
  3.47580920549500020E-04  3.55918111578268316E-04  3.64457804615895176E-04
  3.73204954759157124E-04  3.82164638431349557E-04  3.91342056330240692E-04
  4.00742536447533794E-04  4.10371537161883474E-04  4.20234650403133547E-04
  4.30337604893521973E-04  4.40686269467048856E-04  4.51286656465599127E-04
  4.62144925217292861E-04  4.73267385598437275E-04  4.84660501678008311E-04
  4.96330895449731630E-04  5.08285350653798129E-04  5.20530816687347691E-04
  5.33074412608057881E-04  5.45923431233718789E-04  5.59085343337662626E-04
  5.72567801942888352E-04  5.86378646718684494E-04  6.00525908481053272E-04
  6.15017813797840893E-04  6.29862789703097099E-04  6.45069468523093111E-04
  6.60646692814819921E-04  6.76603520420180379E-04  6.92949229639433875E-04
  7.09693324526347916E-04  7.26845540306128341E-04  7.44415848920400129E-04
  7.62414464702191436E-04  7.80851850183680667E-04  7.99738722038294205E-04
  8.19086057161609441E-04  8.38905098894047714E-04  8.59207363388512818E-04
  8.80004646124934791E-04  9.01309028576137319E-04  9.23132885028323425E-04
  9.45488889559730318E-04  9.68390023179973853E-04  9.91849581133981374E-04
  1.01588118037461211E-03  1.04049876720745289E-03  1.06571662511157359E-03
  1.09154938273914575E-03  1.11801202209881154E-03  1.14511988692658122E-03
  1.17288869124834326E-03  1.20133452813798959E-03  1.23047387867471713E-03
  1.26032362110464475E-03  1.29090104021085950E-03  1.32222383689632153E-03
  1.35431013798425993E-03  1.38717850623988831E-03  1.42084795061888443E-03
  1.45533793674728815E-03  1.49066839763754800E-03  1.52685974464589463E-03
  1.56393287867563255E-03  1.60190920163139224E-03  1.64081062813004963E-03
  1.68065959747332552E-03  1.72147908588751578E-03  1.76329261903592697E-03
  1.80612428480929864E-03  1.84999874639977472E-03  1.89494125566456117E-03
  1.94097766678499721E-03  1.98813445022693854E-03  2.03643870700849971E-03
  2.08591818328147808E-03  2.13660128523215313E-03  2.18851709430815337E-03
  2.24169538277791802E-03  2.29616662962911847E-03  2.35196203681275681E-03
  2.40911354583955720E-03  2.46765385473570733E-03  2.52761643536454639E-03
  2.58903555112118206E-03  2.65194627500754372E-03  2.71638450809482410E-03
  2.78238699838074177E-03  2.84999136004898462E-03  2.91923609313833035E-03
  2.99016060362923856E-03  3.06280522395538162E-03  3.13721123394784807E-03
  3.21342088222019732E-03  3.29147740800224973E-03  3.37142506343073023E-03
  3.45330913630489001E-03  3.53717597331542483E-03  3.62307300375505018E-03
  3.71104876371914196E-03  3.80115292080518679E-03  3.89343629931916549E-03
  3.98795090599797248E-03  4.08474995625663327E-03  4.18388790096901452E-03
  4.28542045379114341E-03  4.38940461903593229E-03  4.49589872010852393E-03
  4.60496242851136852E-03  4.71665679342807634E-03  4.83104427189554649E-03
  4.94818875957350399E-03  5.06815562212072426E-03  5.19101172718738641E-03
  5.31682547703303011E-03  5.44566684177959833E-03  5.57760739330896531E-03
  5.71272033981448137E-03  5.85108056101608497E-03  5.99276464404839559E-03
  6.13785092003146099E-03  6.28641950133352473E-03  6.43855231953541999E-03
  6.59433316410602648E-03  6.75384772179817624E-03  6.91718361677464040E-03
  7.08443045147310723E-03  7.25567984821977232E-03  7.43102549160070628E-03
  7.61056317160008211E-03  7.79439082751433917E-03  7.98260859265112824E-03
  8.17531883982197324E-03  8.37262622763721917E-03  8.57463774761180186E-03
  8.78146277209027395E-03  8.99321310299920629E-03  9.21000302143498359E-03
  9.43194933809480413E-03  9.65917144455838254E-03  9.89179136542773368E-03
  1.01299338113320734E-02  1.03737262328045757E-02  1.06232988750374711E-02
  1.08787848335217263E-02  1.11403201105768779E-02  1.14080436727766171E-02
  1.16820975092750759E-02  1.19626266910386296E-02  1.22497794309870556E-02
  1.25437071450481049E-02  1.28445645141285134E-02  1.31525095470041171E-02
  1.34677036441313361E-02  1.37903116623814687E-02  1.41205019806988109E-02
  1.44584465666828567E-02  1.48043210440941611E-02  1.51583047612828172E-02
  1.55205808605376281E-02  1.58913363483534145E-02  1.62707621666128600E-02
  1.66590532646785604E-02  1.70564086723901803E-02  1.74630315739602998E-02
  1.78791293827618610E-02  1.83049138169989432E-02  1.87406009762515098E-02
  1.91864114188836851E-02  1.96425702403039866E-02  2.01093071520643471E-02
  2.05868565617841198E-02  2.10754576538832554E-02  2.15753544711078590E-02
  2.20867959968297882E-02  2.26100362381002375E-02  2.31453343094360393E-02
  2.36929545173155016E-02  2.42531664453588813E-02  2.48262450401672101E-02
  2.54124706977907518E-02  2.60121293507969455E-02  2.66255125559057941E-02
  2.72529175821578408E-02  2.78946474995789319E-02  2.85510112683027457E-02
  2.92223238281102173E-02  2.99089061883430103E-02  3.06110855181447768E-02
  3.13291952369825003E-02  3.20635751053972504E-02  3.28145713159301300E-02
  3.35825365841682585E-02  3.43678302398507871E-02  3.51708183179735359E-02
  3.59918736498269914E-02  3.68313759538991120E-02  3.76897119265723682E-02
  3.85672753325388834E-02  3.94644670948572432E-02  4.03816953845675397E-02
  4.13193757097802816E-02  4.22779310041498727E-02  4.32577917146394000E-02
  4.42593958884804142E-02  4.52831892592261073E-02  4.63296253317931547E-02
  4.73991654663828768E-02  4.84922789611677563E-02  4.96094431336247185E-02
  5.07511434003934600E-02  5.19178733555303862E-02  5.31101348470276111E-02
  5.43284380514583651E-02  5.55733015466064253E-02  5.68452523819331229E-02
  5.81448261467267663E-02  5.94725670357789393E-02  6.08290279124207994E-02
  6.22147703687525797E-02  6.36303647828894842E-02  6.50763903730424420E-02
  6.65534352482490821E-02  6.80620964555578578E-02  6.96029800234704565E-02
  7.11767010014326129E-02  7.27838834951647085E-02  7.44251606976111257E-02
  7.61011749152845640E-02  7.78125775897737793E-02  7.95600293141739690E-02
  8.13441998441979258E-02  8.31657681037112212E-02  8.50254221844365804E-02
  8.69238593395562920E-02  8.88617859709431163E-02  9.08399176097354627E-02
  9.28589788899703283E-02  9.49197035149789980E-02  9.70228342162396534E-02
  9.91691227043807189E-02  1.01359329612013133E-01  1.03594224428069911E-01
  1.05874585423316445E-01  1.08201199566696105E-01  1.10574862432158999E-01
  1.12996378095621713E-01  1.15466559021696530E-01  1.17986225939815878E-01
  1.20556207709382537E-01  1.23177341173553528E-01  1.25850471001273889E-01
  1.28576449517157188E-01  1.31356136518810285E-01  1.34190399081192485E-01
  1.37080111347586076E-01  1.40026154306761103E-01  1.43029415555897266E-01
  1.46090789048832520E-01  1.49211174829192550E-01  1.52391478747957165E-01
  1.55632612165009454E-01  1.58935491634211917E-01  1.62301038571550815E-01
  1.65730178905878101E-01  1.69223842711791250E-01  1.72782963824169911E-01
  1.76408479433904641E-01  1.80101329664335702E-01  1.83862457127926177E-01
  1.87692806462693235E-01  1.91593323847915109E-01  1.95564956498641057E-01
  1.99608652138520637E-01  2.03725358450483840E-01  2.07916022504795767E-01
  2.12181590164016526E-01  2.16523005464405699E-01  2.20941209973306935E-01
  2.25437142122064643E-01  2.30011736514023041E-01  2.34665923207178551E-01
  2.39400626971043112E-01  2.44216766517310502E-01  2.49115253703922623E-01
  2.54096992712136593E-01  2.59162879196223939E-01  2.64313799405431704E-01
  2.69550629277867770E-01  2.74874233505979559E-01  2.80285464573326759E-01
  2.85785161762359852E-01  2.91374150132947318E-01  2.97053239471420982E-01
  3.02823223209923498E-01  3.08684877315892392E-01  3.14638959151522790E-01
  3.20686206303101129E-01  3.26827335380129036E-01  3.33063040784193187E-01
  3.39393993447578923E-01  3.45820839541662095E-01  3.52344199155167570E-01
  3.58964664942403755E-01  3.65682800741664482E-01  3.72499140164006814E-01
  3.79414185152684602E-01  3.86428404513567081E-01  3.93542232416921767E-01
  4.00756066871015226E-01  4.08070268168020500E-01  4.15485157302816210E-01
  4.23001014365293582E-01  4.30618076906882530E-01  4.38336538282063926E-01
  4.46156545965702755E-01  4.54078199847129604E-01  4.62101550501966662E-01
  4.70226597442750027E-01  4.78453287349462575E-01  4.86781512281268203E-01
  4.95211107870735023E-01  5.03741851501933513E-01  5.12373460473908637E-01
  5.21105590151067943E-01  5.29937832102167050E-01  5.38869712229608999E-01
  5.47900688890910703E-01  5.57030151014242692E-01  5.66257416210059539E-01
  5.75581728880926180E-01  5.85002258331715819E-01  5.94518096882483693E-01
  6.04128257986360717E-01  6.13831674354950785E-01  6.23627196093762270E-01
  6.33513588850316500E-01  6.43489531977658791E-01  6.53553616716065267E-01
  6.63704344395865564E-01  6.73940124664325624E-01  6.84259273739680318E-01
  6.94660012695441198E-01  7.05140465778204995E-01  7.15698658762280671E-01
  7.26332517344501438E-01  7.37039865582708731E-01  7.47818424381436753E-01
  7.58665810028472998E-01  7.69579532786013543E-01  7.80556995540032883E-01
  7.91595492511920962E-01  8.02692208036344113E-01  8.13844215409381233E-01
  8.25048475811071436E-01  8.36301837306656193E-01  8.47601033930840853E-01
  8.58942684859573480E-01  8.70323293673888720E-01  8.81739247720512709E-01
  8.93186817574042502E-01  9.04662156605598122E-01  9.16161300663019817E-01
  9.27680167867749872E-01  9.39214558533694954E-01  9.50760155213468794E-01
  9.62312522877522225E-01  9.73867109231774886E-01  9.85419245179455672E-01
  9.96964145432945426E-01  1.00849690928144908E+00  1.02001252152041055E+00
  1.03150585354856417E+00  1.04297166463852098E+00  1.05440460338676156E+00
  1.06579920934881378E+00  1.07714991486530942E+00  1.08845104708447571E+00
  1.09969683018652509E+00  1.11088138781465173E+00  1.12199874571783376E+00
  1.13304283460998612E+00  1.14400749324958717E+00  1.15488647174358472E+00
  1.16567343507892285E+00  1.17636196688457462E+00  1.18694557342643892E+00
  1.19741768783692182E+00  1.20777167458042745E+00  1.21800083415539317E+00
  1.22809840803285986E+00  1.23805758383089737E+00  1.24787150072357145E+00
  1.25753325508240765E+00  1.26703590634762420E+00  1.27637248312570817E+00
  1.28553598950917225E+00  1.29451941161365180E+00  1.30331572432672949E+00
  1.31191789826225680E+00  1.32031890691313825E+00  1.32851173399494793E+00
  1.33648938097201420E+00  1.34424487475696264E+00  1.35177127557408272E+00
  1.35906168497628288E+00  1.36610925400474414E+00  1.37290719147961027E+00
  1.37944877241003505E+00  1.38572734651099938E+00  1.39173634681388880E+00
  1.39746929835738865E+00  1.40291982694482753E+00  1.40808166795374223E+00
  1.41294867518306022E+00  1.41751482972302578E+00  1.42177424883270254E+00
  1.42572119480967929E+00  1.42935008383642237E+00  1.43265549478757159E+00
  1.43563217798239839E+00  1.43827506386657000E+00  1.44057927160738486E+00
  1.44254011758665346E+00  1.44415312377548499E+00  1.44541402597536606E+00
  1.44631878191007601E+00  1.44686357915316655E+00  1.44704484287599255E+00
  1.44685924340153016E+00  1.44630370354953341E+00  1.44537540575892076E+00
  1.44407179897347926E+00  1.44239060527753571E+00  1.44032982626930472E+00
  1.43788774915869033E+00  1.43506295257758776E+00  1.43185431209111935E+00
  1.42826100539863954E+00  1.42428251721382360E+00  1.41991864381362620E+00
  1.41516949724634333E+00  1.41003550918951226E+00  1.40451743444878807E+00
  1.39861635408942031E+00  1.39233367819234344E+00  1.38567114822731230E+00
  1.37863083903591033E+00  1.37121516041757996E+00  1.36342685831221511E+00
  1.35526901557310131E+00  1.34674505232432407E+00  1.33785872589698673E+00
  1.32861413033880105E+00  1.31901569549183884E+00  1.30906818563336258E+00
  1.29877669767484272E+00  1.28814665891434377E+00  1.27718382433747113E+00
  1.26589427346148486E+00  1.25428440672057073E+00  1.24236094138624953E+00
  1.23013090701800798E+00  1.21760164044037467E+00  1.20478078024220814E+00
  1.19167626079411604E+00  1.17829630578000533E+00  1.16464942123898552E+00
  1.15074438811403401E+00  1.13659025430409688E+00  1.12219632621668364E+00
  1.10757215981834367E+00  1.09272755118098397E+00  1.07767252652253220E+00
  1.06241733174115516E+00  1.04697242144306846E+00  1.03134844746490595E+00
  1.01555624689295043E+00  9.99606829581793477E-01  9.83511365177031416E-01
  9.67281169651060369E-01  9.50927691355882287E-01  9.34462496605488191E-01
  9.17897254799417639E-01  9.01243723101939453E-01  8.84513730693083255E-01
  8.67719162615122830E-01  8.50871943235416817E-01  8.33984019351549866E-01
  8.17067342969693633E-01  8.00133853790249927E-01  7.83195461438861207E-01
  7.66264027485067944E-01  7.49351347295344805E-01  7.32469131771617432E-01
  7.15628989030940854E-01  6.98842406086364609E-01  6.82120730593290148E-01
  6.65475152729561370E-01  6.48916687280939986E-01  6.32456156006581005E-01
  6.16104170361046366E-01  5.99871114650586401E-01  5.83767129701299403E-01
  5.67802097115425841E-01  5.51985624189313184E-01  5.36327029562309487E-01
  5.20835329660222723E-01  5.05519225989848109E-01  4.90387093332830371E-01
  4.75446968877536680E-01  4.60706542317912360E-01  4.46173146939795706E-01
  4.31853751701004096E-01  4.17754954304416670E-01  4.03882975254163334E-01
  3.90243652877084901E-01  3.76842439285287101E-01  3.63684397250856106E-01
  3.50774197960621759E-01  3.38116119617205779E-01  3.25714046852426775E-01
  3.13571470920071926E-01  3.01691490637083504E-01  2.90076814044805176E-01
  2.78729760765064782E-01  2.67652265029075298E-01  2.56845879360303453E-01
  2.46311778895380862E-01  2.36050766329544165E-01  2.26063277475122060E-01
  2.16349387422865885E-01  2.06908817296717229E-01  1.97740941592687652E-01
  1.88844796092089068E-01  1.80219086338354706E-01  1.71862196665793582E-01
  1.63772199765113285E-01  1.55946866768961523E-01  1.48383677839947409E-01
  1.41079833239219382E-01  1.34032264851370986E-01  1.27237648138671777E-01
  1.20692414494895608E-01  1.14392763966305530E-01  1.08334678304853299E-01
  1.02513934316251082E-01  9.69261174634379608E-02  9.15666356840391799E-02
  8.64307333787832088E-02  8.15135055264986919E-02  7.68099118802454961E-02
  7.23147911984278191E-02  6.80228754643288636E-02  6.39288040474146890E-02
  6.00271377600113884E-02  5.63123727635094287E-02  5.27789542791349611E-02
  4.94212900594801358E-02  4.62337635784513395E-02  4.32107468990044971E-02
  4.03466131805242309E-02  3.76357487896103737E-02  3.50725649768639722E-02
  3.26515090918363116E-02  3.03670753068275220E-02  2.82138148233367844E-02
  2.61863455383371108E-02  2.42793611506331511E-02  2.24876396906923751E-02
  2.08060514605123252E-02  1.92295663732733497E-02  1.77532606856827084E-02
  1.63723231190537472E-02  1.50820603682200426E-02  1.38779020003796261E-02
  1.27554047488478550E-02  1.17102562094609577E-02  1.07382779500138949E-02
  9.83542804559188119E-03  8.99780305498505510E-03  8.22163945552020943E-03
  7.50331455561210458E-03  6.83934690611757296E-03  6.22639623315462531E-03
  5.66126291643531676E-03  5.14088703843721285E-03  4.66234703120905081E-03
  4.22285794580803085E-03  3.81976937327193570E-03  3.45056304564160879E-03
  3.11285014467150298E-03  2.80436834642162642E-03  2.52297862978249823E-03
  2.26666187667420426E-03  2.03351529119457589E-03  1.82174866438508751E-03
  1.62968051054264169E-03  1.45573410014813455E-03  1.29843341351557474E-03
  1.15639903820411631E-03  1.02834403209253961E-03  9.13069772800921531E-04
  8.09461812874536489E-04  7.16485758828063098E-04  6.33183190799915308E-04
  5.58667638196351448E-04  4.92120625324333084E-04  4.32787799633023061E-04
  3.79975153814296159E-04  3.33045351664137555E-04  2.91414166291635395E-04
  2.54547038095649235E-04  2.21955758268128054E-04  1.93195282727588882E-04
  1.67860680537454686E-04  1.45584219298957148E-04  1.26032589162741233E-04
  1.08904266172005063E-04  9.39270147789415767E-05  8.08555285766415468E-05
  6.94692075612708324E-05  5.95700695845032737E-05  5.09807930732437782E-05
  4.35428875816946086E-05  3.71149882979498634E-05  3.15712702515706336E-05
  2.67999776573165352E-05  2.27020635804444207E-05  1.91899349174462985E-05
  1.61862975491508090E-05  1.36230964370705720E-05  1.14405453947091641E-05
  9.58624126923020863E-06  8.01435731134376464E-06  6.68491058834808143E-06
  5.56309840297567022E-06  4.61869882101315293E-06  3.82553055036915571E-06
  3.16096758997239759E-06  2.60550430056046922E-06  2.14236670771573273E-06
  1.75716607161135592E-06  1.43759097801569224E-06  1.17313442658733242E-06
  9.54852614890399350E-07  7.75152337697633815E-07  6.27604139130471040E-07
  5.06778568344332269E-07  4.08103096390910856E-07  3.27737451394394965E-07
  2.62465320299302597E-07  2.09600547434399229E-07  1.66906132425293391E-07
  1.32524492197611742E-07  1.04917603720109444E-07  8.28157856657198468E-08
  6.51740083692879431E-08  5.11347424940937318E-08  3.99964679414315230E-08
  3.11870660825956463E-08  2.42414107592912297E-08  1.87825571950310479E-08
  1.45060032280779597E-08  1.11665647126050813E-08  8.56746821536231420E-09
  6.55131714825683473E-09  4.99263527134966476E-09  3.79173356064398434E-09
  2.86968331338282172E-09  2.16421060511386185E-09  1.62635527907766820E-09
  1.21776197502951334E-09  9.08491698828787068E-10  6.75260474286583449E-10
  5.00027053456819491E-10  3.68864809789322039E-10  2.71064090293362255E-10
  1.98420719909285222E-10  1.44674268583640634E-10  1.05066318578386074E-10
  7.59944919889911655E-11  5.47425798920026655E-11  3.92708982772469776E-11
  2.80541067306778396E-11  1.99562717720473226E-11  1.41350308512714637E-11
  9.96839499550644447E-12  6.99908556587318527E-12  4.89239058411975092E-12
  3.40439984021186541E-12  2.35817040275627856E-12  1.62592400547732899E-12
  1.11581110166760671E-12  7.62116057193953871E-13  5.18043043533233768E-13
  3.50428045524917684E-13  2.35881449581474610E-13  1.57987945580940346E-13
  1.05283986045203165E-13  6.98041941338172952E-14  4.60419620772360322E-14
  3.02100175362109100E-14  1.97171518365560496E-14  1.27998576854867360E-14
  8.26427321686784029E-15  5.30656155965590568E-15  3.38844804555066162E-15
  2.15147954745761617E-15  1.35828738680811663E-15  8.52575909414183104E-16
  5.32022341558083698E-16  3.30027539081950164E-16  2.03498727581360339E-16
  1.24718748261313007E-16  7.59673933977582287E-17  4.59848349208098055E-17
  2.76605000675127332E-17  1.65321389028991230E-17  9.81718294687153639E-18
  5.79159653907773356E-18  3.39412319155824452E-18  1.97578026636150204E-18
  1.14233852124198554E-18  6.55932373270263671E-19  3.74019142809187101E-19
  2.11768368839654261E-19  1.19048063681946636E-19  6.64413664913787170E-20
  3.68103747680920191E-20  2.02431158284672278E-20  1.10489083622880501E-20
  5.98487649397068216E-21  3.21694186356402219E-21  1.71569557000614241E-21
   </PP_GIPAW_CORE_ORBITAL.3>
  </PP_GIPAW_CORE_ORBITALS>
 </PP_GIPAW>
</UPF> 
